c Dataset: scen04
c Encoding: DSE
c DecisionVars: 1960
c OrderVars: 0
c CardinalityAuxVars: 1638
c LabelVars: 48
c TotalVars: 3646
c OrderClauses: 0
c CardinalityClauses: 6426
c DistanceClauses: 3794
c LabelLinkClauses: 1960
c SoftClauses: 48
c HardClauses: 12180
c TotalClauses: 12228
p wcnf 3646 12228 49
1 -3599 0
1 -3600 0
1 -3601 0
1 -3602 0
1 -3603 0
1 -3604 0
1 -3605 0
1 -3606 0
1 -3607 0
1 -3608 0
1 -3609 0
1 -3610 0
1 -3611 0
1 -3612 0
1 -3613 0
1 -3614 0
1 -3615 0
1 -3616 0
1 -3617 0
1 -3618 0
1 -3619 0
1 -3620 0
1 -3621 0
1 -3622 0
1 -3623 0
1 -3624 0
1 -3625 0
1 -3626 0
1 -3627 0
1 -3628 0
1 -3629 0
1 -3630 0
1 -3631 0
1 -3632 0
1 -3633 0
1 -3634 0
1 -3635 0
1 -3636 0
1 -3637 0
1 -3638 0
1 -3639 0
1 -3640 0
1 -3641 0
1 -3642 0
1 -3643 0
1 -3644 0
1 -3645 0
1 -3646 0
49 1 0
49 2 0
49 3 4 5 6 0
49 -1963 1962 0
49 -1964 1963 0
49 -1965 1964 0
49 1962 3 0
49 -3 -1962 0
49 -1962 1963 4 0
49 1962 -4 0
49 -4 -1963 0
49 -1963 1964 5 0
49 1963 -5 0
49 -5 -1964 0
49 -1964 1965 6 0
49 1964 -6 0
49 -6 -1965 0
49 -1965 1961 0
49 -1961 1965 0
49 7 8 9 10 0
49 -1968 1967 0
49 -1969 1968 0
49 -1970 1969 0
49 1967 7 0
49 -7 -1967 0
49 -1967 1968 8 0
49 1967 -8 0
49 -8 -1968 0
49 -1968 1969 9 0
49 1968 -9 0
49 -9 -1969 0
49 -1969 1970 10 0
49 1969 -10 0
49 -10 -1970 0
49 -1970 1966 0
49 -1966 1970 0
49 11 0
49 12 0
49 13 0
49 14 0
49 15 0
49 16 0
49 17 18 19 20 21 22 0
49 -1973 1972 0
49 -1974 1973 0
49 -1975 1974 0
49 -1976 1975 0
49 -1977 1976 0
49 1972 17 0
49 -17 -1972 0
49 -1972 1973 18 0
49 1972 -18 0
49 -18 -1973 0
49 -1973 1974 19 0
49 1973 -19 0
49 -19 -1974 0
49 -1974 1975 20 0
49 1974 -20 0
49 -20 -1975 0
49 -1975 1976 21 0
49 1975 -21 0
49 -21 -1976 0
49 -1976 1977 22 0
49 1976 -22 0
49 -22 -1977 0
49 -1977 1971 0
49 -1971 1977 0
49 23 24 25 26 27 28 0
49 -1980 1979 0
49 -1981 1980 0
49 -1982 1981 0
49 -1983 1982 0
49 -1984 1983 0
49 1979 23 0
49 -23 -1979 0
49 -1979 1980 24 0
49 1979 -24 0
49 -24 -1980 0
49 -1980 1981 25 0
49 1980 -25 0
49 -25 -1981 0
49 -1981 1982 26 0
49 1981 -26 0
49 -26 -1982 0
49 -1982 1983 27 0
49 1982 -27 0
49 -27 -1983 0
49 -1983 1984 28 0
49 1983 -28 0
49 -28 -1984 0
49 -1984 1978 0
49 -1978 1984 0
49 29 0
49 30 0
49 31 0
49 32 0
49 33 34 35 36 37 38 39 40 41 42 43 0
49 -1987 1986 0
49 -1988 1987 0
49 -1989 1988 0
49 -1990 1989 0
49 -1991 1990 0
49 -1992 1991 0
49 -1993 1992 0
49 -1994 1993 0
49 -1995 1994 0
49 -1996 1995 0
49 1986 33 0
49 -33 -1986 0
49 -1986 1987 34 0
49 1986 -34 0
49 -34 -1987 0
49 -1987 1988 35 0
49 1987 -35 0
49 -35 -1988 0
49 -1988 1989 36 0
49 1988 -36 0
49 -36 -1989 0
49 -1989 1990 37 0
49 1989 -37 0
49 -37 -1990 0
49 -1990 1991 38 0
49 1990 -38 0
49 -38 -1991 0
49 -1991 1992 39 0
49 1991 -39 0
49 -39 -1992 0
49 -1992 1993 40 0
49 1992 -40 0
49 -40 -1993 0
49 -1993 1994 41 0
49 1993 -41 0
49 -41 -1994 0
49 -1994 1995 42 0
49 1994 -42 0
49 -42 -1995 0
49 -1995 1996 43 0
49 1995 -43 0
49 -43 -1996 0
49 -1996 1985 0
49 -1985 1996 0
49 44 45 46 47 48 49 50 51 52 53 54 0
49 -1999 1998 0
49 -2000 1999 0
49 -2001 2000 0
49 -2002 2001 0
49 -2003 2002 0
49 -2004 2003 0
49 -2005 2004 0
49 -2006 2005 0
49 -2007 2006 0
49 -2008 2007 0
49 1998 44 0
49 -44 -1998 0
49 -1998 1999 45 0
49 1998 -45 0
49 -45 -1999 0
49 -1999 2000 46 0
49 1999 -46 0
49 -46 -2000 0
49 -2000 2001 47 0
49 2000 -47 0
49 -47 -2001 0
49 -2001 2002 48 0
49 2001 -48 0
49 -48 -2002 0
49 -2002 2003 49 0
49 2002 -49 0
49 -49 -2003 0
49 -2003 2004 50 0
49 2003 -50 0
49 -50 -2004 0
49 -2004 2005 51 0
49 2004 -51 0
49 -51 -2005 0
49 -2005 2006 52 0
49 2005 -52 0
49 -52 -2006 0
49 -2006 2007 53 0
49 2006 -53 0
49 -53 -2007 0
49 -2007 2008 54 0
49 2007 -54 0
49 -54 -2008 0
49 -2008 1997 0
49 -1997 2008 0
49 55 56 57 0
49 -2011 2010 0
49 -2012 2011 0
49 2010 55 0
49 -55 -2010 0
49 -2010 2011 56 0
49 2010 -56 0
49 -56 -2011 0
49 -2011 2012 57 0
49 2011 -57 0
49 -57 -2012 0
49 -2012 2009 0
49 -2009 2012 0
49 58 59 60 0
49 -2015 2014 0
49 -2016 2015 0
49 2014 58 0
49 -58 -2014 0
49 -2014 2015 59 0
49 2014 -59 0
49 -59 -2015 0
49 -2015 2016 60 0
49 2015 -60 0
49 -60 -2016 0
49 -2016 2013 0
49 -2013 2016 0
49 61 0
49 62 0
49 63 64 65 0
49 -2019 2018 0
49 -2020 2019 0
49 2018 63 0
49 -63 -2018 0
49 -2018 2019 64 0
49 2018 -64 0
49 -64 -2019 0
49 -2019 2020 65 0
49 2019 -65 0
49 -65 -2020 0
49 -2020 2017 0
49 -2017 2020 0
49 66 67 68 0
49 -2023 2022 0
49 -2024 2023 0
49 2022 66 0
49 -66 -2022 0
49 -2022 2023 67 0
49 2022 -67 0
49 -67 -2023 0
49 -2023 2024 68 0
49 2023 -68 0
49 -68 -2024 0
49 -2024 2021 0
49 -2021 2024 0
49 69 0
49 70 0
49 71 0
49 72 0
49 73 0
49 74 0
49 75 0
49 76 0
49 77 78 79 80 81 82 83 84 85 86 0
49 -2027 2026 0
49 -2028 2027 0
49 -2029 2028 0
49 -2030 2029 0
49 -2031 2030 0
49 -2032 2031 0
49 -2033 2032 0
49 -2034 2033 0
49 -2035 2034 0
49 2026 77 0
49 -77 -2026 0
49 -2026 2027 78 0
49 2026 -78 0
49 -78 -2027 0
49 -2027 2028 79 0
49 2027 -79 0
49 -79 -2028 0
49 -2028 2029 80 0
49 2028 -80 0
49 -80 -2029 0
49 -2029 2030 81 0
49 2029 -81 0
49 -81 -2030 0
49 -2030 2031 82 0
49 2030 -82 0
49 -82 -2031 0
49 -2031 2032 83 0
49 2031 -83 0
49 -83 -2032 0
49 -2032 2033 84 0
49 2032 -84 0
49 -84 -2033 0
49 -2033 2034 85 0
49 2033 -85 0
49 -85 -2034 0
49 -2034 2035 86 0
49 2034 -86 0
49 -86 -2035 0
49 -2035 2025 0
49 -2025 2035 0
49 87 88 89 90 91 92 93 94 95 96 0
49 -2038 2037 0
49 -2039 2038 0
49 -2040 2039 0
49 -2041 2040 0
49 -2042 2041 0
49 -2043 2042 0
49 -2044 2043 0
49 -2045 2044 0
49 -2046 2045 0
49 2037 87 0
49 -87 -2037 0
49 -2037 2038 88 0
49 2037 -88 0
49 -88 -2038 0
49 -2038 2039 89 0
49 2038 -89 0
49 -89 -2039 0
49 -2039 2040 90 0
49 2039 -90 0
49 -90 -2040 0
49 -2040 2041 91 0
49 2040 -91 0
49 -91 -2041 0
49 -2041 2042 92 0
49 2041 -92 0
49 -92 -2042 0
49 -2042 2043 93 0
49 2042 -93 0
49 -93 -2043 0
49 -2043 2044 94 0
49 2043 -94 0
49 -94 -2044 0
49 -2044 2045 95 0
49 2044 -95 0
49 -95 -2045 0
49 -2045 2046 96 0
49 2045 -96 0
49 -96 -2046 0
49 -2046 2036 0
49 -2036 2046 0
49 97 0
49 98 0
49 99 100 0
49 -99 -100 0
49 101 102 0
49 -101 -102 0
49 103 0
49 104 0
49 105 0
49 106 0
49 107 108 0
49 -107 -108 0
49 109 110 0
49 -109 -110 0
49 111 0
49 112 0
49 113 114 0
49 -113 -114 0
49 115 116 0
49 -115 -116 0
49 117 118 119 120 0
49 -2049 2048 0
49 -2050 2049 0
49 -2051 2050 0
49 2048 117 0
49 -117 -2048 0
49 -2048 2049 118 0
49 2048 -118 0
49 -118 -2049 0
49 -2049 2050 119 0
49 2049 -119 0
49 -119 -2050 0
49 -2050 2051 120 0
49 2050 -120 0
49 -120 -2051 0
49 -2051 2047 0
49 -2047 2051 0
49 121 122 123 124 0
49 -2054 2053 0
49 -2055 2054 0
49 -2056 2055 0
49 2053 121 0
49 -121 -2053 0
49 -2053 2054 122 0
49 2053 -122 0
49 -122 -2054 0
49 -2054 2055 123 0
49 2054 -123 0
49 -123 -2055 0
49 -2055 2056 124 0
49 2055 -124 0
49 -124 -2056 0
49 -2056 2052 0
49 -2052 2056 0
49 125 0
49 126 0
49 127 0
49 128 0
49 129 0
49 130 0
49 131 0
49 132 0
49 133 134 0
49 -133 -134 0
49 135 136 0
49 -135 -136 0
49 137 0
49 138 0
49 139 0
49 140 0
49 141 0
49 142 0
49 143 0
49 144 0
49 145 0
49 146 0
49 147 0
49 148 0
49 149 0
49 150 0
49 151 0
49 152 0
49 153 0
49 154 0
49 155 0
49 156 0
49 157 0
49 158 0
49 159 0
49 160 0
49 161 0
49 162 0
49 163 0
49 164 0
49 165 166 167 168 169 0
49 -2059 2058 0
49 -2060 2059 0
49 -2061 2060 0
49 -2062 2061 0
49 2058 165 0
49 -165 -2058 0
49 -2058 2059 166 0
49 2058 -166 0
49 -166 -2059 0
49 -2059 2060 167 0
49 2059 -167 0
49 -167 -2060 0
49 -2060 2061 168 0
49 2060 -168 0
49 -168 -2061 0
49 -2061 2062 169 0
49 2061 -169 0
49 -169 -2062 0
49 -2062 2057 0
49 -2057 2062 0
49 170 171 172 173 174 0
49 -2065 2064 0
49 -2066 2065 0
49 -2067 2066 0
49 -2068 2067 0
49 2064 170 0
49 -170 -2064 0
49 -2064 2065 171 0
49 2064 -171 0
49 -171 -2065 0
49 -2065 2066 172 0
49 2065 -172 0
49 -172 -2066 0
49 -2066 2067 173 0
49 2066 -173 0
49 -173 -2067 0
49 -2067 2068 174 0
49 2067 -174 0
49 -174 -2068 0
49 -2068 2063 0
49 -2063 2068 0
49 175 0
49 176 0
49 177 0
49 178 0
49 179 0
49 180 0
49 181 0
49 182 0
49 183 184 185 186 187 0
49 -2071 2070 0
49 -2072 2071 0
49 -2073 2072 0
49 -2074 2073 0
49 2070 183 0
49 -183 -2070 0
49 -2070 2071 184 0
49 2070 -184 0
49 -184 -2071 0
49 -2071 2072 185 0
49 2071 -185 0
49 -185 -2072 0
49 -2072 2073 186 0
49 2072 -186 0
49 -186 -2073 0
49 -2073 2074 187 0
49 2073 -187 0
49 -187 -2074 0
49 -2074 2069 0
49 -2069 2074 0
49 188 189 190 191 192 0
49 -2077 2076 0
49 -2078 2077 0
49 -2079 2078 0
49 -2080 2079 0
49 2076 188 0
49 -188 -2076 0
49 -2076 2077 189 0
49 2076 -189 0
49 -189 -2077 0
49 -2077 2078 190 0
49 2077 -190 0
49 -190 -2078 0
49 -2078 2079 191 0
49 2078 -191 0
49 -191 -2079 0
49 -2079 2080 192 0
49 2079 -192 0
49 -192 -2080 0
49 -2080 2075 0
49 -2075 2080 0
49 193 194 0
49 -193 -194 0
49 195 196 0
49 -195 -196 0
49 197 0
49 198 0
49 199 200 201 0
49 -2083 2082 0
49 -2084 2083 0
49 2082 199 0
49 -199 -2082 0
49 -2082 2083 200 0
49 2082 -200 0
49 -200 -2083 0
49 -2083 2084 201 0
49 2083 -201 0
49 -201 -2084 0
49 -2084 2081 0
49 -2081 2084 0
49 202 203 204 0
49 -2087 2086 0
49 -2088 2087 0
49 2086 202 0
49 -202 -2086 0
49 -2086 2087 203 0
49 2086 -203 0
49 -203 -2087 0
49 -2087 2088 204 0
49 2087 -204 0
49 -204 -2088 0
49 -2088 2085 0
49 -2085 2088 0
49 205 0
49 206 0
49 207 0
49 208 0
49 209 0
49 210 0
49 211 0
49 212 0
49 213 214 215 216 217 218 219 220 221 0
49 -2091 2090 0
49 -2092 2091 0
49 -2093 2092 0
49 -2094 2093 0
49 -2095 2094 0
49 -2096 2095 0
49 -2097 2096 0
49 -2098 2097 0
49 2090 213 0
49 -213 -2090 0
49 -2090 2091 214 0
49 2090 -214 0
49 -214 -2091 0
49 -2091 2092 215 0
49 2091 -215 0
49 -215 -2092 0
49 -2092 2093 216 0
49 2092 -216 0
49 -216 -2093 0
49 -2093 2094 217 0
49 2093 -217 0
49 -217 -2094 0
49 -2094 2095 218 0
49 2094 -218 0
49 -218 -2095 0
49 -2095 2096 219 0
49 2095 -219 0
49 -219 -2096 0
49 -2096 2097 220 0
49 2096 -220 0
49 -220 -2097 0
49 -2097 2098 221 0
49 2097 -221 0
49 -221 -2098 0
49 -2098 2089 0
49 -2089 2098 0
49 222 223 224 225 226 227 228 229 230 0
49 -2101 2100 0
49 -2102 2101 0
49 -2103 2102 0
49 -2104 2103 0
49 -2105 2104 0
49 -2106 2105 0
49 -2107 2106 0
49 -2108 2107 0
49 2100 222 0
49 -222 -2100 0
49 -2100 2101 223 0
49 2100 -223 0
49 -223 -2101 0
49 -2101 2102 224 0
49 2101 -224 0
49 -224 -2102 0
49 -2102 2103 225 0
49 2102 -225 0
49 -225 -2103 0
49 -2103 2104 226 0
49 2103 -226 0
49 -226 -2104 0
49 -2104 2105 227 0
49 2104 -227 0
49 -227 -2105 0
49 -2105 2106 228 0
49 2105 -228 0
49 -228 -2106 0
49 -2106 2107 229 0
49 2106 -229 0
49 -229 -2107 0
49 -2107 2108 230 0
49 2107 -230 0
49 -230 -2108 0
49 -2108 2099 0
49 -2099 2108 0
49 231 0
49 232 0
49 233 0
49 234 0
49 235 0
49 236 0
49 237 238 239 240 241 242 243 244 0
49 -2111 2110 0
49 -2112 2111 0
49 -2113 2112 0
49 -2114 2113 0
49 -2115 2114 0
49 -2116 2115 0
49 -2117 2116 0
49 2110 237 0
49 -237 -2110 0
49 -2110 2111 238 0
49 2110 -238 0
49 -238 -2111 0
49 -2111 2112 239 0
49 2111 -239 0
49 -239 -2112 0
49 -2112 2113 240 0
49 2112 -240 0
49 -240 -2113 0
49 -2113 2114 241 0
49 2113 -241 0
49 -241 -2114 0
49 -2114 2115 242 0
49 2114 -242 0
49 -242 -2115 0
49 -2115 2116 243 0
49 2115 -243 0
49 -243 -2116 0
49 -2116 2117 244 0
49 2116 -244 0
49 -244 -2117 0
49 -2117 2109 0
49 -2109 2117 0
49 245 246 247 248 249 250 251 252 0
49 -2120 2119 0
49 -2121 2120 0
49 -2122 2121 0
49 -2123 2122 0
49 -2124 2123 0
49 -2125 2124 0
49 -2126 2125 0
49 2119 245 0
49 -245 -2119 0
49 -2119 2120 246 0
49 2119 -246 0
49 -246 -2120 0
49 -2120 2121 247 0
49 2120 -247 0
49 -247 -2121 0
49 -2121 2122 248 0
49 2121 -248 0
49 -248 -2122 0
49 -2122 2123 249 0
49 2122 -249 0
49 -249 -2123 0
49 -2123 2124 250 0
49 2123 -250 0
49 -250 -2124 0
49 -2124 2125 251 0
49 2124 -251 0
49 -251 -2125 0
49 -2125 2126 252 0
49 2125 -252 0
49 -252 -2126 0
49 -2126 2118 0
49 -2118 2126 0
49 253 0
49 254 0
49 255 256 257 258 259 260 261 262 0
49 -2129 2128 0
49 -2130 2129 0
49 -2131 2130 0
49 -2132 2131 0
49 -2133 2132 0
49 -2134 2133 0
49 -2135 2134 0
49 2128 255 0
49 -255 -2128 0
49 -2128 2129 256 0
49 2128 -256 0
49 -256 -2129 0
49 -2129 2130 257 0
49 2129 -257 0
49 -257 -2130 0
49 -2130 2131 258 0
49 2130 -258 0
49 -258 -2131 0
49 -2131 2132 259 0
49 2131 -259 0
49 -259 -2132 0
49 -2132 2133 260 0
49 2132 -260 0
49 -260 -2133 0
49 -2133 2134 261 0
49 2133 -261 0
49 -261 -2134 0
49 -2134 2135 262 0
49 2134 -262 0
49 -262 -2135 0
49 -2135 2127 0
49 -2127 2135 0
49 263 264 265 266 267 268 269 270 0
49 -2138 2137 0
49 -2139 2138 0
49 -2140 2139 0
49 -2141 2140 0
49 -2142 2141 0
49 -2143 2142 0
49 -2144 2143 0
49 2137 263 0
49 -263 -2137 0
49 -2137 2138 264 0
49 2137 -264 0
49 -264 -2138 0
49 -2138 2139 265 0
49 2138 -265 0
49 -265 -2139 0
49 -2139 2140 266 0
49 2139 -266 0
49 -266 -2140 0
49 -2140 2141 267 0
49 2140 -267 0
49 -267 -2141 0
49 -2141 2142 268 0
49 2141 -268 0
49 -268 -2142 0
49 -2142 2143 269 0
49 2142 -269 0
49 -269 -2143 0
49 -2143 2144 270 0
49 2143 -270 0
49 -270 -2144 0
49 -2144 2136 0
49 -2136 2144 0
49 271 272 0
49 -271 -272 0
49 273 274 0
49 -273 -274 0
49 275 0
49 276 0
49 277 0
49 278 0
49 279 280 281 0
49 -2147 2146 0
49 -2148 2147 0
49 2146 279 0
49 -279 -2146 0
49 -2146 2147 280 0
49 2146 -280 0
49 -280 -2147 0
49 -2147 2148 281 0
49 2147 -281 0
49 -281 -2148 0
49 -2148 2145 0
49 -2145 2148 0
49 282 283 284 0
49 -2151 2150 0
49 -2152 2151 0
49 2150 282 0
49 -282 -2150 0
49 -2150 2151 283 0
49 2150 -283 0
49 -283 -2151 0
49 -2151 2152 284 0
49 2151 -284 0
49 -284 -2152 0
49 -2152 2149 0
49 -2149 2152 0
49 285 0
49 286 0
49 287 288 0
49 -287 -288 0
49 289 290 0
49 -289 -290 0
49 291 0
49 292 0
49 293 0
49 294 0
49 295 0
49 296 0
49 297 0
49 298 0
49 299 0
49 300 0
49 301 0
49 302 0
49 303 0
49 304 0
49 305 306 307 0
49 -2155 2154 0
49 -2156 2155 0
49 2154 305 0
49 -305 -2154 0
49 -2154 2155 306 0
49 2154 -306 0
49 -306 -2155 0
49 -2155 2156 307 0
49 2155 -307 0
49 -307 -2156 0
49 -2156 2153 0
49 -2153 2156 0
49 308 309 310 0
49 -2159 2158 0
49 -2160 2159 0
49 2158 308 0
49 -308 -2158 0
49 -2158 2159 309 0
49 2158 -309 0
49 -309 -2159 0
49 -2159 2160 310 0
49 2159 -310 0
49 -310 -2160 0
49 -2160 2157 0
49 -2157 2160 0
49 311 0
49 312 0
49 313 0
49 314 0
49 315 0
49 316 0
49 317 0
49 318 0
49 319 0
49 320 0
49 321 0
49 322 0
49 323 0
49 324 0
49 325 0
49 326 0
49 327 0
49 328 0
49 329 0
49 330 0
49 331 0
49 332 0
49 333 334 0
49 -333 -334 0
49 335 336 0
49 -335 -336 0
49 337 338 0
49 -337 -338 0
49 339 340 0
49 -339 -340 0
49 341 342 343 344 345 0
49 -2163 2162 0
49 -2164 2163 0
49 -2165 2164 0
49 -2166 2165 0
49 2162 341 0
49 -341 -2162 0
49 -2162 2163 342 0
49 2162 -342 0
49 -342 -2163 0
49 -2163 2164 343 0
49 2163 -343 0
49 -343 -2164 0
49 -2164 2165 344 0
49 2164 -344 0
49 -344 -2165 0
49 -2165 2166 345 0
49 2165 -345 0
49 -345 -2166 0
49 -2166 2161 0
49 -2161 2166 0
49 346 347 348 349 350 0
49 -2169 2168 0
49 -2170 2169 0
49 -2171 2170 0
49 -2172 2171 0
49 2168 346 0
49 -346 -2168 0
49 -2168 2169 347 0
49 2168 -347 0
49 -347 -2169 0
49 -2169 2170 348 0
49 2169 -348 0
49 -348 -2170 0
49 -2170 2171 349 0
49 2170 -349 0
49 -349 -2171 0
49 -2171 2172 350 0
49 2171 -350 0
49 -350 -2172 0
49 -2172 2167 0
49 -2167 2172 0
49 351 0
49 352 0
49 353 0
49 354 0
49 355 0
49 356 0
49 357 0
49 358 0
49 359 0
49 360 0
49 361 362 0
49 -361 -362 0
49 363 364 0
49 -363 -364 0
49 365 0
49 366 0
49 367 0
49 368 0
49 369 0
49 370 0
49 371 372 373 0
49 -2175 2174 0
49 -2176 2175 0
49 2174 371 0
49 -371 -2174 0
49 -2174 2175 372 0
49 2174 -372 0
49 -372 -2175 0
49 -2175 2176 373 0
49 2175 -373 0
49 -373 -2176 0
49 -2176 2173 0
49 -2173 2176 0
49 374 375 376 0
49 -2179 2178 0
49 -2180 2179 0
49 2178 374 0
49 -374 -2178 0
49 -2178 2179 375 0
49 2178 -375 0
49 -375 -2179 0
49 -2179 2180 376 0
49 2179 -376 0
49 -376 -2180 0
49 -2180 2177 0
49 -2177 2180 0
49 377 378 0
49 -377 -378 0
49 379 380 0
49 -379 -380 0
49 381 0
49 382 0
49 383 0
49 384 0
49 385 386 387 388 0
49 -2183 2182 0
49 -2184 2183 0
49 -2185 2184 0
49 2182 385 0
49 -385 -2182 0
49 -2182 2183 386 0
49 2182 -386 0
49 -386 -2183 0
49 -2183 2184 387 0
49 2183 -387 0
49 -387 -2184 0
49 -2184 2185 388 0
49 2184 -388 0
49 -388 -2185 0
49 -2185 2181 0
49 -2181 2185 0
49 389 390 391 392 0
49 -2188 2187 0
49 -2189 2188 0
49 -2190 2189 0
49 2187 389 0
49 -389 -2187 0
49 -2187 2188 390 0
49 2187 -390 0
49 -390 -2188 0
49 -2188 2189 391 0
49 2188 -391 0
49 -391 -2189 0
49 -2189 2190 392 0
49 2189 -392 0
49 -392 -2190 0
49 -2190 2186 0
49 -2186 2190 0
49 393 0
49 394 0
49 395 396 397 398 0
49 -2193 2192 0
49 -2194 2193 0
49 -2195 2194 0
49 2192 395 0
49 -395 -2192 0
49 -2192 2193 396 0
49 2192 -396 0
49 -396 -2193 0
49 -2193 2194 397 0
49 2193 -397 0
49 -397 -2194 0
49 -2194 2195 398 0
49 2194 -398 0
49 -398 -2195 0
49 -2195 2191 0
49 -2191 2195 0
49 399 400 401 402 0
49 -2198 2197 0
49 -2199 2198 0
49 -2200 2199 0
49 2197 399 0
49 -399 -2197 0
49 -2197 2198 400 0
49 2197 -400 0
49 -400 -2198 0
49 -2198 2199 401 0
49 2198 -401 0
49 -401 -2199 0
49 -2199 2200 402 0
49 2199 -402 0
49 -402 -2200 0
49 -2200 2196 0
49 -2196 2200 0
49 403 404 0
49 -403 -404 0
49 405 406 0
49 -405 -406 0
49 407 0
49 408 0
49 409 410 411 412 413 414 415 416 417 418 0
49 -2203 2202 0
49 -2204 2203 0
49 -2205 2204 0
49 -2206 2205 0
49 -2207 2206 0
49 -2208 2207 0
49 -2209 2208 0
49 -2210 2209 0
49 -2211 2210 0
49 2202 409 0
49 -409 -2202 0
49 -2202 2203 410 0
49 2202 -410 0
49 -410 -2203 0
49 -2203 2204 411 0
49 2203 -411 0
49 -411 -2204 0
49 -2204 2205 412 0
49 2204 -412 0
49 -412 -2205 0
49 -2205 2206 413 0
49 2205 -413 0
49 -413 -2206 0
49 -2206 2207 414 0
49 2206 -414 0
49 -414 -2207 0
49 -2207 2208 415 0
49 2207 -415 0
49 -415 -2208 0
49 -2208 2209 416 0
49 2208 -416 0
49 -416 -2209 0
49 -2209 2210 417 0
49 2209 -417 0
49 -417 -2210 0
49 -2210 2211 418 0
49 2210 -418 0
49 -418 -2211 0
49 -2211 2201 0
49 -2201 2211 0
49 419 420 421 422 423 424 425 426 427 428 0
49 -2214 2213 0
49 -2215 2214 0
49 -2216 2215 0
49 -2217 2216 0
49 -2218 2217 0
49 -2219 2218 0
49 -2220 2219 0
49 -2221 2220 0
49 -2222 2221 0
49 2213 419 0
49 -419 -2213 0
49 -2213 2214 420 0
49 2213 -420 0
49 -420 -2214 0
49 -2214 2215 421 0
49 2214 -421 0
49 -421 -2215 0
49 -2215 2216 422 0
49 2215 -422 0
49 -422 -2216 0
49 -2216 2217 423 0
49 2216 -423 0
49 -423 -2217 0
49 -2217 2218 424 0
49 2217 -424 0
49 -424 -2218 0
49 -2218 2219 425 0
49 2218 -425 0
49 -425 -2219 0
49 -2219 2220 426 0
49 2219 -426 0
49 -426 -2220 0
49 -2220 2221 427 0
49 2220 -427 0
49 -427 -2221 0
49 -2221 2222 428 0
49 2221 -428 0
49 -428 -2222 0
49 -2222 2212 0
49 -2212 2222 0
49 429 0
49 430 0
49 431 432 433 434 435 436 437 438 439 0
49 -2225 2224 0
49 -2226 2225 0
49 -2227 2226 0
49 -2228 2227 0
49 -2229 2228 0
49 -2230 2229 0
49 -2231 2230 0
49 -2232 2231 0
49 2224 431 0
49 -431 -2224 0
49 -2224 2225 432 0
49 2224 -432 0
49 -432 -2225 0
49 -2225 2226 433 0
49 2225 -433 0
49 -433 -2226 0
49 -2226 2227 434 0
49 2226 -434 0
49 -434 -2227 0
49 -2227 2228 435 0
49 2227 -435 0
49 -435 -2228 0
49 -2228 2229 436 0
49 2228 -436 0
49 -436 -2229 0
49 -2229 2230 437 0
49 2229 -437 0
49 -437 -2230 0
49 -2230 2231 438 0
49 2230 -438 0
49 -438 -2231 0
49 -2231 2232 439 0
49 2231 -439 0
49 -439 -2232 0
49 -2232 2223 0
49 -2223 2232 0
49 440 441 442 443 444 445 446 447 448 0
49 -2235 2234 0
49 -2236 2235 0
49 -2237 2236 0
49 -2238 2237 0
49 -2239 2238 0
49 -2240 2239 0
49 -2241 2240 0
49 -2242 2241 0
49 2234 440 0
49 -440 -2234 0
49 -2234 2235 441 0
49 2234 -441 0
49 -441 -2235 0
49 -2235 2236 442 0
49 2235 -442 0
49 -442 -2236 0
49 -2236 2237 443 0
49 2236 -443 0
49 -443 -2237 0
49 -2237 2238 444 0
49 2237 -444 0
49 -444 -2238 0
49 -2238 2239 445 0
49 2238 -445 0
49 -445 -2239 0
49 -2239 2240 446 0
49 2239 -446 0
49 -446 -2240 0
49 -2240 2241 447 0
49 2240 -447 0
49 -447 -2241 0
49 -2241 2242 448 0
49 2241 -448 0
49 -448 -2242 0
49 -2242 2233 0
49 -2233 2242 0
49 449 0
49 450 0
49 451 0
49 452 0
49 453 0
49 454 0
49 455 0
49 456 0
49 457 0
49 458 0
49 459 0
49 460 0
49 461 462 0
49 -461 -462 0
49 463 464 0
49 -463 -464 0
49 465 0
49 466 0
49 467 0
49 468 0
49 469 470 0
49 -469 -470 0
49 471 472 0
49 -471 -472 0
49 473 474 0
49 -473 -474 0
49 475 476 0
49 -475 -476 0
49 477 0
49 478 0
49 479 0
49 480 0
49 481 482 483 484 0
49 -2245 2244 0
49 -2246 2245 0
49 -2247 2246 0
49 2244 481 0
49 -481 -2244 0
49 -2244 2245 482 0
49 2244 -482 0
49 -482 -2245 0
49 -2245 2246 483 0
49 2245 -483 0
49 -483 -2246 0
49 -2246 2247 484 0
49 2246 -484 0
49 -484 -2247 0
49 -2247 2243 0
49 -2243 2247 0
49 485 486 487 488 0
49 -2250 2249 0
49 -2251 2250 0
49 -2252 2251 0
49 2249 485 0
49 -485 -2249 0
49 -2249 2250 486 0
49 2249 -486 0
49 -486 -2250 0
49 -2250 2251 487 0
49 2250 -487 0
49 -487 -2251 0
49 -2251 2252 488 0
49 2251 -488 0
49 -488 -2252 0
49 -2252 2248 0
49 -2248 2252 0
49 489 0
49 490 0
49 491 0
49 492 0
49 493 0
49 494 0
49 495 0
49 496 0
49 497 498 0
49 -497 -498 0
49 499 500 0
49 -499 -500 0
49 501 0
49 502 0
49 503 0
49 504 0
49 505 0
49 506 0
49 507 508 509 510 511 512 513 514 515 0
49 -2255 2254 0
49 -2256 2255 0
49 -2257 2256 0
49 -2258 2257 0
49 -2259 2258 0
49 -2260 2259 0
49 -2261 2260 0
49 -2262 2261 0
49 2254 507 0
49 -507 -2254 0
49 -2254 2255 508 0
49 2254 -508 0
49 -508 -2255 0
49 -2255 2256 509 0
49 2255 -509 0
49 -509 -2256 0
49 -2256 2257 510 0
49 2256 -510 0
49 -510 -2257 0
49 -2257 2258 511 0
49 2257 -511 0
49 -511 -2258 0
49 -2258 2259 512 0
49 2258 -512 0
49 -512 -2259 0
49 -2259 2260 513 0
49 2259 -513 0
49 -513 -2260 0
49 -2260 2261 514 0
49 2260 -514 0
49 -514 -2261 0
49 -2261 2262 515 0
49 2261 -515 0
49 -515 -2262 0
49 -2262 2253 0
49 -2253 2262 0
49 516 517 518 519 520 521 522 523 524 0
49 -2265 2264 0
49 -2266 2265 0
49 -2267 2266 0
49 -2268 2267 0
49 -2269 2268 0
49 -2270 2269 0
49 -2271 2270 0
49 -2272 2271 0
49 2264 516 0
49 -516 -2264 0
49 -2264 2265 517 0
49 2264 -517 0
49 -517 -2265 0
49 -2265 2266 518 0
49 2265 -518 0
49 -518 -2266 0
49 -2266 2267 519 0
49 2266 -519 0
49 -519 -2267 0
49 -2267 2268 520 0
49 2267 -520 0
49 -520 -2268 0
49 -2268 2269 521 0
49 2268 -521 0
49 -521 -2269 0
49 -2269 2270 522 0
49 2269 -522 0
49 -522 -2270 0
49 -2270 2271 523 0
49 2270 -523 0
49 -523 -2271 0
49 -2271 2272 524 0
49 2271 -524 0
49 -524 -2272 0
49 -2272 2263 0
49 -2263 2272 0
49 525 526 527 528 529 530 0
49 -2275 2274 0
49 -2276 2275 0
49 -2277 2276 0
49 -2278 2277 0
49 -2279 2278 0
49 2274 525 0
49 -525 -2274 0
49 -2274 2275 526 0
49 2274 -526 0
49 -526 -2275 0
49 -2275 2276 527 0
49 2275 -527 0
49 -527 -2276 0
49 -2276 2277 528 0
49 2276 -528 0
49 -528 -2277 0
49 -2277 2278 529 0
49 2277 -529 0
49 -529 -2278 0
49 -2278 2279 530 0
49 2278 -530 0
49 -530 -2279 0
49 -2279 2273 0
49 -2273 2279 0
49 531 532 533 534 535 536 0
49 -2282 2281 0
49 -2283 2282 0
49 -2284 2283 0
49 -2285 2284 0
49 -2286 2285 0
49 2281 531 0
49 -531 -2281 0
49 -2281 2282 532 0
49 2281 -532 0
49 -532 -2282 0
49 -2282 2283 533 0
49 2282 -533 0
49 -533 -2283 0
49 -2283 2284 534 0
49 2283 -534 0
49 -534 -2284 0
49 -2284 2285 535 0
49 2284 -535 0
49 -535 -2285 0
49 -2285 2286 536 0
49 2285 -536 0
49 -536 -2286 0
49 -2286 2280 0
49 -2280 2286 0
49 537 538 539 0
49 -2289 2288 0
49 -2290 2289 0
49 2288 537 0
49 -537 -2288 0
49 -2288 2289 538 0
49 2288 -538 0
49 -538 -2289 0
49 -2289 2290 539 0
49 2289 -539 0
49 -539 -2290 0
49 -2290 2287 0
49 -2287 2290 0
49 540 541 542 0
49 -2293 2292 0
49 -2294 2293 0
49 2292 540 0
49 -540 -2292 0
49 -2292 2293 541 0
49 2292 -541 0
49 -541 -2293 0
49 -2293 2294 542 0
49 2293 -542 0
49 -542 -2294 0
49 -2294 2291 0
49 -2291 2294 0
49 543 544 545 546 547 548 549 550 0
49 -2297 2296 0
49 -2298 2297 0
49 -2299 2298 0
49 -2300 2299 0
49 -2301 2300 0
49 -2302 2301 0
49 -2303 2302 0
49 2296 543 0
49 -543 -2296 0
49 -2296 2297 544 0
49 2296 -544 0
49 -544 -2297 0
49 -2297 2298 545 0
49 2297 -545 0
49 -545 -2298 0
49 -2298 2299 546 0
49 2298 -546 0
49 -546 -2299 0
49 -2299 2300 547 0
49 2299 -547 0
49 -547 -2300 0
49 -2300 2301 548 0
49 2300 -548 0
49 -548 -2301 0
49 -2301 2302 549 0
49 2301 -549 0
49 -549 -2302 0
49 -2302 2303 550 0
49 2302 -550 0
49 -550 -2303 0
49 -2303 2295 0
49 -2295 2303 0
49 551 552 553 554 555 556 557 558 0
49 -2306 2305 0
49 -2307 2306 0
49 -2308 2307 0
49 -2309 2308 0
49 -2310 2309 0
49 -2311 2310 0
49 -2312 2311 0
49 2305 551 0
49 -551 -2305 0
49 -2305 2306 552 0
49 2305 -552 0
49 -552 -2306 0
49 -2306 2307 553 0
49 2306 -553 0
49 -553 -2307 0
49 -2307 2308 554 0
49 2307 -554 0
49 -554 -2308 0
49 -2308 2309 555 0
49 2308 -555 0
49 -555 -2309 0
49 -2309 2310 556 0
49 2309 -556 0
49 -556 -2310 0
49 -2310 2311 557 0
49 2310 -557 0
49 -557 -2311 0
49 -2311 2312 558 0
49 2311 -558 0
49 -558 -2312 0
49 -2312 2304 0
49 -2304 2312 0
49 559 0
49 560 0
49 561 0
49 562 0
49 563 0
49 564 0
49 565 0
49 566 0
49 567 0
49 568 0
49 569 0
49 570 0
49 571 0
49 572 0
49 573 0
49 574 0
49 575 0
49 576 0
49 577 578 579 580 581 582 583 584 0
49 -2315 2314 0
49 -2316 2315 0
49 -2317 2316 0
49 -2318 2317 0
49 -2319 2318 0
49 -2320 2319 0
49 -2321 2320 0
49 2314 577 0
49 -577 -2314 0
49 -2314 2315 578 0
49 2314 -578 0
49 -578 -2315 0
49 -2315 2316 579 0
49 2315 -579 0
49 -579 -2316 0
49 -2316 2317 580 0
49 2316 -580 0
49 -580 -2317 0
49 -2317 2318 581 0
49 2317 -581 0
49 -581 -2318 0
49 -2318 2319 582 0
49 2318 -582 0
49 -582 -2319 0
49 -2319 2320 583 0
49 2319 -583 0
49 -583 -2320 0
49 -2320 2321 584 0
49 2320 -584 0
49 -584 -2321 0
49 -2321 2313 0
49 -2313 2321 0
49 585 586 587 588 589 590 591 592 0
49 -2324 2323 0
49 -2325 2324 0
49 -2326 2325 0
49 -2327 2326 0
49 -2328 2327 0
49 -2329 2328 0
49 -2330 2329 0
49 2323 585 0
49 -585 -2323 0
49 -2323 2324 586 0
49 2323 -586 0
49 -586 -2324 0
49 -2324 2325 587 0
49 2324 -587 0
49 -587 -2325 0
49 -2325 2326 588 0
49 2325 -588 0
49 -588 -2326 0
49 -2326 2327 589 0
49 2326 -589 0
49 -589 -2327 0
49 -2327 2328 590 0
49 2327 -590 0
49 -590 -2328 0
49 -2328 2329 591 0
49 2328 -591 0
49 -591 -2329 0
49 -2329 2330 592 0
49 2329 -592 0
49 -592 -2330 0
49 -2330 2322 0
49 -2322 2330 0
49 593 0
49 594 0
49 595 0
49 596 0
49 597 598 599 600 0
49 -2333 2332 0
49 -2334 2333 0
49 -2335 2334 0
49 2332 597 0
49 -597 -2332 0
49 -2332 2333 598 0
49 2332 -598 0
49 -598 -2333 0
49 -2333 2334 599 0
49 2333 -599 0
49 -599 -2334 0
49 -2334 2335 600 0
49 2334 -600 0
49 -600 -2335 0
49 -2335 2331 0
49 -2331 2335 0
49 601 602 603 604 0
49 -2338 2337 0
49 -2339 2338 0
49 -2340 2339 0
49 2337 601 0
49 -601 -2337 0
49 -2337 2338 602 0
49 2337 -602 0
49 -602 -2338 0
49 -2338 2339 603 0
49 2338 -603 0
49 -603 -2339 0
49 -2339 2340 604 0
49 2339 -604 0
49 -604 -2340 0
49 -2340 2336 0
49 -2336 2340 0
49 605 606 0
49 -605 -606 0
49 607 608 0
49 -607 -608 0
49 609 610 0
49 -609 -610 0
49 611 612 0
49 -611 -612 0
49 613 614 615 616 0
49 -2343 2342 0
49 -2344 2343 0
49 -2345 2344 0
49 2342 613 0
49 -613 -2342 0
49 -2342 2343 614 0
49 2342 -614 0
49 -614 -2343 0
49 -2343 2344 615 0
49 2343 -615 0
49 -615 -2344 0
49 -2344 2345 616 0
49 2344 -616 0
49 -616 -2345 0
49 -2345 2341 0
49 -2341 2345 0
49 617 618 619 620 0
49 -2348 2347 0
49 -2349 2348 0
49 -2350 2349 0
49 2347 617 0
49 -617 -2347 0
49 -2347 2348 618 0
49 2347 -618 0
49 -618 -2348 0
49 -2348 2349 619 0
49 2348 -619 0
49 -619 -2349 0
49 -2349 2350 620 0
49 2349 -620 0
49 -620 -2350 0
49 -2350 2346 0
49 -2346 2350 0
49 621 622 623 624 625 0
49 -2353 2352 0
49 -2354 2353 0
49 -2355 2354 0
49 -2356 2355 0
49 2352 621 0
49 -621 -2352 0
49 -2352 2353 622 0
49 2352 -622 0
49 -622 -2353 0
49 -2353 2354 623 0
49 2353 -623 0
49 -623 -2354 0
49 -2354 2355 624 0
49 2354 -624 0
49 -624 -2355 0
49 -2355 2356 625 0
49 2355 -625 0
49 -625 -2356 0
49 -2356 2351 0
49 -2351 2356 0
49 626 627 628 629 630 0
49 -2359 2358 0
49 -2360 2359 0
49 -2361 2360 0
49 -2362 2361 0
49 2358 626 0
49 -626 -2358 0
49 -2358 2359 627 0
49 2358 -627 0
49 -627 -2359 0
49 -2359 2360 628 0
49 2359 -628 0
49 -628 -2360 0
49 -2360 2361 629 0
49 2360 -629 0
49 -629 -2361 0
49 -2361 2362 630 0
49 2361 -630 0
49 -630 -2362 0
49 -2362 2357 0
49 -2357 2362 0
49 631 0
49 632 0
49 633 0
49 634 0
49 635 0
49 636 0
49 637 0
49 638 0
49 639 0
49 640 0
49 641 642 643 644 645 646 647 648 649 0
49 -2365 2364 0
49 -2366 2365 0
49 -2367 2366 0
49 -2368 2367 0
49 -2369 2368 0
49 -2370 2369 0
49 -2371 2370 0
49 -2372 2371 0
49 2364 641 0
49 -641 -2364 0
49 -2364 2365 642 0
49 2364 -642 0
49 -642 -2365 0
49 -2365 2366 643 0
49 2365 -643 0
49 -643 -2366 0
49 -2366 2367 644 0
49 2366 -644 0
49 -644 -2367 0
49 -2367 2368 645 0
49 2367 -645 0
49 -645 -2368 0
49 -2368 2369 646 0
49 2368 -646 0
49 -646 -2369 0
49 -2369 2370 647 0
49 2369 -647 0
49 -647 -2370 0
49 -2370 2371 648 0
49 2370 -648 0
49 -648 -2371 0
49 -2371 2372 649 0
49 2371 -649 0
49 -649 -2372 0
49 -2372 2363 0
49 -2363 2372 0
49 650 651 652 653 654 655 656 657 658 0
49 -2375 2374 0
49 -2376 2375 0
49 -2377 2376 0
49 -2378 2377 0
49 -2379 2378 0
49 -2380 2379 0
49 -2381 2380 0
49 -2382 2381 0
49 2374 650 0
49 -650 -2374 0
49 -2374 2375 651 0
49 2374 -651 0
49 -651 -2375 0
49 -2375 2376 652 0
49 2375 -652 0
49 -652 -2376 0
49 -2376 2377 653 0
49 2376 -653 0
49 -653 -2377 0
49 -2377 2378 654 0
49 2377 -654 0
49 -654 -2378 0
49 -2378 2379 655 0
49 2378 -655 0
49 -655 -2379 0
49 -2379 2380 656 0
49 2379 -656 0
49 -656 -2380 0
49 -2380 2381 657 0
49 2380 -657 0
49 -657 -2381 0
49 -2381 2382 658 0
49 2381 -658 0
49 -658 -2382 0
49 -2382 2373 0
49 -2373 2382 0
49 659 660 661 0
49 -2385 2384 0
49 -2386 2385 0
49 2384 659 0
49 -659 -2384 0
49 -2384 2385 660 0
49 2384 -660 0
49 -660 -2385 0
49 -2385 2386 661 0
49 2385 -661 0
49 -661 -2386 0
49 -2386 2383 0
49 -2383 2386 0
49 662 663 664 0
49 -2389 2388 0
49 -2390 2389 0
49 2388 662 0
49 -662 -2388 0
49 -2388 2389 663 0
49 2388 -663 0
49 -663 -2389 0
49 -2389 2390 664 0
49 2389 -664 0
49 -664 -2390 0
49 -2390 2387 0
49 -2387 2390 0
49 665 0
49 666 0
49 667 668 0
49 -667 -668 0
49 669 670 0
49 -669 -670 0
49 671 672 673 674 675 0
49 -2393 2392 0
49 -2394 2393 0
49 -2395 2394 0
49 -2396 2395 0
49 2392 671 0
49 -671 -2392 0
49 -2392 2393 672 0
49 2392 -672 0
49 -672 -2393 0
49 -2393 2394 673 0
49 2393 -673 0
49 -673 -2394 0
49 -2394 2395 674 0
49 2394 -674 0
49 -674 -2395 0
49 -2395 2396 675 0
49 2395 -675 0
49 -675 -2396 0
49 -2396 2391 0
49 -2391 2396 0
49 676 677 678 679 680 0
49 -2399 2398 0
49 -2400 2399 0
49 -2401 2400 0
49 -2402 2401 0
49 2398 676 0
49 -676 -2398 0
49 -2398 2399 677 0
49 2398 -677 0
49 -677 -2399 0
49 -2399 2400 678 0
49 2399 -678 0
49 -678 -2400 0
49 -2400 2401 679 0
49 2400 -679 0
49 -679 -2401 0
49 -2401 2402 680 0
49 2401 -680 0
49 -680 -2402 0
49 -2402 2397 0
49 -2397 2402 0
49 681 0
49 682 0
49 683 0
49 684 0
49 685 686 687 688 689 690 691 692 693 0
49 -2405 2404 0
49 -2406 2405 0
49 -2407 2406 0
49 -2408 2407 0
49 -2409 2408 0
49 -2410 2409 0
49 -2411 2410 0
49 -2412 2411 0
49 2404 685 0
49 -685 -2404 0
49 -2404 2405 686 0
49 2404 -686 0
49 -686 -2405 0
49 -2405 2406 687 0
49 2405 -687 0
49 -687 -2406 0
49 -2406 2407 688 0
49 2406 -688 0
49 -688 -2407 0
49 -2407 2408 689 0
49 2407 -689 0
49 -689 -2408 0
49 -2408 2409 690 0
49 2408 -690 0
49 -690 -2409 0
49 -2409 2410 691 0
49 2409 -691 0
49 -691 -2410 0
49 -2410 2411 692 0
49 2410 -692 0
49 -692 -2411 0
49 -2411 2412 693 0
49 2411 -693 0
49 -693 -2412 0
49 -2412 2403 0
49 -2403 2412 0
49 694 695 696 697 698 699 700 701 702 0
49 -2415 2414 0
49 -2416 2415 0
49 -2417 2416 0
49 -2418 2417 0
49 -2419 2418 0
49 -2420 2419 0
49 -2421 2420 0
49 -2422 2421 0
49 2414 694 0
49 -694 -2414 0
49 -2414 2415 695 0
49 2414 -695 0
49 -695 -2415 0
49 -2415 2416 696 0
49 2415 -696 0
49 -696 -2416 0
49 -2416 2417 697 0
49 2416 -697 0
49 -697 -2417 0
49 -2417 2418 698 0
49 2417 -698 0
49 -698 -2418 0
49 -2418 2419 699 0
49 2418 -699 0
49 -699 -2419 0
49 -2419 2420 700 0
49 2419 -700 0
49 -700 -2420 0
49 -2420 2421 701 0
49 2420 -701 0
49 -701 -2421 0
49 -2421 2422 702 0
49 2421 -702 0
49 -702 -2422 0
49 -2422 2413 0
49 -2413 2422 0
49 703 704 705 0
49 -2425 2424 0
49 -2426 2425 0
49 2424 703 0
49 -703 -2424 0
49 -2424 2425 704 0
49 2424 -704 0
49 -704 -2425 0
49 -2425 2426 705 0
49 2425 -705 0
49 -705 -2426 0
49 -2426 2423 0
49 -2423 2426 0
49 706 707 708 0
49 -2429 2428 0
49 -2430 2429 0
49 2428 706 0
49 -706 -2428 0
49 -2428 2429 707 0
49 2428 -707 0
49 -707 -2429 0
49 -2429 2430 708 0
49 2429 -708 0
49 -708 -2430 0
49 -2430 2427 0
49 -2427 2430 0
49 709 0
49 710 0
49 711 0
49 712 0
49 713 0
49 714 0
49 715 716 717 718 719 720 721 722 723 724 0
49 -2433 2432 0
49 -2434 2433 0
49 -2435 2434 0
49 -2436 2435 0
49 -2437 2436 0
49 -2438 2437 0
49 -2439 2438 0
49 -2440 2439 0
49 -2441 2440 0
49 2432 715 0
49 -715 -2432 0
49 -2432 2433 716 0
49 2432 -716 0
49 -716 -2433 0
49 -2433 2434 717 0
49 2433 -717 0
49 -717 -2434 0
49 -2434 2435 718 0
49 2434 -718 0
49 -718 -2435 0
49 -2435 2436 719 0
49 2435 -719 0
49 -719 -2436 0
49 -2436 2437 720 0
49 2436 -720 0
49 -720 -2437 0
49 -2437 2438 721 0
49 2437 -721 0
49 -721 -2438 0
49 -2438 2439 722 0
49 2438 -722 0
49 -722 -2439 0
49 -2439 2440 723 0
49 2439 -723 0
49 -723 -2440 0
49 -2440 2441 724 0
49 2440 -724 0
49 -724 -2441 0
49 -2441 2431 0
49 -2431 2441 0
49 725 726 727 728 729 730 731 732 733 734 0
49 -2444 2443 0
49 -2445 2444 0
49 -2446 2445 0
49 -2447 2446 0
49 -2448 2447 0
49 -2449 2448 0
49 -2450 2449 0
49 -2451 2450 0
49 -2452 2451 0
49 2443 725 0
49 -725 -2443 0
49 -2443 2444 726 0
49 2443 -726 0
49 -726 -2444 0
49 -2444 2445 727 0
49 2444 -727 0
49 -727 -2445 0
49 -2445 2446 728 0
49 2445 -728 0
49 -728 -2446 0
49 -2446 2447 729 0
49 2446 -729 0
49 -729 -2447 0
49 -2447 2448 730 0
49 2447 -730 0
49 -730 -2448 0
49 -2448 2449 731 0
49 2448 -731 0
49 -731 -2449 0
49 -2449 2450 732 0
49 2449 -732 0
49 -732 -2450 0
49 -2450 2451 733 0
49 2450 -733 0
49 -733 -2451 0
49 -2451 2452 734 0
49 2451 -734 0
49 -734 -2452 0
49 -2452 2442 0
49 -2442 2452 0
49 735 736 737 738 739 740 741 742 0
49 -2455 2454 0
49 -2456 2455 0
49 -2457 2456 0
49 -2458 2457 0
49 -2459 2458 0
49 -2460 2459 0
49 -2461 2460 0
49 2454 735 0
49 -735 -2454 0
49 -2454 2455 736 0
49 2454 -736 0
49 -736 -2455 0
49 -2455 2456 737 0
49 2455 -737 0
49 -737 -2456 0
49 -2456 2457 738 0
49 2456 -738 0
49 -738 -2457 0
49 -2457 2458 739 0
49 2457 -739 0
49 -739 -2458 0
49 -2458 2459 740 0
49 2458 -740 0
49 -740 -2459 0
49 -2459 2460 741 0
49 2459 -741 0
49 -741 -2460 0
49 -2460 2461 742 0
49 2460 -742 0
49 -742 -2461 0
49 -2461 2453 0
49 -2453 2461 0
49 743 744 745 746 747 748 749 750 0
49 -2464 2463 0
49 -2465 2464 0
49 -2466 2465 0
49 -2467 2466 0
49 -2468 2467 0
49 -2469 2468 0
49 -2470 2469 0
49 2463 743 0
49 -743 -2463 0
49 -2463 2464 744 0
49 2463 -744 0
49 -744 -2464 0
49 -2464 2465 745 0
49 2464 -745 0
49 -745 -2465 0
49 -2465 2466 746 0
49 2465 -746 0
49 -746 -2466 0
49 -2466 2467 747 0
49 2466 -747 0
49 -747 -2467 0
49 -2467 2468 748 0
49 2467 -748 0
49 -748 -2468 0
49 -2468 2469 749 0
49 2468 -749 0
49 -749 -2469 0
49 -2469 2470 750 0
49 2469 -750 0
49 -750 -2470 0
49 -2470 2462 0
49 -2462 2470 0
49 751 0
49 752 0
49 753 754 0
49 -753 -754 0
49 755 756 0
49 -755 -756 0
49 757 0
49 758 0
49 759 0
49 760 0
49 761 0
49 762 0
49 763 0
49 764 0
49 765 766 767 768 0
49 -2473 2472 0
49 -2474 2473 0
49 -2475 2474 0
49 2472 765 0
49 -765 -2472 0
49 -2472 2473 766 0
49 2472 -766 0
49 -766 -2473 0
49 -2473 2474 767 0
49 2473 -767 0
49 -767 -2474 0
49 -2474 2475 768 0
49 2474 -768 0
49 -768 -2475 0
49 -2475 2471 0
49 -2471 2475 0
49 769 770 771 772 0
49 -2478 2477 0
49 -2479 2478 0
49 -2480 2479 0
49 2477 769 0
49 -769 -2477 0
49 -2477 2478 770 0
49 2477 -770 0
49 -770 -2478 0
49 -2478 2479 771 0
49 2478 -771 0
49 -771 -2479 0
49 -2479 2480 772 0
49 2479 -772 0
49 -772 -2480 0
49 -2480 2476 0
49 -2476 2480 0
49 773 0
49 774 0
49 775 0
49 776 0
49 777 0
49 778 0
49 779 0
49 780 0
49 781 782 783 0
49 -2483 2482 0
49 -2484 2483 0
49 2482 781 0
49 -781 -2482 0
49 -2482 2483 782 0
49 2482 -782 0
49 -782 -2483 0
49 -2483 2484 783 0
49 2483 -783 0
49 -783 -2484 0
49 -2484 2481 0
49 -2481 2484 0
49 784 785 786 0
49 -2487 2486 0
49 -2488 2487 0
49 2486 784 0
49 -784 -2486 0
49 -2486 2487 785 0
49 2486 -785 0
49 -785 -2487 0
49 -2487 2488 786 0
49 2487 -786 0
49 -786 -2488 0
49 -2488 2485 0
49 -2485 2488 0
49 787 0
49 788 0
49 789 0
49 790 0
49 791 0
49 792 0
49 793 0
49 794 0
49 795 796 797 0
49 -2491 2490 0
49 -2492 2491 0
49 2490 795 0
49 -795 -2490 0
49 -2490 2491 796 0
49 2490 -796 0
49 -796 -2491 0
49 -2491 2492 797 0
49 2491 -797 0
49 -797 -2492 0
49 -2492 2489 0
49 -2489 2492 0
49 798 799 800 0
49 -2495 2494 0
49 -2496 2495 0
49 2494 798 0
49 -798 -2494 0
49 -2494 2495 799 0
49 2494 -799 0
49 -799 -2495 0
49 -2495 2496 800 0
49 2495 -800 0
49 -800 -2496 0
49 -2496 2493 0
49 -2493 2496 0
49 801 802 0
49 -801 -802 0
49 803 804 0
49 -803 -804 0
49 805 0
49 806 0
49 807 0
49 808 0
49 809 0
49 810 0
49 811 812 0
49 -811 -812 0
49 813 814 0
49 -813 -814 0
49 815 0
49 816 0
49 817 818 0
49 -817 -818 0
49 819 820 0
49 -819 -820 0
49 821 0
49 822 0
49 823 0
49 824 0
49 825 826 827 828 829 830 831 832 833 834 835 0
49 -2499 2498 0
49 -2500 2499 0
49 -2501 2500 0
49 -2502 2501 0
49 -2503 2502 0
49 -2504 2503 0
49 -2505 2504 0
49 -2506 2505 0
49 -2507 2506 0
49 -2508 2507 0
49 2498 825 0
49 -825 -2498 0
49 -2498 2499 826 0
49 2498 -826 0
49 -826 -2499 0
49 -2499 2500 827 0
49 2499 -827 0
49 -827 -2500 0
49 -2500 2501 828 0
49 2500 -828 0
49 -828 -2501 0
49 -2501 2502 829 0
49 2501 -829 0
49 -829 -2502 0
49 -2502 2503 830 0
49 2502 -830 0
49 -830 -2503 0
49 -2503 2504 831 0
49 2503 -831 0
49 -831 -2504 0
49 -2504 2505 832 0
49 2504 -832 0
49 -832 -2505 0
49 -2505 2506 833 0
49 2505 -833 0
49 -833 -2506 0
49 -2506 2507 834 0
49 2506 -834 0
49 -834 -2507 0
49 -2507 2508 835 0
49 2507 -835 0
49 -835 -2508 0
49 -2508 2497 0
49 -2497 2508 0
49 836 837 838 839 840 841 842 843 844 845 846 0
49 -2511 2510 0
49 -2512 2511 0
49 -2513 2512 0
49 -2514 2513 0
49 -2515 2514 0
49 -2516 2515 0
49 -2517 2516 0
49 -2518 2517 0
49 -2519 2518 0
49 -2520 2519 0
49 2510 836 0
49 -836 -2510 0
49 -2510 2511 837 0
49 2510 -837 0
49 -837 -2511 0
49 -2511 2512 838 0
49 2511 -838 0
49 -838 -2512 0
49 -2512 2513 839 0
49 2512 -839 0
49 -839 -2513 0
49 -2513 2514 840 0
49 2513 -840 0
49 -840 -2514 0
49 -2514 2515 841 0
49 2514 -841 0
49 -841 -2515 0
49 -2515 2516 842 0
49 2515 -842 0
49 -842 -2516 0
49 -2516 2517 843 0
49 2516 -843 0
49 -843 -2517 0
49 -2517 2518 844 0
49 2517 -844 0
49 -844 -2518 0
49 -2518 2519 845 0
49 2518 -845 0
49 -845 -2519 0
49 -2519 2520 846 0
49 2519 -846 0
49 -846 -2520 0
49 -2520 2509 0
49 -2509 2520 0
49 847 0
49 848 0
49 849 0
49 850 0
49 851 852 853 0
49 -2523 2522 0
49 -2524 2523 0
49 2522 851 0
49 -851 -2522 0
49 -2522 2523 852 0
49 2522 -852 0
49 -852 -2523 0
49 -2523 2524 853 0
49 2523 -853 0
49 -853 -2524 0
49 -2524 2521 0
49 -2521 2524 0
49 854 855 856 0
49 -2527 2526 0
49 -2528 2527 0
49 2526 854 0
49 -854 -2526 0
49 -2526 2527 855 0
49 2526 -855 0
49 -855 -2527 0
49 -2527 2528 856 0
49 2527 -856 0
49 -856 -2528 0
49 -2528 2525 0
49 -2525 2528 0
49 857 858 0
49 -857 -858 0
49 859 860 0
49 -859 -860 0
49 861 0
49 862 0
49 863 0
49 864 0
49 865 0
49 866 0
49 867 0
49 868 0
49 869 870 0
49 -869 -870 0
49 871 872 0
49 -871 -872 0
49 873 874 875 876 877 878 879 0
49 -2531 2530 0
49 -2532 2531 0
49 -2533 2532 0
49 -2534 2533 0
49 -2535 2534 0
49 -2536 2535 0
49 2530 873 0
49 -873 -2530 0
49 -2530 2531 874 0
49 2530 -874 0
49 -874 -2531 0
49 -2531 2532 875 0
49 2531 -875 0
49 -875 -2532 0
49 -2532 2533 876 0
49 2532 -876 0
49 -876 -2533 0
49 -2533 2534 877 0
49 2533 -877 0
49 -877 -2534 0
49 -2534 2535 878 0
49 2534 -878 0
49 -878 -2535 0
49 -2535 2536 879 0
49 2535 -879 0
49 -879 -2536 0
49 -2536 2529 0
49 -2529 2536 0
49 880 881 882 883 884 885 886 0
49 -2539 2538 0
49 -2540 2539 0
49 -2541 2540 0
49 -2542 2541 0
49 -2543 2542 0
49 -2544 2543 0
49 2538 880 0
49 -880 -2538 0
49 -2538 2539 881 0
49 2538 -881 0
49 -881 -2539 0
49 -2539 2540 882 0
49 2539 -882 0
49 -882 -2540 0
49 -2540 2541 883 0
49 2540 -883 0
49 -883 -2541 0
49 -2541 2542 884 0
49 2541 -884 0
49 -884 -2542 0
49 -2542 2543 885 0
49 2542 -885 0
49 -885 -2543 0
49 -2543 2544 886 0
49 2543 -886 0
49 -886 -2544 0
49 -2544 2537 0
49 -2537 2544 0
49 887 888 0
49 -887 -888 0
49 889 890 0
49 -889 -890 0
49 891 0
49 892 0
49 893 894 0
49 -893 -894 0
49 895 896 0
49 -895 -896 0
49 897 0
49 898 0
49 899 0
49 900 0
49 901 0
49 902 0
49 903 904 905 906 0
49 -2547 2546 0
49 -2548 2547 0
49 -2549 2548 0
49 2546 903 0
49 -903 -2546 0
49 -2546 2547 904 0
49 2546 -904 0
49 -904 -2547 0
49 -2547 2548 905 0
49 2547 -905 0
49 -905 -2548 0
49 -2548 2549 906 0
49 2548 -906 0
49 -906 -2549 0
49 -2549 2545 0
49 -2545 2549 0
49 907 908 909 910 0
49 -2552 2551 0
49 -2553 2552 0
49 -2554 2553 0
49 2551 907 0
49 -907 -2551 0
49 -2551 2552 908 0
49 2551 -908 0
49 -908 -2552 0
49 -2552 2553 909 0
49 2552 -909 0
49 -909 -2553 0
49 -2553 2554 910 0
49 2553 -910 0
49 -910 -2554 0
49 -2554 2550 0
49 -2550 2554 0
49 911 0
49 912 0
49 913 0
49 914 0
49 915 0
49 916 0
49 917 918 0
49 -917 -918 0
49 919 920 0
49 -919 -920 0
49 921 0
49 922 0
49 923 0
49 924 0
49 925 0
49 926 0
49 927 928 929 930 0
49 -2557 2556 0
49 -2558 2557 0
49 -2559 2558 0
49 2556 927 0
49 -927 -2556 0
49 -2556 2557 928 0
49 2556 -928 0
49 -928 -2557 0
49 -2557 2558 929 0
49 2557 -929 0
49 -929 -2558 0
49 -2558 2559 930 0
49 2558 -930 0
49 -930 -2559 0
49 -2559 2555 0
49 -2555 2559 0
49 931 932 933 934 0
49 -2562 2561 0
49 -2563 2562 0
49 -2564 2563 0
49 2561 931 0
49 -931 -2561 0
49 -2561 2562 932 0
49 2561 -932 0
49 -932 -2562 0
49 -2562 2563 933 0
49 2562 -933 0
49 -933 -2563 0
49 -2563 2564 934 0
49 2563 -934 0
49 -934 -2564 0
49 -2564 2560 0
49 -2560 2564 0
49 935 0
49 936 0
49 937 0
49 938 0
49 939 940 941 942 943 944 945 946 0
49 -2567 2566 0
49 -2568 2567 0
49 -2569 2568 0
49 -2570 2569 0
49 -2571 2570 0
49 -2572 2571 0
49 -2573 2572 0
49 2566 939 0
49 -939 -2566 0
49 -2566 2567 940 0
49 2566 -940 0
49 -940 -2567 0
49 -2567 2568 941 0
49 2567 -941 0
49 -941 -2568 0
49 -2568 2569 942 0
49 2568 -942 0
49 -942 -2569 0
49 -2569 2570 943 0
49 2569 -943 0
49 -943 -2570 0
49 -2570 2571 944 0
49 2570 -944 0
49 -944 -2571 0
49 -2571 2572 945 0
49 2571 -945 0
49 -945 -2572 0
49 -2572 2573 946 0
49 2572 -946 0
49 -946 -2573 0
49 -2573 2565 0
49 -2565 2573 0
49 947 948 949 950 951 952 953 954 0
49 -2576 2575 0
49 -2577 2576 0
49 -2578 2577 0
49 -2579 2578 0
49 -2580 2579 0
49 -2581 2580 0
49 -2582 2581 0
49 2575 947 0
49 -947 -2575 0
49 -2575 2576 948 0
49 2575 -948 0
49 -948 -2576 0
49 -2576 2577 949 0
49 2576 -949 0
49 -949 -2577 0
49 -2577 2578 950 0
49 2577 -950 0
49 -950 -2578 0
49 -2578 2579 951 0
49 2578 -951 0
49 -951 -2579 0
49 -2579 2580 952 0
49 2579 -952 0
49 -952 -2580 0
49 -2580 2581 953 0
49 2580 -953 0
49 -953 -2581 0
49 -2581 2582 954 0
49 2581 -954 0
49 -954 -2582 0
49 -2582 2574 0
49 -2574 2582 0
49 955 956 957 958 0
49 -2585 2584 0
49 -2586 2585 0
49 -2587 2586 0
49 2584 955 0
49 -955 -2584 0
49 -2584 2585 956 0
49 2584 -956 0
49 -956 -2585 0
49 -2585 2586 957 0
49 2585 -957 0
49 -957 -2586 0
49 -2586 2587 958 0
49 2586 -958 0
49 -958 -2587 0
49 -2587 2583 0
49 -2583 2587 0
49 959 960 961 962 0
49 -2590 2589 0
49 -2591 2590 0
49 -2592 2591 0
49 2589 959 0
49 -959 -2589 0
49 -2589 2590 960 0
49 2589 -960 0
49 -960 -2590 0
49 -2590 2591 961 0
49 2590 -961 0
49 -961 -2591 0
49 -2591 2592 962 0
49 2591 -962 0
49 -962 -2592 0
49 -2592 2588 0
49 -2588 2592 0
49 963 964 965 0
49 -2595 2594 0
49 -2596 2595 0
49 2594 963 0
49 -963 -2594 0
49 -2594 2595 964 0
49 2594 -964 0
49 -964 -2595 0
49 -2595 2596 965 0
49 2595 -965 0
49 -965 -2596 0
49 -2596 2593 0
49 -2593 2596 0
49 966 967 968 0
49 -2599 2598 0
49 -2600 2599 0
49 2598 966 0
49 -966 -2598 0
49 -2598 2599 967 0
49 2598 -967 0
49 -967 -2599 0
49 -2599 2600 968 0
49 2599 -968 0
49 -968 -2600 0
49 -2600 2597 0
49 -2597 2600 0
49 969 970 971 972 973 974 975 976 977 978 979 980 981 982 983 984 985 986 987 988 989 990 991 992 993 994 995 996 997 998 999 1000 1001 0
49 -2603 2602 0
49 -2604 2603 0
49 -2605 2604 0
49 -2606 2605 0
49 -2607 2606 0
49 -2608 2607 0
49 -2609 2608 0
49 -2610 2609 0
49 -2611 2610 0
49 -2612 2611 0
49 -2613 2612 0
49 -2614 2613 0
49 -2615 2614 0
49 -2616 2615 0
49 -2617 2616 0
49 -2618 2617 0
49 -2619 2618 0
49 -2620 2619 0
49 -2621 2620 0
49 -2622 2621 0
49 -2623 2622 0
49 -2624 2623 0
49 -2625 2624 0
49 -2626 2625 0
49 -2627 2626 0
49 -2628 2627 0
49 -2629 2628 0
49 -2630 2629 0
49 -2631 2630 0
49 -2632 2631 0
49 -2633 2632 0
49 -2634 2633 0
49 2602 969 0
49 -969 -2602 0
49 -2602 2603 970 0
49 2602 -970 0
49 -970 -2603 0
49 -2603 2604 971 0
49 2603 -971 0
49 -971 -2604 0
49 -2604 2605 972 0
49 2604 -972 0
49 -972 -2605 0
49 -2605 2606 973 0
49 2605 -973 0
49 -973 -2606 0
49 -2606 2607 974 0
49 2606 -974 0
49 -974 -2607 0
49 -2607 2608 975 0
49 2607 -975 0
49 -975 -2608 0
49 -2608 2609 976 0
49 2608 -976 0
49 -976 -2609 0
49 -2609 2610 977 0
49 2609 -977 0
49 -977 -2610 0
49 -2610 2611 978 0
49 2610 -978 0
49 -978 -2611 0
49 -2611 2612 979 0
49 2611 -979 0
49 -979 -2612 0
49 -2612 2613 980 0
49 2612 -980 0
49 -980 -2613 0
49 -2613 2614 981 0
49 2613 -981 0
49 -981 -2614 0
49 -2614 2615 982 0
49 2614 -982 0
49 -982 -2615 0
49 -2615 2616 983 0
49 2615 -983 0
49 -983 -2616 0
49 -2616 2617 984 0
49 2616 -984 0
49 -984 -2617 0
49 -2617 2618 985 0
49 2617 -985 0
49 -985 -2618 0
49 -2618 2619 986 0
49 2618 -986 0
49 -986 -2619 0
49 -2619 2620 987 0
49 2619 -987 0
49 -987 -2620 0
49 -2620 2621 988 0
49 2620 -988 0
49 -988 -2621 0
49 -2621 2622 989 0
49 2621 -989 0
49 -989 -2622 0
49 -2622 2623 990 0
49 2622 -990 0
49 -990 -2623 0
49 -2623 2624 991 0
49 2623 -991 0
49 -991 -2624 0
49 -2624 2625 992 0
49 2624 -992 0
49 -992 -2625 0
49 -2625 2626 993 0
49 2625 -993 0
49 -993 -2626 0
49 -2626 2627 994 0
49 2626 -994 0
49 -994 -2627 0
49 -2627 2628 995 0
49 2627 -995 0
49 -995 -2628 0
49 -2628 2629 996 0
49 2628 -996 0
49 -996 -2629 0
49 -2629 2630 997 0
49 2629 -997 0
49 -997 -2630 0
49 -2630 2631 998 0
49 2630 -998 0
49 -998 -2631 0
49 -2631 2632 999 0
49 2631 -999 0
49 -999 -2632 0
49 -2632 2633 1000 0
49 2632 -1000 0
49 -1000 -2633 0
49 -2633 2634 1001 0
49 2633 -1001 0
49 -1001 -2634 0
49 -2634 2601 0
49 -2601 2634 0
49 1002 1003 1004 1005 1006 1007 1008 1009 1010 1011 1012 1013 1014 1015 1016 1017 1018 1019 1020 1021 1022 1023 1024 1025 1026 1027 1028 1029 1030 1031 1032 1033 1034 0
49 -2637 2636 0
49 -2638 2637 0
49 -2639 2638 0
49 -2640 2639 0
49 -2641 2640 0
49 -2642 2641 0
49 -2643 2642 0
49 -2644 2643 0
49 -2645 2644 0
49 -2646 2645 0
49 -2647 2646 0
49 -2648 2647 0
49 -2649 2648 0
49 -2650 2649 0
49 -2651 2650 0
49 -2652 2651 0
49 -2653 2652 0
49 -2654 2653 0
49 -2655 2654 0
49 -2656 2655 0
49 -2657 2656 0
49 -2658 2657 0
49 -2659 2658 0
49 -2660 2659 0
49 -2661 2660 0
49 -2662 2661 0
49 -2663 2662 0
49 -2664 2663 0
49 -2665 2664 0
49 -2666 2665 0
49 -2667 2666 0
49 -2668 2667 0
49 2636 1002 0
49 -1002 -2636 0
49 -2636 2637 1003 0
49 2636 -1003 0
49 -1003 -2637 0
49 -2637 2638 1004 0
49 2637 -1004 0
49 -1004 -2638 0
49 -2638 2639 1005 0
49 2638 -1005 0
49 -1005 -2639 0
49 -2639 2640 1006 0
49 2639 -1006 0
49 -1006 -2640 0
49 -2640 2641 1007 0
49 2640 -1007 0
49 -1007 -2641 0
49 -2641 2642 1008 0
49 2641 -1008 0
49 -1008 -2642 0
49 -2642 2643 1009 0
49 2642 -1009 0
49 -1009 -2643 0
49 -2643 2644 1010 0
49 2643 -1010 0
49 -1010 -2644 0
49 -2644 2645 1011 0
49 2644 -1011 0
49 -1011 -2645 0
49 -2645 2646 1012 0
49 2645 -1012 0
49 -1012 -2646 0
49 -2646 2647 1013 0
49 2646 -1013 0
49 -1013 -2647 0
49 -2647 2648 1014 0
49 2647 -1014 0
49 -1014 -2648 0
49 -2648 2649 1015 0
49 2648 -1015 0
49 -1015 -2649 0
49 -2649 2650 1016 0
49 2649 -1016 0
49 -1016 -2650 0
49 -2650 2651 1017 0
49 2650 -1017 0
49 -1017 -2651 0
49 -2651 2652 1018 0
49 2651 -1018 0
49 -1018 -2652 0
49 -2652 2653 1019 0
49 2652 -1019 0
49 -1019 -2653 0
49 -2653 2654 1020 0
49 2653 -1020 0
49 -1020 -2654 0
49 -2654 2655 1021 0
49 2654 -1021 0
49 -1021 -2655 0
49 -2655 2656 1022 0
49 2655 -1022 0
49 -1022 -2656 0
49 -2656 2657 1023 0
49 2656 -1023 0
49 -1023 -2657 0
49 -2657 2658 1024 0
49 2657 -1024 0
49 -1024 -2658 0
49 -2658 2659 1025 0
49 2658 -1025 0
49 -1025 -2659 0
49 -2659 2660 1026 0
49 2659 -1026 0
49 -1026 -2660 0
49 -2660 2661 1027 0
49 2660 -1027 0
49 -1027 -2661 0
49 -2661 2662 1028 0
49 2661 -1028 0
49 -1028 -2662 0
49 -2662 2663 1029 0
49 2662 -1029 0
49 -1029 -2663 0
49 -2663 2664 1030 0
49 2663 -1030 0
49 -1030 -2664 0
49 -2664 2665 1031 0
49 2664 -1031 0
49 -1031 -2665 0
49 -2665 2666 1032 0
49 2665 -1032 0
49 -1032 -2666 0
49 -2666 2667 1033 0
49 2666 -1033 0
49 -1033 -2667 0
49 -2667 2668 1034 0
49 2667 -1034 0
49 -1034 -2668 0
49 -2668 2635 0
49 -2635 2668 0
49 1035 0
49 1036 0
49 1037 0
49 1038 0
49 1039 0
49 1040 0
49 1041 1042 0
49 -1041 -1042 0
49 1043 1044 0
49 -1043 -1044 0
49 1045 1046 1047 1048 1049 1050 1051 1052 0
49 -2671 2670 0
49 -2672 2671 0
49 -2673 2672 0
49 -2674 2673 0
49 -2675 2674 0
49 -2676 2675 0
49 -2677 2676 0
49 2670 1045 0
49 -1045 -2670 0
49 -2670 2671 1046 0
49 2670 -1046 0
49 -1046 -2671 0
49 -2671 2672 1047 0
49 2671 -1047 0
49 -1047 -2672 0
49 -2672 2673 1048 0
49 2672 -1048 0
49 -1048 -2673 0
49 -2673 2674 1049 0
49 2673 -1049 0
49 -1049 -2674 0
49 -2674 2675 1050 0
49 2674 -1050 0
49 -1050 -2675 0
49 -2675 2676 1051 0
49 2675 -1051 0
49 -1051 -2676 0
49 -2676 2677 1052 0
49 2676 -1052 0
49 -1052 -2677 0
49 -2677 2669 0
49 -2669 2677 0
49 1053 1054 1055 1056 1057 1058 1059 1060 0
49 -2680 2679 0
49 -2681 2680 0
49 -2682 2681 0
49 -2683 2682 0
49 -2684 2683 0
49 -2685 2684 0
49 -2686 2685 0
49 2679 1053 0
49 -1053 -2679 0
49 -2679 2680 1054 0
49 2679 -1054 0
49 -1054 -2680 0
49 -2680 2681 1055 0
49 2680 -1055 0
49 -1055 -2681 0
49 -2681 2682 1056 0
49 2681 -1056 0
49 -1056 -2682 0
49 -2682 2683 1057 0
49 2682 -1057 0
49 -1057 -2683 0
49 -2683 2684 1058 0
49 2683 -1058 0
49 -1058 -2684 0
49 -2684 2685 1059 0
49 2684 -1059 0
49 -1059 -2685 0
49 -2685 2686 1060 0
49 2685 -1060 0
49 -1060 -2686 0
49 -2686 2678 0
49 -2678 2686 0
49 1061 0
49 1062 0
49 1063 1064 1065 1066 1067 1068 1069 1070 1071 1072 1073 1074 1075 1076 1077 1078 1079 1080 0
49 -2689 2688 0
49 -2690 2689 0
49 -2691 2690 0
49 -2692 2691 0
49 -2693 2692 0
49 -2694 2693 0
49 -2695 2694 0
49 -2696 2695 0
49 -2697 2696 0
49 -2698 2697 0
49 -2699 2698 0
49 -2700 2699 0
49 -2701 2700 0
49 -2702 2701 0
49 -2703 2702 0
49 -2704 2703 0
49 -2705 2704 0
49 2688 1063 0
49 -1063 -2688 0
49 -2688 2689 1064 0
49 2688 -1064 0
49 -1064 -2689 0
49 -2689 2690 1065 0
49 2689 -1065 0
49 -1065 -2690 0
49 -2690 2691 1066 0
49 2690 -1066 0
49 -1066 -2691 0
49 -2691 2692 1067 0
49 2691 -1067 0
49 -1067 -2692 0
49 -2692 2693 1068 0
49 2692 -1068 0
49 -1068 -2693 0
49 -2693 2694 1069 0
49 2693 -1069 0
49 -1069 -2694 0
49 -2694 2695 1070 0
49 2694 -1070 0
49 -1070 -2695 0
49 -2695 2696 1071 0
49 2695 -1071 0
49 -1071 -2696 0
49 -2696 2697 1072 0
49 2696 -1072 0
49 -1072 -2697 0
49 -2697 2698 1073 0
49 2697 -1073 0
49 -1073 -2698 0
49 -2698 2699 1074 0
49 2698 -1074 0
49 -1074 -2699 0
49 -2699 2700 1075 0
49 2699 -1075 0
49 -1075 -2700 0
49 -2700 2701 1076 0
49 2700 -1076 0
49 -1076 -2701 0
49 -2701 2702 1077 0
49 2701 -1077 0
49 -1077 -2702 0
49 -2702 2703 1078 0
49 2702 -1078 0
49 -1078 -2703 0
49 -2703 2704 1079 0
49 2703 -1079 0
49 -1079 -2704 0
49 -2704 2705 1080 0
49 2704 -1080 0
49 -1080 -2705 0
49 -2705 2687 0
49 -2687 2705 0
49 1081 1082 1083 1084 1085 1086 1087 1088 1089 1090 1091 1092 1093 1094 1095 1096 1097 1098 0
49 -2708 2707 0
49 -2709 2708 0
49 -2710 2709 0
49 -2711 2710 0
49 -2712 2711 0
49 -2713 2712 0
49 -2714 2713 0
49 -2715 2714 0
49 -2716 2715 0
49 -2717 2716 0
49 -2718 2717 0
49 -2719 2718 0
49 -2720 2719 0
49 -2721 2720 0
49 -2722 2721 0
49 -2723 2722 0
49 -2724 2723 0
49 2707 1081 0
49 -1081 -2707 0
49 -2707 2708 1082 0
49 2707 -1082 0
49 -1082 -2708 0
49 -2708 2709 1083 0
49 2708 -1083 0
49 -1083 -2709 0
49 -2709 2710 1084 0
49 2709 -1084 0
49 -1084 -2710 0
49 -2710 2711 1085 0
49 2710 -1085 0
49 -1085 -2711 0
49 -2711 2712 1086 0
49 2711 -1086 0
49 -1086 -2712 0
49 -2712 2713 1087 0
49 2712 -1087 0
49 -1087 -2713 0
49 -2713 2714 1088 0
49 2713 -1088 0
49 -1088 -2714 0
49 -2714 2715 1089 0
49 2714 -1089 0
49 -1089 -2715 0
49 -2715 2716 1090 0
49 2715 -1090 0
49 -1090 -2716 0
49 -2716 2717 1091 0
49 2716 -1091 0
49 -1091 -2717 0
49 -2717 2718 1092 0
49 2717 -1092 0
49 -1092 -2718 0
49 -2718 2719 1093 0
49 2718 -1093 0
49 -1093 -2719 0
49 -2719 2720 1094 0
49 2719 -1094 0
49 -1094 -2720 0
49 -2720 2721 1095 0
49 2720 -1095 0
49 -1095 -2721 0
49 -2721 2722 1096 0
49 2721 -1096 0
49 -1096 -2722 0
49 -2722 2723 1097 0
49 2722 -1097 0
49 -1097 -2723 0
49 -2723 2724 1098 0
49 2723 -1098 0
49 -1098 -2724 0
49 -2724 2706 0
49 -2706 2724 0
49 1099 1100 1101 1102 1103 1104 1105 1106 1107 1108 1109 1110 1111 1112 1113 1114 1115 1116 1117 1118 1119 1120 1121 1122 1123 1124 0
49 -2727 2726 0
49 -2728 2727 0
49 -2729 2728 0
49 -2730 2729 0
49 -2731 2730 0
49 -2732 2731 0
49 -2733 2732 0
49 -2734 2733 0
49 -2735 2734 0
49 -2736 2735 0
49 -2737 2736 0
49 -2738 2737 0
49 -2739 2738 0
49 -2740 2739 0
49 -2741 2740 0
49 -2742 2741 0
49 -2743 2742 0
49 -2744 2743 0
49 -2745 2744 0
49 -2746 2745 0
49 -2747 2746 0
49 -2748 2747 0
49 -2749 2748 0
49 -2750 2749 0
49 -2751 2750 0
49 2726 1099 0
49 -1099 -2726 0
49 -2726 2727 1100 0
49 2726 -1100 0
49 -1100 -2727 0
49 -2727 2728 1101 0
49 2727 -1101 0
49 -1101 -2728 0
49 -2728 2729 1102 0
49 2728 -1102 0
49 -1102 -2729 0
49 -2729 2730 1103 0
49 2729 -1103 0
49 -1103 -2730 0
49 -2730 2731 1104 0
49 2730 -1104 0
49 -1104 -2731 0
49 -2731 2732 1105 0
49 2731 -1105 0
49 -1105 -2732 0
49 -2732 2733 1106 0
49 2732 -1106 0
49 -1106 -2733 0
49 -2733 2734 1107 0
49 2733 -1107 0
49 -1107 -2734 0
49 -2734 2735 1108 0
49 2734 -1108 0
49 -1108 -2735 0
49 -2735 2736 1109 0
49 2735 -1109 0
49 -1109 -2736 0
49 -2736 2737 1110 0
49 2736 -1110 0
49 -1110 -2737 0
49 -2737 2738 1111 0
49 2737 -1111 0
49 -1111 -2738 0
49 -2738 2739 1112 0
49 2738 -1112 0
49 -1112 -2739 0
49 -2739 2740 1113 0
49 2739 -1113 0
49 -1113 -2740 0
49 -2740 2741 1114 0
49 2740 -1114 0
49 -1114 -2741 0
49 -2741 2742 1115 0
49 2741 -1115 0
49 -1115 -2742 0
49 -2742 2743 1116 0
49 2742 -1116 0
49 -1116 -2743 0
49 -2743 2744 1117 0
49 2743 -1117 0
49 -1117 -2744 0
49 -2744 2745 1118 0
49 2744 -1118 0
49 -1118 -2745 0
49 -2745 2746 1119 0
49 2745 -1119 0
49 -1119 -2746 0
49 -2746 2747 1120 0
49 2746 -1120 0
49 -1120 -2747 0
49 -2747 2748 1121 0
49 2747 -1121 0
49 -1121 -2748 0
49 -2748 2749 1122 0
49 2748 -1122 0
49 -1122 -2749 0
49 -2749 2750 1123 0
49 2749 -1123 0
49 -1123 -2750 0
49 -2750 2751 1124 0
49 2750 -1124 0
49 -1124 -2751 0
49 -2751 2725 0
49 -2725 2751 0
49 1125 1126 1127 1128 1129 1130 1131 1132 1133 1134 1135 1136 1137 1138 1139 1140 1141 1142 1143 1144 1145 1146 1147 1148 1149 1150 0
49 -2754 2753 0
49 -2755 2754 0
49 -2756 2755 0
49 -2757 2756 0
49 -2758 2757 0
49 -2759 2758 0
49 -2760 2759 0
49 -2761 2760 0
49 -2762 2761 0
49 -2763 2762 0
49 -2764 2763 0
49 -2765 2764 0
49 -2766 2765 0
49 -2767 2766 0
49 -2768 2767 0
49 -2769 2768 0
49 -2770 2769 0
49 -2771 2770 0
49 -2772 2771 0
49 -2773 2772 0
49 -2774 2773 0
49 -2775 2774 0
49 -2776 2775 0
49 -2777 2776 0
49 -2778 2777 0
49 2753 1125 0
49 -1125 -2753 0
49 -2753 2754 1126 0
49 2753 -1126 0
49 -1126 -2754 0
49 -2754 2755 1127 0
49 2754 -1127 0
49 -1127 -2755 0
49 -2755 2756 1128 0
49 2755 -1128 0
49 -1128 -2756 0
49 -2756 2757 1129 0
49 2756 -1129 0
49 -1129 -2757 0
49 -2757 2758 1130 0
49 2757 -1130 0
49 -1130 -2758 0
49 -2758 2759 1131 0
49 2758 -1131 0
49 -1131 -2759 0
49 -2759 2760 1132 0
49 2759 -1132 0
49 -1132 -2760 0
49 -2760 2761 1133 0
49 2760 -1133 0
49 -1133 -2761 0
49 -2761 2762 1134 0
49 2761 -1134 0
49 -1134 -2762 0
49 -2762 2763 1135 0
49 2762 -1135 0
49 -1135 -2763 0
49 -2763 2764 1136 0
49 2763 -1136 0
49 -1136 -2764 0
49 -2764 2765 1137 0
49 2764 -1137 0
49 -1137 -2765 0
49 -2765 2766 1138 0
49 2765 -1138 0
49 -1138 -2766 0
49 -2766 2767 1139 0
49 2766 -1139 0
49 -1139 -2767 0
49 -2767 2768 1140 0
49 2767 -1140 0
49 -1140 -2768 0
49 -2768 2769 1141 0
49 2768 -1141 0
49 -1141 -2769 0
49 -2769 2770 1142 0
49 2769 -1142 0
49 -1142 -2770 0
49 -2770 2771 1143 0
49 2770 -1143 0
49 -1143 -2771 0
49 -2771 2772 1144 0
49 2771 -1144 0
49 -1144 -2772 0
49 -2772 2773 1145 0
49 2772 -1145 0
49 -1145 -2773 0
49 -2773 2774 1146 0
49 2773 -1146 0
49 -1146 -2774 0
49 -2774 2775 1147 0
49 2774 -1147 0
49 -1147 -2775 0
49 -2775 2776 1148 0
49 2775 -1148 0
49 -1148 -2776 0
49 -2776 2777 1149 0
49 2776 -1149 0
49 -1149 -2777 0
49 -2777 2778 1150 0
49 2777 -1150 0
49 -1150 -2778 0
49 -2778 2752 0
49 -2752 2778 0
49 1151 1152 1153 1154 1155 1156 1157 1158 1159 1160 1161 1162 1163 1164 1165 1166 1167 1168 1169 0
49 -2781 2780 0
49 -2782 2781 0
49 -2783 2782 0
49 -2784 2783 0
49 -2785 2784 0
49 -2786 2785 0
49 -2787 2786 0
49 -2788 2787 0
49 -2789 2788 0
49 -2790 2789 0
49 -2791 2790 0
49 -2792 2791 0
49 -2793 2792 0
49 -2794 2793 0
49 -2795 2794 0
49 -2796 2795 0
49 -2797 2796 0
49 -2798 2797 0
49 2780 1151 0
49 -1151 -2780 0
49 -2780 2781 1152 0
49 2780 -1152 0
49 -1152 -2781 0
49 -2781 2782 1153 0
49 2781 -1153 0
49 -1153 -2782 0
49 -2782 2783 1154 0
49 2782 -1154 0
49 -1154 -2783 0
49 -2783 2784 1155 0
49 2783 -1155 0
49 -1155 -2784 0
49 -2784 2785 1156 0
49 2784 -1156 0
49 -1156 -2785 0
49 -2785 2786 1157 0
49 2785 -1157 0
49 -1157 -2786 0
49 -2786 2787 1158 0
49 2786 -1158 0
49 -1158 -2787 0
49 -2787 2788 1159 0
49 2787 -1159 0
49 -1159 -2788 0
49 -2788 2789 1160 0
49 2788 -1160 0
49 -1160 -2789 0
49 -2789 2790 1161 0
49 2789 -1161 0
49 -1161 -2790 0
49 -2790 2791 1162 0
49 2790 -1162 0
49 -1162 -2791 0
49 -2791 2792 1163 0
49 2791 -1163 0
49 -1163 -2792 0
49 -2792 2793 1164 0
49 2792 -1164 0
49 -1164 -2793 0
49 -2793 2794 1165 0
49 2793 -1165 0
49 -1165 -2794 0
49 -2794 2795 1166 0
49 2794 -1166 0
49 -1166 -2795 0
49 -2795 2796 1167 0
49 2795 -1167 0
49 -1167 -2796 0
49 -2796 2797 1168 0
49 2796 -1168 0
49 -1168 -2797 0
49 -2797 2798 1169 0
49 2797 -1169 0
49 -1169 -2798 0
49 -2798 2779 0
49 -2779 2798 0
49 1170 1171 1172 1173 1174 1175 1176 1177 1178 1179 1180 1181 1182 1183 1184 1185 1186 1187 1188 0
49 -2801 2800 0
49 -2802 2801 0
49 -2803 2802 0
49 -2804 2803 0
49 -2805 2804 0
49 -2806 2805 0
49 -2807 2806 0
49 -2808 2807 0
49 -2809 2808 0
49 -2810 2809 0
49 -2811 2810 0
49 -2812 2811 0
49 -2813 2812 0
49 -2814 2813 0
49 -2815 2814 0
49 -2816 2815 0
49 -2817 2816 0
49 -2818 2817 0
49 2800 1170 0
49 -1170 -2800 0
49 -2800 2801 1171 0
49 2800 -1171 0
49 -1171 -2801 0
49 -2801 2802 1172 0
49 2801 -1172 0
49 -1172 -2802 0
49 -2802 2803 1173 0
49 2802 -1173 0
49 -1173 -2803 0
49 -2803 2804 1174 0
49 2803 -1174 0
49 -1174 -2804 0
49 -2804 2805 1175 0
49 2804 -1175 0
49 -1175 -2805 0
49 -2805 2806 1176 0
49 2805 -1176 0
49 -1176 -2806 0
49 -2806 2807 1177 0
49 2806 -1177 0
49 -1177 -2807 0
49 -2807 2808 1178 0
49 2807 -1178 0
49 -1178 -2808 0
49 -2808 2809 1179 0
49 2808 -1179 0
49 -1179 -2809 0
49 -2809 2810 1180 0
49 2809 -1180 0
49 -1180 -2810 0
49 -2810 2811 1181 0
49 2810 -1181 0
49 -1181 -2811 0
49 -2811 2812 1182 0
49 2811 -1182 0
49 -1182 -2812 0
49 -2812 2813 1183 0
49 2812 -1183 0
49 -1183 -2813 0
49 -2813 2814 1184 0
49 2813 -1184 0
49 -1184 -2814 0
49 -2814 2815 1185 0
49 2814 -1185 0
49 -1185 -2815 0
49 -2815 2816 1186 0
49 2815 -1186 0
49 -1186 -2816 0
49 -2816 2817 1187 0
49 2816 -1187 0
49 -1187 -2817 0
49 -2817 2818 1188 0
49 2817 -1188 0
49 -1188 -2818 0
49 -2818 2799 0
49 -2799 2818 0
49 1189 0
49 1190 0
49 1191 1192 1193 1194 1195 1196 1197 1198 0
49 -2821 2820 0
49 -2822 2821 0
49 -2823 2822 0
49 -2824 2823 0
49 -2825 2824 0
49 -2826 2825 0
49 -2827 2826 0
49 2820 1191 0
49 -1191 -2820 0
49 -2820 2821 1192 0
49 2820 -1192 0
49 -1192 -2821 0
49 -2821 2822 1193 0
49 2821 -1193 0
49 -1193 -2822 0
49 -2822 2823 1194 0
49 2822 -1194 0
49 -1194 -2823 0
49 -2823 2824 1195 0
49 2823 -1195 0
49 -1195 -2824 0
49 -2824 2825 1196 0
49 2824 -1196 0
49 -1196 -2825 0
49 -2825 2826 1197 0
49 2825 -1197 0
49 -1197 -2826 0
49 -2826 2827 1198 0
49 2826 -1198 0
49 -1198 -2827 0
49 -2827 2819 0
49 -2819 2827 0
49 1199 1200 1201 1202 1203 1204 1205 1206 0
49 -2830 2829 0
49 -2831 2830 0
49 -2832 2831 0
49 -2833 2832 0
49 -2834 2833 0
49 -2835 2834 0
49 -2836 2835 0
49 2829 1199 0
49 -1199 -2829 0
49 -2829 2830 1200 0
49 2829 -1200 0
49 -1200 -2830 0
49 -2830 2831 1201 0
49 2830 -1201 0
49 -1201 -2831 0
49 -2831 2832 1202 0
49 2831 -1202 0
49 -1202 -2832 0
49 -2832 2833 1203 0
49 2832 -1203 0
49 -1203 -2833 0
49 -2833 2834 1204 0
49 2833 -1204 0
49 -1204 -2834 0
49 -2834 2835 1205 0
49 2834 -1205 0
49 -1205 -2835 0
49 -2835 2836 1206 0
49 2835 -1206 0
49 -1206 -2836 0
49 -2836 2828 0
49 -2828 2836 0
49 1207 1208 1209 1210 1211 1212 1213 1214 1215 1216 1217 1218 0
49 -2839 2838 0
49 -2840 2839 0
49 -2841 2840 0
49 -2842 2841 0
49 -2843 2842 0
49 -2844 2843 0
49 -2845 2844 0
49 -2846 2845 0
49 -2847 2846 0
49 -2848 2847 0
49 -2849 2848 0
49 2838 1207 0
49 -1207 -2838 0
49 -2838 2839 1208 0
49 2838 -1208 0
49 -1208 -2839 0
49 -2839 2840 1209 0
49 2839 -1209 0
49 -1209 -2840 0
49 -2840 2841 1210 0
49 2840 -1210 0
49 -1210 -2841 0
49 -2841 2842 1211 0
49 2841 -1211 0
49 -1211 -2842 0
49 -2842 2843 1212 0
49 2842 -1212 0
49 -1212 -2843 0
49 -2843 2844 1213 0
49 2843 -1213 0
49 -1213 -2844 0
49 -2844 2845 1214 0
49 2844 -1214 0
49 -1214 -2845 0
49 -2845 2846 1215 0
49 2845 -1215 0
49 -1215 -2846 0
49 -2846 2847 1216 0
49 2846 -1216 0
49 -1216 -2847 0
49 -2847 2848 1217 0
49 2847 -1217 0
49 -1217 -2848 0
49 -2848 2849 1218 0
49 2848 -1218 0
49 -1218 -2849 0
49 -2849 2837 0
49 -2837 2849 0
49 1219 1220 1221 1222 1223 1224 1225 1226 1227 1228 1229 1230 0
49 -2852 2851 0
49 -2853 2852 0
49 -2854 2853 0
49 -2855 2854 0
49 -2856 2855 0
49 -2857 2856 0
49 -2858 2857 0
49 -2859 2858 0
49 -2860 2859 0
49 -2861 2860 0
49 -2862 2861 0
49 2851 1219 0
49 -1219 -2851 0
49 -2851 2852 1220 0
49 2851 -1220 0
49 -1220 -2852 0
49 -2852 2853 1221 0
49 2852 -1221 0
49 -1221 -2853 0
49 -2853 2854 1222 0
49 2853 -1222 0
49 -1222 -2854 0
49 -2854 2855 1223 0
49 2854 -1223 0
49 -1223 -2855 0
49 -2855 2856 1224 0
49 2855 -1224 0
49 -1224 -2856 0
49 -2856 2857 1225 0
49 2856 -1225 0
49 -1225 -2857 0
49 -2857 2858 1226 0
49 2857 -1226 0
49 -1226 -2858 0
49 -2858 2859 1227 0
49 2858 -1227 0
49 -1227 -2859 0
49 -2859 2860 1228 0
49 2859 -1228 0
49 -1228 -2860 0
49 -2860 2861 1229 0
49 2860 -1229 0
49 -1229 -2861 0
49 -2861 2862 1230 0
49 2861 -1230 0
49 -1230 -2862 0
49 -2862 2850 0
49 -2850 2862 0
49 1231 1232 1233 1234 1235 1236 1237 0
49 -2865 2864 0
49 -2866 2865 0
49 -2867 2866 0
49 -2868 2867 0
49 -2869 2868 0
49 -2870 2869 0
49 2864 1231 0
49 -1231 -2864 0
49 -2864 2865 1232 0
49 2864 -1232 0
49 -1232 -2865 0
49 -2865 2866 1233 0
49 2865 -1233 0
49 -1233 -2866 0
49 -2866 2867 1234 0
49 2866 -1234 0
49 -1234 -2867 0
49 -2867 2868 1235 0
49 2867 -1235 0
49 -1235 -2868 0
49 -2868 2869 1236 0
49 2868 -1236 0
49 -1236 -2869 0
49 -2869 2870 1237 0
49 2869 -1237 0
49 -1237 -2870 0
49 -2870 2863 0
49 -2863 2870 0
49 1238 1239 1240 1241 1242 1243 1244 0
49 -2873 2872 0
49 -2874 2873 0
49 -2875 2874 0
49 -2876 2875 0
49 -2877 2876 0
49 -2878 2877 0
49 2872 1238 0
49 -1238 -2872 0
49 -2872 2873 1239 0
49 2872 -1239 0
49 -1239 -2873 0
49 -2873 2874 1240 0
49 2873 -1240 0
49 -1240 -2874 0
49 -2874 2875 1241 0
49 2874 -1241 0
49 -1241 -2875 0
49 -2875 2876 1242 0
49 2875 -1242 0
49 -1242 -2876 0
49 -2876 2877 1243 0
49 2876 -1243 0
49 -1243 -2877 0
49 -2877 2878 1244 0
49 2877 -1244 0
49 -1244 -2878 0
49 -2878 2871 0
49 -2871 2878 0
49 1245 0
49 1246 0
49 1247 0
49 1248 0
49 1249 1250 1251 1252 0
49 -2881 2880 0
49 -2882 2881 0
49 -2883 2882 0
49 2880 1249 0
49 -1249 -2880 0
49 -2880 2881 1250 0
49 2880 -1250 0
49 -1250 -2881 0
49 -2881 2882 1251 0
49 2881 -1251 0
49 -1251 -2882 0
49 -2882 2883 1252 0
49 2882 -1252 0
49 -1252 -2883 0
49 -2883 2879 0
49 -2879 2883 0
49 1253 1254 1255 1256 0
49 -2886 2885 0
49 -2887 2886 0
49 -2888 2887 0
49 2885 1253 0
49 -1253 -2885 0
49 -2885 2886 1254 0
49 2885 -1254 0
49 -1254 -2886 0
49 -2886 2887 1255 0
49 2886 -1255 0
49 -1255 -2887 0
49 -2887 2888 1256 0
49 2887 -1256 0
49 -1256 -2888 0
49 -2888 2884 0
49 -2884 2888 0
49 1257 1258 1259 0
49 -2891 2890 0
49 -2892 2891 0
49 2890 1257 0
49 -1257 -2890 0
49 -2890 2891 1258 0
49 2890 -1258 0
49 -1258 -2891 0
49 -2891 2892 1259 0
49 2891 -1259 0
49 -1259 -2892 0
49 -2892 2889 0
49 -2889 2892 0
49 1260 1261 1262 0
49 -2895 2894 0
49 -2896 2895 0
49 2894 1260 0
49 -1260 -2894 0
49 -2894 2895 1261 0
49 2894 -1261 0
49 -1261 -2895 0
49 -2895 2896 1262 0
49 2895 -1262 0
49 -1262 -2896 0
49 -2896 2893 0
49 -2893 2896 0
49 1263 0
49 1264 0
49 1265 0
49 1266 0
49 1267 0
49 1268 0
49 1269 0
49 1270 0
49 1271 0
49 1272 0
49 1273 0
49 1274 0
49 1275 1276 1277 1278 0
49 -2899 2898 0
49 -2900 2899 0
49 -2901 2900 0
49 2898 1275 0
49 -1275 -2898 0
49 -2898 2899 1276 0
49 2898 -1276 0
49 -1276 -2899 0
49 -2899 2900 1277 0
49 2899 -1277 0
49 -1277 -2900 0
49 -2900 2901 1278 0
49 2900 -1278 0
49 -1278 -2901 0
49 -2901 2897 0
49 -2897 2901 0
49 1279 1280 1281 1282 0
49 -2904 2903 0
49 -2905 2904 0
49 -2906 2905 0
49 2903 1279 0
49 -1279 -2903 0
49 -2903 2904 1280 0
49 2903 -1280 0
49 -1280 -2904 0
49 -2904 2905 1281 0
49 2904 -1281 0
49 -1281 -2905 0
49 -2905 2906 1282 0
49 2905 -1282 0
49 -1282 -2906 0
49 -2906 2902 0
49 -2902 2906 0
49 1283 0
49 1284 0
49 1285 0
49 1286 0
49 1287 1288 1289 1290 0
49 -2909 2908 0
49 -2910 2909 0
49 -2911 2910 0
49 2908 1287 0
49 -1287 -2908 0
49 -2908 2909 1288 0
49 2908 -1288 0
49 -1288 -2909 0
49 -2909 2910 1289 0
49 2909 -1289 0
49 -1289 -2910 0
49 -2910 2911 1290 0
49 2910 -1290 0
49 -1290 -2911 0
49 -2911 2907 0
49 -2907 2911 0
49 1291 1292 1293 1294 0
49 -2914 2913 0
49 -2915 2914 0
49 -2916 2915 0
49 2913 1291 0
49 -1291 -2913 0
49 -2913 2914 1292 0
49 2913 -1292 0
49 -1292 -2914 0
49 -2914 2915 1293 0
49 2914 -1293 0
49 -1293 -2915 0
49 -2915 2916 1294 0
49 2915 -1294 0
49 -1294 -2916 0
49 -2916 2912 0
49 -2912 2916 0
49 1295 1296 1297 1298 1299 1300 0
49 -2919 2918 0
49 -2920 2919 0
49 -2921 2920 0
49 -2922 2921 0
49 -2923 2922 0
49 2918 1295 0
49 -1295 -2918 0
49 -2918 2919 1296 0
49 2918 -1296 0
49 -1296 -2919 0
49 -2919 2920 1297 0
49 2919 -1297 0
49 -1297 -2920 0
49 -2920 2921 1298 0
49 2920 -1298 0
49 -1298 -2921 0
49 -2921 2922 1299 0
49 2921 -1299 0
49 -1299 -2922 0
49 -2922 2923 1300 0
49 2922 -1300 0
49 -1300 -2923 0
49 -2923 2917 0
49 -2917 2923 0
49 1301 1302 1303 1304 1305 1306 0
49 -2926 2925 0
49 -2927 2926 0
49 -2928 2927 0
49 -2929 2928 0
49 -2930 2929 0
49 2925 1301 0
49 -1301 -2925 0
49 -2925 2926 1302 0
49 2925 -1302 0
49 -1302 -2926 0
49 -2926 2927 1303 0
49 2926 -1303 0
49 -1303 -2927 0
49 -2927 2928 1304 0
49 2927 -1304 0
49 -1304 -2928 0
49 -2928 2929 1305 0
49 2928 -1305 0
49 -1305 -2929 0
49 -2929 2930 1306 0
49 2929 -1306 0
49 -1306 -2930 0
49 -2930 2924 0
49 -2924 2930 0
49 1307 1308 1309 1310 0
49 -2933 2932 0
49 -2934 2933 0
49 -2935 2934 0
49 2932 1307 0
49 -1307 -2932 0
49 -2932 2933 1308 0
49 2932 -1308 0
49 -1308 -2933 0
49 -2933 2934 1309 0
49 2933 -1309 0
49 -1309 -2934 0
49 -2934 2935 1310 0
49 2934 -1310 0
49 -1310 -2935 0
49 -2935 2931 0
49 -2931 2935 0
49 1311 1312 1313 1314 0
49 -2938 2937 0
49 -2939 2938 0
49 -2940 2939 0
49 2937 1311 0
49 -1311 -2937 0
49 -2937 2938 1312 0
49 2937 -1312 0
49 -1312 -2938 0
49 -2938 2939 1313 0
49 2938 -1313 0
49 -1313 -2939 0
49 -2939 2940 1314 0
49 2939 -1314 0
49 -1314 -2940 0
49 -2940 2936 0
49 -2936 2940 0
49 1315 0
49 1316 0
49 1317 0
49 1318 0
49 1319 1320 0
49 -1319 -1320 0
49 1321 1322 0
49 -1321 -1322 0
49 1323 1324 1325 1326 0
49 -2943 2942 0
49 -2944 2943 0
49 -2945 2944 0
49 2942 1323 0
49 -1323 -2942 0
49 -2942 2943 1324 0
49 2942 -1324 0
49 -1324 -2943 0
49 -2943 2944 1325 0
49 2943 -1325 0
49 -1325 -2944 0
49 -2944 2945 1326 0
49 2944 -1326 0
49 -1326 -2945 0
49 -2945 2941 0
49 -2941 2945 0
49 1327 1328 1329 1330 0
49 -2948 2947 0
49 -2949 2948 0
49 -2950 2949 0
49 2947 1327 0
49 -1327 -2947 0
49 -2947 2948 1328 0
49 2947 -1328 0
49 -1328 -2948 0
49 -2948 2949 1329 0
49 2948 -1329 0
49 -1329 -2949 0
49 -2949 2950 1330 0
49 2949 -1330 0
49 -1330 -2950 0
49 -2950 2946 0
49 -2946 2950 0
49 1331 1332 0
49 -1331 -1332 0
49 1333 1334 0
49 -1333 -1334 0
49 1335 1336 1337 0
49 -2953 2952 0
49 -2954 2953 0
49 2952 1335 0
49 -1335 -2952 0
49 -2952 2953 1336 0
49 2952 -1336 0
49 -1336 -2953 0
49 -2953 2954 1337 0
49 2953 -1337 0
49 -1337 -2954 0
49 -2954 2951 0
49 -2951 2954 0
49 1338 1339 1340 0
49 -2957 2956 0
49 -2958 2957 0
49 2956 1338 0
49 -1338 -2956 0
49 -2956 2957 1339 0
49 2956 -1339 0
49 -1339 -2957 0
49 -2957 2958 1340 0
49 2957 -1340 0
49 -1340 -2958 0
49 -2958 2955 0
49 -2955 2958 0
49 1341 1342 1343 0
49 -2961 2960 0
49 -2962 2961 0
49 2960 1341 0
49 -1341 -2960 0
49 -2960 2961 1342 0
49 2960 -1342 0
49 -1342 -2961 0
49 -2961 2962 1343 0
49 2961 -1343 0
49 -1343 -2962 0
49 -2962 2959 0
49 -2959 2962 0
49 1344 1345 1346 0
49 -2965 2964 0
49 -2966 2965 0
49 2964 1344 0
49 -1344 -2964 0
49 -2964 2965 1345 0
49 2964 -1345 0
49 -1345 -2965 0
49 -2965 2966 1346 0
49 2965 -1346 0
49 -1346 -2966 0
49 -2966 2963 0
49 -2963 2966 0
49 1347 1348 1349 1350 1351 0
49 -2969 2968 0
49 -2970 2969 0
49 -2971 2970 0
49 -2972 2971 0
49 2968 1347 0
49 -1347 -2968 0
49 -2968 2969 1348 0
49 2968 -1348 0
49 -1348 -2969 0
49 -2969 2970 1349 0
49 2969 -1349 0
49 -1349 -2970 0
49 -2970 2971 1350 0
49 2970 -1350 0
49 -1350 -2971 0
49 -2971 2972 1351 0
49 2971 -1351 0
49 -1351 -2972 0
49 -2972 2967 0
49 -2967 2972 0
49 1352 1353 1354 1355 1356 0
49 -2975 2974 0
49 -2976 2975 0
49 -2977 2976 0
49 -2978 2977 0
49 2974 1352 0
49 -1352 -2974 0
49 -2974 2975 1353 0
49 2974 -1353 0
49 -1353 -2975 0
49 -2975 2976 1354 0
49 2975 -1354 0
49 -1354 -2976 0
49 -2976 2977 1355 0
49 2976 -1355 0
49 -1355 -2977 0
49 -2977 2978 1356 0
49 2977 -1356 0
49 -1356 -2978 0
49 -2978 2973 0
49 -2973 2978 0
49 1357 1358 0
49 -1357 -1358 0
49 1359 1360 0
49 -1359 -1360 0
49 1361 1362 1363 1364 0
49 -2981 2980 0
49 -2982 2981 0
49 -2983 2982 0
49 2980 1361 0
49 -1361 -2980 0
49 -2980 2981 1362 0
49 2980 -1362 0
49 -1362 -2981 0
49 -2981 2982 1363 0
49 2981 -1363 0
49 -1363 -2982 0
49 -2982 2983 1364 0
49 2982 -1364 0
49 -1364 -2983 0
49 -2983 2979 0
49 -2979 2983 0
49 1365 1366 1367 1368 0
49 -2986 2985 0
49 -2987 2986 0
49 -2988 2987 0
49 2985 1365 0
49 -1365 -2985 0
49 -2985 2986 1366 0
49 2985 -1366 0
49 -1366 -2986 0
49 -2986 2987 1367 0
49 2986 -1367 0
49 -1367 -2987 0
49 -2987 2988 1368 0
49 2987 -1368 0
49 -1368 -2988 0
49 -2988 2984 0
49 -2984 2988 0
49 1369 1370 1371 1372 0
49 -2991 2990 0
49 -2992 2991 0
49 -2993 2992 0
49 2990 1369 0
49 -1369 -2990 0
49 -2990 2991 1370 0
49 2990 -1370 0
49 -1370 -2991 0
49 -2991 2992 1371 0
49 2991 -1371 0
49 -1371 -2992 0
49 -2992 2993 1372 0
49 2992 -1372 0
49 -1372 -2993 0
49 -2993 2989 0
49 -2989 2993 0
49 1373 1374 1375 1376 0
49 -2996 2995 0
49 -2997 2996 0
49 -2998 2997 0
49 2995 1373 0
49 -1373 -2995 0
49 -2995 2996 1374 0
49 2995 -1374 0
49 -1374 -2996 0
49 -2996 2997 1375 0
49 2996 -1375 0
49 -1375 -2997 0
49 -2997 2998 1376 0
49 2997 -1376 0
49 -1376 -2998 0
49 -2998 2994 0
49 -2994 2998 0
49 1377 1378 0
49 -1377 -1378 0
49 1379 1380 0
49 -1379 -1380 0
49 1381 1382 0
49 -1381 -1382 0
49 1383 1384 0
49 -1383 -1384 0
49 1385 1386 0
49 -1385 -1386 0
49 1387 1388 0
49 -1387 -1388 0
49 1389 0
49 1390 0
49 1391 1392 0
49 -1391 -1392 0
49 1393 1394 0
49 -1393 -1394 0
49 1395 0
49 1396 0
49 1397 1398 1399 0
49 -3001 3000 0
49 -3002 3001 0
49 3000 1397 0
49 -1397 -3000 0
49 -3000 3001 1398 0
49 3000 -1398 0
49 -1398 -3001 0
49 -3001 3002 1399 0
49 3001 -1399 0
49 -1399 -3002 0
49 -3002 2999 0
49 -2999 3002 0
49 1400 1401 1402 0
49 -3005 3004 0
49 -3006 3005 0
49 3004 1400 0
49 -1400 -3004 0
49 -3004 3005 1401 0
49 3004 -1401 0
49 -1401 -3005 0
49 -3005 3006 1402 0
49 3005 -1402 0
49 -1402 -3006 0
49 -3006 3003 0
49 -3003 3006 0
49 1403 1404 0
49 -1403 -1404 0
49 1405 1406 0
49 -1405 -1406 0
49 1407 1408 0
49 -1407 -1408 0
49 1409 1410 0
49 -1409 -1410 0
49 1411 0
49 1412 0
49 1413 1414 1415 0
49 -3009 3008 0
49 -3010 3009 0
49 3008 1413 0
49 -1413 -3008 0
49 -3008 3009 1414 0
49 3008 -1414 0
49 -1414 -3009 0
49 -3009 3010 1415 0
49 3009 -1415 0
49 -1415 -3010 0
49 -3010 3007 0
49 -3007 3010 0
49 1416 1417 1418 0
49 -3013 3012 0
49 -3014 3013 0
49 3012 1416 0
49 -1416 -3012 0
49 -3012 3013 1417 0
49 3012 -1417 0
49 -1417 -3013 0
49 -3013 3014 1418 0
49 3013 -1418 0
49 -1418 -3014 0
49 -3014 3011 0
49 -3011 3014 0
49 1419 1420 1421 1422 1423 0
49 -3017 3016 0
49 -3018 3017 0
49 -3019 3018 0
49 -3020 3019 0
49 3016 1419 0
49 -1419 -3016 0
49 -3016 3017 1420 0
49 3016 -1420 0
49 -1420 -3017 0
49 -3017 3018 1421 0
49 3017 -1421 0
49 -1421 -3018 0
49 -3018 3019 1422 0
49 3018 -1422 0
49 -1422 -3019 0
49 -3019 3020 1423 0
49 3019 -1423 0
49 -1423 -3020 0
49 -3020 3015 0
49 -3015 3020 0
49 1424 1425 1426 1427 1428 0
49 -3023 3022 0
49 -3024 3023 0
49 -3025 3024 0
49 -3026 3025 0
49 3022 1424 0
49 -1424 -3022 0
49 -3022 3023 1425 0
49 3022 -1425 0
49 -1425 -3023 0
49 -3023 3024 1426 0
49 3023 -1426 0
49 -1426 -3024 0
49 -3024 3025 1427 0
49 3024 -1427 0
49 -1427 -3025 0
49 -3025 3026 1428 0
49 3025 -1428 0
49 -1428 -3026 0
49 -3026 3021 0
49 -3021 3026 0
49 1429 1430 1431 1432 1433 1434 1435 1436 0
49 -3029 3028 0
49 -3030 3029 0
49 -3031 3030 0
49 -3032 3031 0
49 -3033 3032 0
49 -3034 3033 0
49 -3035 3034 0
49 3028 1429 0
49 -1429 -3028 0
49 -3028 3029 1430 0
49 3028 -1430 0
49 -1430 -3029 0
49 -3029 3030 1431 0
49 3029 -1431 0
49 -1431 -3030 0
49 -3030 3031 1432 0
49 3030 -1432 0
49 -1432 -3031 0
49 -3031 3032 1433 0
49 3031 -1433 0
49 -1433 -3032 0
49 -3032 3033 1434 0
49 3032 -1434 0
49 -1434 -3033 0
49 -3033 3034 1435 0
49 3033 -1435 0
49 -1435 -3034 0
49 -3034 3035 1436 0
49 3034 -1436 0
49 -1436 -3035 0
49 -3035 3027 0
49 -3027 3035 0
49 1437 1438 1439 1440 1441 1442 1443 1444 0
49 -3038 3037 0
49 -3039 3038 0
49 -3040 3039 0
49 -3041 3040 0
49 -3042 3041 0
49 -3043 3042 0
49 -3044 3043 0
49 3037 1437 0
49 -1437 -3037 0
49 -3037 3038 1438 0
49 3037 -1438 0
49 -1438 -3038 0
49 -3038 3039 1439 0
49 3038 -1439 0
49 -1439 -3039 0
49 -3039 3040 1440 0
49 3039 -1440 0
49 -1440 -3040 0
49 -3040 3041 1441 0
49 3040 -1441 0
49 -1441 -3041 0
49 -3041 3042 1442 0
49 3041 -1442 0
49 -1442 -3042 0
49 -3042 3043 1443 0
49 3042 -1443 0
49 -1443 -3043 0
49 -3043 3044 1444 0
49 3043 -1444 0
49 -1444 -3044 0
49 -3044 3036 0
49 -3036 3044 0
49 1445 1446 1447 1448 0
49 -3047 3046 0
49 -3048 3047 0
49 -3049 3048 0
49 3046 1445 0
49 -1445 -3046 0
49 -3046 3047 1446 0
49 3046 -1446 0
49 -1446 -3047 0
49 -3047 3048 1447 0
49 3047 -1447 0
49 -1447 -3048 0
49 -3048 3049 1448 0
49 3048 -1448 0
49 -1448 -3049 0
49 -3049 3045 0
49 -3045 3049 0
49 1449 1450 1451 1452 0
49 -3052 3051 0
49 -3053 3052 0
49 -3054 3053 0
49 3051 1449 0
49 -1449 -3051 0
49 -3051 3052 1450 0
49 3051 -1450 0
49 -1450 -3052 0
49 -3052 3053 1451 0
49 3052 -1451 0
49 -1451 -3053 0
49 -3053 3054 1452 0
49 3053 -1452 0
49 -1452 -3054 0
49 -3054 3050 0
49 -3050 3054 0
49 1453 1454 1455 1456 0
49 -3057 3056 0
49 -3058 3057 0
49 -3059 3058 0
49 3056 1453 0
49 -1453 -3056 0
49 -3056 3057 1454 0
49 3056 -1454 0
49 -1454 -3057 0
49 -3057 3058 1455 0
49 3057 -1455 0
49 -1455 -3058 0
49 -3058 3059 1456 0
49 3058 -1456 0
49 -1456 -3059 0
49 -3059 3055 0
49 -3055 3059 0
49 1457 1458 1459 1460 0
49 -3062 3061 0
49 -3063 3062 0
49 -3064 3063 0
49 3061 1457 0
49 -1457 -3061 0
49 -3061 3062 1458 0
49 3061 -1458 0
49 -1458 -3062 0
49 -3062 3063 1459 0
49 3062 -1459 0
49 -1459 -3063 0
49 -3063 3064 1460 0
49 3063 -1460 0
49 -1460 -3064 0
49 -3064 3060 0
49 -3060 3064 0
49 1461 1462 1463 1464 0
49 -3067 3066 0
49 -3068 3067 0
49 -3069 3068 0
49 3066 1461 0
49 -1461 -3066 0
49 -3066 3067 1462 0
49 3066 -1462 0
49 -1462 -3067 0
49 -3067 3068 1463 0
49 3067 -1463 0
49 -1463 -3068 0
49 -3068 3069 1464 0
49 3068 -1464 0
49 -1464 -3069 0
49 -3069 3065 0
49 -3065 3069 0
49 1465 1466 1467 1468 0
49 -3072 3071 0
49 -3073 3072 0
49 -3074 3073 0
49 3071 1465 0
49 -1465 -3071 0
49 -3071 3072 1466 0
49 3071 -1466 0
49 -1466 -3072 0
49 -3072 3073 1467 0
49 3072 -1467 0
49 -1467 -3073 0
49 -3073 3074 1468 0
49 3073 -1468 0
49 -1468 -3074 0
49 -3074 3070 0
49 -3070 3074 0
49 1469 1470 0
49 -1469 -1470 0
49 1471 1472 0
49 -1471 -1472 0
49 1473 1474 0
49 -1473 -1474 0
49 1475 1476 0
49 -1475 -1476 0
49 1477 1478 1479 0
49 -3077 3076 0
49 -3078 3077 0
49 3076 1477 0
49 -1477 -3076 0
49 -3076 3077 1478 0
49 3076 -1478 0
49 -1478 -3077 0
49 -3077 3078 1479 0
49 3077 -1479 0
49 -1479 -3078 0
49 -3078 3075 0
49 -3075 3078 0
49 1480 1481 1482 0
49 -3081 3080 0
49 -3082 3081 0
49 3080 1480 0
49 -1480 -3080 0
49 -3080 3081 1481 0
49 3080 -1481 0
49 -1481 -3081 0
49 -3081 3082 1482 0
49 3081 -1482 0
49 -1482 -3082 0
49 -3082 3079 0
49 -3079 3082 0
49 1483 1484 1485 0
49 -3085 3084 0
49 -3086 3085 0
49 3084 1483 0
49 -1483 -3084 0
49 -3084 3085 1484 0
49 3084 -1484 0
49 -1484 -3085 0
49 -3085 3086 1485 0
49 3085 -1485 0
49 -1485 -3086 0
49 -3086 3083 0
49 -3083 3086 0
49 1486 1487 1488 0
49 -3089 3088 0
49 -3090 3089 0
49 3088 1486 0
49 -1486 -3088 0
49 -3088 3089 1487 0
49 3088 -1487 0
49 -1487 -3089 0
49 -3089 3090 1488 0
49 3089 -1488 0
49 -1488 -3090 0
49 -3090 3087 0
49 -3087 3090 0
49 1489 1490 1491 0
49 -3093 3092 0
49 -3094 3093 0
49 3092 1489 0
49 -1489 -3092 0
49 -3092 3093 1490 0
49 3092 -1490 0
49 -1490 -3093 0
49 -3093 3094 1491 0
49 3093 -1491 0
49 -1491 -3094 0
49 -3094 3091 0
49 -3091 3094 0
49 1492 1493 1494 0
49 -3097 3096 0
49 -3098 3097 0
49 3096 1492 0
49 -1492 -3096 0
49 -3096 3097 1493 0
49 3096 -1493 0
49 -1493 -3097 0
49 -3097 3098 1494 0
49 3097 -1494 0
49 -1494 -3098 0
49 -3098 3095 0
49 -3095 3098 0
49 1495 1496 1497 0
49 -3101 3100 0
49 -3102 3101 0
49 3100 1495 0
49 -1495 -3100 0
49 -3100 3101 1496 0
49 3100 -1496 0
49 -1496 -3101 0
49 -3101 3102 1497 0
49 3101 -1497 0
49 -1497 -3102 0
49 -3102 3099 0
49 -3099 3102 0
49 1498 1499 1500 0
49 -3105 3104 0
49 -3106 3105 0
49 3104 1498 0
49 -1498 -3104 0
49 -3104 3105 1499 0
49 3104 -1499 0
49 -1499 -3105 0
49 -3105 3106 1500 0
49 3105 -1500 0
49 -1500 -3106 0
49 -3106 3103 0
49 -3103 3106 0
49 1501 1502 1503 1504 1505 1506 0
49 -3109 3108 0
49 -3110 3109 0
49 -3111 3110 0
49 -3112 3111 0
49 -3113 3112 0
49 3108 1501 0
49 -1501 -3108 0
49 -3108 3109 1502 0
49 3108 -1502 0
49 -1502 -3109 0
49 -3109 3110 1503 0
49 3109 -1503 0
49 -1503 -3110 0
49 -3110 3111 1504 0
49 3110 -1504 0
49 -1504 -3111 0
49 -3111 3112 1505 0
49 3111 -1505 0
49 -1505 -3112 0
49 -3112 3113 1506 0
49 3112 -1506 0
49 -1506 -3113 0
49 -3113 3107 0
49 -3107 3113 0
49 1507 1508 1509 1510 1511 1512 0
49 -3116 3115 0
49 -3117 3116 0
49 -3118 3117 0
49 -3119 3118 0
49 -3120 3119 0
49 3115 1507 0
49 -1507 -3115 0
49 -3115 3116 1508 0
49 3115 -1508 0
49 -1508 -3116 0
49 -3116 3117 1509 0
49 3116 -1509 0
49 -1509 -3117 0
49 -3117 3118 1510 0
49 3117 -1510 0
49 -1510 -3118 0
49 -3118 3119 1511 0
49 3118 -1511 0
49 -1511 -3119 0
49 -3119 3120 1512 0
49 3119 -1512 0
49 -1512 -3120 0
49 -3120 3114 0
49 -3114 3120 0
49 1513 0
49 1514 0
49 1515 1516 1517 1518 1519 1520 0
49 -3123 3122 0
49 -3124 3123 0
49 -3125 3124 0
49 -3126 3125 0
49 -3127 3126 0
49 3122 1515 0
49 -1515 -3122 0
49 -3122 3123 1516 0
49 3122 -1516 0
49 -1516 -3123 0
49 -3123 3124 1517 0
49 3123 -1517 0
49 -1517 -3124 0
49 -3124 3125 1518 0
49 3124 -1518 0
49 -1518 -3125 0
49 -3125 3126 1519 0
49 3125 -1519 0
49 -1519 -3126 0
49 -3126 3127 1520 0
49 3126 -1520 0
49 -1520 -3127 0
49 -3127 3121 0
49 -3121 3127 0
49 1521 1522 1523 1524 1525 1526 0
49 -3130 3129 0
49 -3131 3130 0
49 -3132 3131 0
49 -3133 3132 0
49 -3134 3133 0
49 3129 1521 0
49 -1521 -3129 0
49 -3129 3130 1522 0
49 3129 -1522 0
49 -1522 -3130 0
49 -3130 3131 1523 0
49 3130 -1523 0
49 -1523 -3131 0
49 -3131 3132 1524 0
49 3131 -1524 0
49 -1524 -3132 0
49 -3132 3133 1525 0
49 3132 -1525 0
49 -1525 -3133 0
49 -3133 3134 1526 0
49 3133 -1526 0
49 -1526 -3134 0
49 -3134 3128 0
49 -3128 3134 0
49 1527 1528 0
49 -1527 -1528 0
49 1529 1530 0
49 -1529 -1530 0
49 1531 1532 0
49 -1531 -1532 0
49 1533 1534 0
49 -1533 -1534 0
49 1535 1536 1537 1538 0
49 -3137 3136 0
49 -3138 3137 0
49 -3139 3138 0
49 3136 1535 0
49 -1535 -3136 0
49 -3136 3137 1536 0
49 3136 -1536 0
49 -1536 -3137 0
49 -3137 3138 1537 0
49 3137 -1537 0
49 -1537 -3138 0
49 -3138 3139 1538 0
49 3138 -1538 0
49 -1538 -3139 0
49 -3139 3135 0
49 -3135 3139 0
49 1539 1540 1541 1542 0
49 -3142 3141 0
49 -3143 3142 0
49 -3144 3143 0
49 3141 1539 0
49 -1539 -3141 0
49 -3141 3142 1540 0
49 3141 -1540 0
49 -1540 -3142 0
49 -3142 3143 1541 0
49 3142 -1541 0
49 -1541 -3143 0
49 -3143 3144 1542 0
49 3143 -1542 0
49 -1542 -3144 0
49 -3144 3140 0
49 -3140 3144 0
49 1543 1544 1545 1546 1547 0
49 -3147 3146 0
49 -3148 3147 0
49 -3149 3148 0
49 -3150 3149 0
49 3146 1543 0
49 -1543 -3146 0
49 -3146 3147 1544 0
49 3146 -1544 0
49 -1544 -3147 0
49 -3147 3148 1545 0
49 3147 -1545 0
49 -1545 -3148 0
49 -3148 3149 1546 0
49 3148 -1546 0
49 -1546 -3149 0
49 -3149 3150 1547 0
49 3149 -1547 0
49 -1547 -3150 0
49 -3150 3145 0
49 -3145 3150 0
49 1548 1549 1550 1551 1552 0
49 -3153 3152 0
49 -3154 3153 0
49 -3155 3154 0
49 -3156 3155 0
49 3152 1548 0
49 -1548 -3152 0
49 -3152 3153 1549 0
49 3152 -1549 0
49 -1549 -3153 0
49 -3153 3154 1550 0
49 3153 -1550 0
49 -1550 -3154 0
49 -3154 3155 1551 0
49 3154 -1551 0
49 -1551 -3155 0
49 -3155 3156 1552 0
49 3155 -1552 0
49 -1552 -3156 0
49 -3156 3151 0
49 -3151 3156 0
49 1553 0
49 1554 0
49 1555 0
49 1556 0
49 1557 0
49 1558 0
49 1559 1560 1561 1562 1563 1564 1565 1566 0
49 -3159 3158 0
49 -3160 3159 0
49 -3161 3160 0
49 -3162 3161 0
49 -3163 3162 0
49 -3164 3163 0
49 -3165 3164 0
49 3158 1559 0
49 -1559 -3158 0
49 -3158 3159 1560 0
49 3158 -1560 0
49 -1560 -3159 0
49 -3159 3160 1561 0
49 3159 -1561 0
49 -1561 -3160 0
49 -3160 3161 1562 0
49 3160 -1562 0
49 -1562 -3161 0
49 -3161 3162 1563 0
49 3161 -1563 0
49 -1563 -3162 0
49 -3162 3163 1564 0
49 3162 -1564 0
49 -1564 -3163 0
49 -3163 3164 1565 0
49 3163 -1565 0
49 -1565 -3164 0
49 -3164 3165 1566 0
49 3164 -1566 0
49 -1566 -3165 0
49 -3165 3157 0
49 -3157 3165 0
49 1567 1568 1569 1570 1571 1572 1573 1574 0
49 -3168 3167 0
49 -3169 3168 0
49 -3170 3169 0
49 -3171 3170 0
49 -3172 3171 0
49 -3173 3172 0
49 -3174 3173 0
49 3167 1567 0
49 -1567 -3167 0
49 -3167 3168 1568 0
49 3167 -1568 0
49 -1568 -3168 0
49 -3168 3169 1569 0
49 3168 -1569 0
49 -1569 -3169 0
49 -3169 3170 1570 0
49 3169 -1570 0
49 -1570 -3170 0
49 -3170 3171 1571 0
49 3170 -1571 0
49 -1571 -3171 0
49 -3171 3172 1572 0
49 3171 -1572 0
49 -1572 -3172 0
49 -3172 3173 1573 0
49 3172 -1573 0
49 -1573 -3173 0
49 -3173 3174 1574 0
49 3173 -1574 0
49 -1574 -3174 0
49 -3174 3166 0
49 -3166 3174 0
49 1575 1576 1577 0
49 -3177 3176 0
49 -3178 3177 0
49 3176 1575 0
49 -1575 -3176 0
49 -3176 3177 1576 0
49 3176 -1576 0
49 -1576 -3177 0
49 -3177 3178 1577 0
49 3177 -1577 0
49 -1577 -3178 0
49 -3178 3175 0
49 -3175 3178 0
49 1578 1579 1580 0
49 -3181 3180 0
49 -3182 3181 0
49 3180 1578 0
49 -1578 -3180 0
49 -3180 3181 1579 0
49 3180 -1579 0
49 -1579 -3181 0
49 -3181 3182 1580 0
49 3181 -1580 0
49 -1580 -3182 0
49 -3182 3179 0
49 -3179 3182 0
49 1581 1582 1583 1584 1585 1586 1587 1588 0
49 -3185 3184 0
49 -3186 3185 0
49 -3187 3186 0
49 -3188 3187 0
49 -3189 3188 0
49 -3190 3189 0
49 -3191 3190 0
49 3184 1581 0
49 -1581 -3184 0
49 -3184 3185 1582 0
49 3184 -1582 0
49 -1582 -3185 0
49 -3185 3186 1583 0
49 3185 -1583 0
49 -1583 -3186 0
49 -3186 3187 1584 0
49 3186 -1584 0
49 -1584 -3187 0
49 -3187 3188 1585 0
49 3187 -1585 0
49 -1585 -3188 0
49 -3188 3189 1586 0
49 3188 -1586 0
49 -1586 -3189 0
49 -3189 3190 1587 0
49 3189 -1587 0
49 -1587 -3190 0
49 -3190 3191 1588 0
49 3190 -1588 0
49 -1588 -3191 0
49 -3191 3183 0
49 -3183 3191 0
49 1589 1590 1591 1592 1593 1594 1595 1596 0
49 -3194 3193 0
49 -3195 3194 0
49 -3196 3195 0
49 -3197 3196 0
49 -3198 3197 0
49 -3199 3198 0
49 -3200 3199 0
49 3193 1589 0
49 -1589 -3193 0
49 -3193 3194 1590 0
49 3193 -1590 0
49 -1590 -3194 0
49 -3194 3195 1591 0
49 3194 -1591 0
49 -1591 -3195 0
49 -3195 3196 1592 0
49 3195 -1592 0
49 -1592 -3196 0
49 -3196 3197 1593 0
49 3196 -1593 0
49 -1593 -3197 0
49 -3197 3198 1594 0
49 3197 -1594 0
49 -1594 -3198 0
49 -3198 3199 1595 0
49 3198 -1595 0
49 -1595 -3199 0
49 -3199 3200 1596 0
49 3199 -1596 0
49 -1596 -3200 0
49 -3200 3192 0
49 -3192 3200 0
49 1597 1598 1599 1600 1601 0
49 -3203 3202 0
49 -3204 3203 0
49 -3205 3204 0
49 -3206 3205 0
49 3202 1597 0
49 -1597 -3202 0
49 -3202 3203 1598 0
49 3202 -1598 0
49 -1598 -3203 0
49 -3203 3204 1599 0
49 3203 -1599 0
49 -1599 -3204 0
49 -3204 3205 1600 0
49 3204 -1600 0
49 -1600 -3205 0
49 -3205 3206 1601 0
49 3205 -1601 0
49 -1601 -3206 0
49 -3206 3201 0
49 -3201 3206 0
49 1602 1603 1604 1605 1606 0
49 -3209 3208 0
49 -3210 3209 0
49 -3211 3210 0
49 -3212 3211 0
49 3208 1602 0
49 -1602 -3208 0
49 -3208 3209 1603 0
49 3208 -1603 0
49 -1603 -3209 0
49 -3209 3210 1604 0
49 3209 -1604 0
49 -1604 -3210 0
49 -3210 3211 1605 0
49 3210 -1605 0
49 -1605 -3211 0
49 -3211 3212 1606 0
49 3211 -1606 0
49 -1606 -3212 0
49 -3212 3207 0
49 -3207 3212 0
49 1607 1608 1609 1610 1611 1612 0
49 -3215 3214 0
49 -3216 3215 0
49 -3217 3216 0
49 -3218 3217 0
49 -3219 3218 0
49 3214 1607 0
49 -1607 -3214 0
49 -3214 3215 1608 0
49 3214 -1608 0
49 -1608 -3215 0
49 -3215 3216 1609 0
49 3215 -1609 0
49 -1609 -3216 0
49 -3216 3217 1610 0
49 3216 -1610 0
49 -1610 -3217 0
49 -3217 3218 1611 0
49 3217 -1611 0
49 -1611 -3218 0
49 -3218 3219 1612 0
49 3218 -1612 0
49 -1612 -3219 0
49 -3219 3213 0
49 -3213 3219 0
49 1613 1614 1615 1616 1617 1618 0
49 -3222 3221 0
49 -3223 3222 0
49 -3224 3223 0
49 -3225 3224 0
49 -3226 3225 0
49 3221 1613 0
49 -1613 -3221 0
49 -3221 3222 1614 0
49 3221 -1614 0
49 -1614 -3222 0
49 -3222 3223 1615 0
49 3222 -1615 0
49 -1615 -3223 0
49 -3223 3224 1616 0
49 3223 -1616 0
49 -1616 -3224 0
49 -3224 3225 1617 0
49 3224 -1617 0
49 -1617 -3225 0
49 -3225 3226 1618 0
49 3225 -1618 0
49 -1618 -3226 0
49 -3226 3220 0
49 -3220 3226 0
49 1619 1620 1621 1622 1623 1624 1625 1626 0
49 -3229 3228 0
49 -3230 3229 0
49 -3231 3230 0
49 -3232 3231 0
49 -3233 3232 0
49 -3234 3233 0
49 -3235 3234 0
49 3228 1619 0
49 -1619 -3228 0
49 -3228 3229 1620 0
49 3228 -1620 0
49 -1620 -3229 0
49 -3229 3230 1621 0
49 3229 -1621 0
49 -1621 -3230 0
49 -3230 3231 1622 0
49 3230 -1622 0
49 -1622 -3231 0
49 -3231 3232 1623 0
49 3231 -1623 0
49 -1623 -3232 0
49 -3232 3233 1624 0
49 3232 -1624 0
49 -1624 -3233 0
49 -3233 3234 1625 0
49 3233 -1625 0
49 -1625 -3234 0
49 -3234 3235 1626 0
49 3234 -1626 0
49 -1626 -3235 0
49 -3235 3227 0
49 -3227 3235 0
49 1627 1628 1629 1630 1631 1632 1633 1634 0
49 -3238 3237 0
49 -3239 3238 0
49 -3240 3239 0
49 -3241 3240 0
49 -3242 3241 0
49 -3243 3242 0
49 -3244 3243 0
49 3237 1627 0
49 -1627 -3237 0
49 -3237 3238 1628 0
49 3237 -1628 0
49 -1628 -3238 0
49 -3238 3239 1629 0
49 3238 -1629 0
49 -1629 -3239 0
49 -3239 3240 1630 0
49 3239 -1630 0
49 -1630 -3240 0
49 -3240 3241 1631 0
49 3240 -1631 0
49 -1631 -3241 0
49 -3241 3242 1632 0
49 3241 -1632 0
49 -1632 -3242 0
49 -3242 3243 1633 0
49 3242 -1633 0
49 -1633 -3243 0
49 -3243 3244 1634 0
49 3243 -1634 0
49 -1634 -3244 0
49 -3244 3236 0
49 -3236 3244 0
49 1635 1636 1637 1638 1639 0
49 -3247 3246 0
49 -3248 3247 0
49 -3249 3248 0
49 -3250 3249 0
49 3246 1635 0
49 -1635 -3246 0
49 -3246 3247 1636 0
49 3246 -1636 0
49 -1636 -3247 0
49 -3247 3248 1637 0
49 3247 -1637 0
49 -1637 -3248 0
49 -3248 3249 1638 0
49 3248 -1638 0
49 -1638 -3249 0
49 -3249 3250 1639 0
49 3249 -1639 0
49 -1639 -3250 0
49 -3250 3245 0
49 -3245 3250 0
49 1640 1641 1642 1643 1644 0
49 -3253 3252 0
49 -3254 3253 0
49 -3255 3254 0
49 -3256 3255 0
49 3252 1640 0
49 -1640 -3252 0
49 -3252 3253 1641 0
49 3252 -1641 0
49 -1641 -3253 0
49 -3253 3254 1642 0
49 3253 -1642 0
49 -1642 -3254 0
49 -3254 3255 1643 0
49 3254 -1643 0
49 -1643 -3255 0
49 -3255 3256 1644 0
49 3255 -1644 0
49 -1644 -3256 0
49 -3256 3251 0
49 -3251 3256 0
49 1645 1646 1647 1648 1649 1650 1651 1652 1653 0
49 -3259 3258 0
49 -3260 3259 0
49 -3261 3260 0
49 -3262 3261 0
49 -3263 3262 0
49 -3264 3263 0
49 -3265 3264 0
49 -3266 3265 0
49 3258 1645 0
49 -1645 -3258 0
49 -3258 3259 1646 0
49 3258 -1646 0
49 -1646 -3259 0
49 -3259 3260 1647 0
49 3259 -1647 0
49 -1647 -3260 0
49 -3260 3261 1648 0
49 3260 -1648 0
49 -1648 -3261 0
49 -3261 3262 1649 0
49 3261 -1649 0
49 -1649 -3262 0
49 -3262 3263 1650 0
49 3262 -1650 0
49 -1650 -3263 0
49 -3263 3264 1651 0
49 3263 -1651 0
49 -1651 -3264 0
49 -3264 3265 1652 0
49 3264 -1652 0
49 -1652 -3265 0
49 -3265 3266 1653 0
49 3265 -1653 0
49 -1653 -3266 0
49 -3266 3257 0
49 -3257 3266 0
49 1654 1655 1656 1657 1658 1659 1660 1661 1662 0
49 -3269 3268 0
49 -3270 3269 0
49 -3271 3270 0
49 -3272 3271 0
49 -3273 3272 0
49 -3274 3273 0
49 -3275 3274 0
49 -3276 3275 0
49 3268 1654 0
49 -1654 -3268 0
49 -3268 3269 1655 0
49 3268 -1655 0
49 -1655 -3269 0
49 -3269 3270 1656 0
49 3269 -1656 0
49 -1656 -3270 0
49 -3270 3271 1657 0
49 3270 -1657 0
49 -1657 -3271 0
49 -3271 3272 1658 0
49 3271 -1658 0
49 -1658 -3272 0
49 -3272 3273 1659 0
49 3272 -1659 0
49 -1659 -3273 0
49 -3273 3274 1660 0
49 3273 -1660 0
49 -1660 -3274 0
49 -3274 3275 1661 0
49 3274 -1661 0
49 -1661 -3275 0
49 -3275 3276 1662 0
49 3275 -1662 0
49 -1662 -3276 0
49 -3276 3267 0
49 -3267 3276 0
49 1663 1664 1665 1666 1667 1668 1669 1670 1671 1672 1673 0
49 -3279 3278 0
49 -3280 3279 0
49 -3281 3280 0
49 -3282 3281 0
49 -3283 3282 0
49 -3284 3283 0
49 -3285 3284 0
49 -3286 3285 0
49 -3287 3286 0
49 -3288 3287 0
49 3278 1663 0
49 -1663 -3278 0
49 -3278 3279 1664 0
49 3278 -1664 0
49 -1664 -3279 0
49 -3279 3280 1665 0
49 3279 -1665 0
49 -1665 -3280 0
49 -3280 3281 1666 0
49 3280 -1666 0
49 -1666 -3281 0
49 -3281 3282 1667 0
49 3281 -1667 0
49 -1667 -3282 0
49 -3282 3283 1668 0
49 3282 -1668 0
49 -1668 -3283 0
49 -3283 3284 1669 0
49 3283 -1669 0
49 -1669 -3284 0
49 -3284 3285 1670 0
49 3284 -1670 0
49 -1670 -3285 0
49 -3285 3286 1671 0
49 3285 -1671 0
49 -1671 -3286 0
49 -3286 3287 1672 0
49 3286 -1672 0
49 -1672 -3287 0
49 -3287 3288 1673 0
49 3287 -1673 0
49 -1673 -3288 0
49 -3288 3277 0
49 -3277 3288 0
49 1674 1675 1676 1677 1678 1679 1680 1681 1682 1683 1684 0
49 -3291 3290 0
49 -3292 3291 0
49 -3293 3292 0
49 -3294 3293 0
49 -3295 3294 0
49 -3296 3295 0
49 -3297 3296 0
49 -3298 3297 0
49 -3299 3298 0
49 -3300 3299 0
49 3290 1674 0
49 -1674 -3290 0
49 -3290 3291 1675 0
49 3290 -1675 0
49 -1675 -3291 0
49 -3291 3292 1676 0
49 3291 -1676 0
49 -1676 -3292 0
49 -3292 3293 1677 0
49 3292 -1677 0
49 -1677 -3293 0
49 -3293 3294 1678 0
49 3293 -1678 0
49 -1678 -3294 0
49 -3294 3295 1679 0
49 3294 -1679 0
49 -1679 -3295 0
49 -3295 3296 1680 0
49 3295 -1680 0
49 -1680 -3296 0
49 -3296 3297 1681 0
49 3296 -1681 0
49 -1681 -3297 0
49 -3297 3298 1682 0
49 3297 -1682 0
49 -1682 -3298 0
49 -3298 3299 1683 0
49 3298 -1683 0
49 -1683 -3299 0
49 -3299 3300 1684 0
49 3299 -1684 0
49 -1684 -3300 0
49 -3300 3289 0
49 -3289 3300 0
49 1685 1686 1687 1688 0
49 -3303 3302 0
49 -3304 3303 0
49 -3305 3304 0
49 3302 1685 0
49 -1685 -3302 0
49 -3302 3303 1686 0
49 3302 -1686 0
49 -1686 -3303 0
49 -3303 3304 1687 0
49 3303 -1687 0
49 -1687 -3304 0
49 -3304 3305 1688 0
49 3304 -1688 0
49 -1688 -3305 0
49 -3305 3301 0
49 -3301 3305 0
49 1689 1690 1691 1692 0
49 -3308 3307 0
49 -3309 3308 0
49 -3310 3309 0
49 3307 1689 0
49 -1689 -3307 0
49 -3307 3308 1690 0
49 3307 -1690 0
49 -1690 -3308 0
49 -3308 3309 1691 0
49 3308 -1691 0
49 -1691 -3309 0
49 -3309 3310 1692 0
49 3309 -1692 0
49 -1692 -3310 0
49 -3310 3306 0
49 -3306 3310 0
49 1693 0
49 1694 0
49 1695 1696 1697 0
49 -3313 3312 0
49 -3314 3313 0
49 3312 1695 0
49 -1695 -3312 0
49 -3312 3313 1696 0
49 3312 -1696 0
49 -1696 -3313 0
49 -3313 3314 1697 0
49 3313 -1697 0
49 -1697 -3314 0
49 -3314 3311 0
49 -3311 3314 0
49 1698 1699 1700 0
49 -3317 3316 0
49 -3318 3317 0
49 3316 1698 0
49 -1698 -3316 0
49 -3316 3317 1699 0
49 3316 -1699 0
49 -1699 -3317 0
49 -3317 3318 1700 0
49 3317 -1700 0
49 -1700 -3318 0
49 -3318 3315 0
49 -3315 3318 0
49 1701 1702 1703 1704 0
49 -3321 3320 0
49 -3322 3321 0
49 -3323 3322 0
49 3320 1701 0
49 -1701 -3320 0
49 -3320 3321 1702 0
49 3320 -1702 0
49 -1702 -3321 0
49 -3321 3322 1703 0
49 3321 -1703 0
49 -1703 -3322 0
49 -3322 3323 1704 0
49 3322 -1704 0
49 -1704 -3323 0
49 -3323 3319 0
49 -3319 3323 0
49 1705 1706 1707 1708 0
49 -3326 3325 0
49 -3327 3326 0
49 -3328 3327 0
49 3325 1705 0
49 -1705 -3325 0
49 -3325 3326 1706 0
49 3325 -1706 0
49 -1706 -3326 0
49 -3326 3327 1707 0
49 3326 -1707 0
49 -1707 -3327 0
49 -3327 3328 1708 0
49 3327 -1708 0
49 -1708 -3328 0
49 -3328 3324 0
49 -3324 3328 0
49 1709 1710 1711 0
49 -3331 3330 0
49 -3332 3331 0
49 3330 1709 0
49 -1709 -3330 0
49 -3330 3331 1710 0
49 3330 -1710 0
49 -1710 -3331 0
49 -3331 3332 1711 0
49 3331 -1711 0
49 -1711 -3332 0
49 -3332 3329 0
49 -3329 3332 0
49 1712 1713 1714 0
49 -3335 3334 0
49 -3336 3335 0
49 3334 1712 0
49 -1712 -3334 0
49 -3334 3335 1713 0
49 3334 -1713 0
49 -1713 -3335 0
49 -3335 3336 1714 0
49 3335 -1714 0
49 -1714 -3336 0
49 -3336 3333 0
49 -3333 3336 0
49 1715 1716 1717 1718 1719 0
49 -3339 3338 0
49 -3340 3339 0
49 -3341 3340 0
49 -3342 3341 0
49 3338 1715 0
49 -1715 -3338 0
49 -3338 3339 1716 0
49 3338 -1716 0
49 -1716 -3339 0
49 -3339 3340 1717 0
49 3339 -1717 0
49 -1717 -3340 0
49 -3340 3341 1718 0
49 3340 -1718 0
49 -1718 -3341 0
49 -3341 3342 1719 0
49 3341 -1719 0
49 -1719 -3342 0
49 -3342 3337 0
49 -3337 3342 0
49 1720 1721 1722 1723 1724 0
49 -3345 3344 0
49 -3346 3345 0
49 -3347 3346 0
49 -3348 3347 0
49 3344 1720 0
49 -1720 -3344 0
49 -3344 3345 1721 0
49 3344 -1721 0
49 -1721 -3345 0
49 -3345 3346 1722 0
49 3345 -1722 0
49 -1722 -3346 0
49 -3346 3347 1723 0
49 3346 -1723 0
49 -1723 -3347 0
49 -3347 3348 1724 0
49 3347 -1724 0
49 -1724 -3348 0
49 -3348 3343 0
49 -3343 3348 0
49 1725 0
49 1726 0
49 1727 1728 1729 1730 1731 1732 1733 1734 1735 0
49 -3351 3350 0
49 -3352 3351 0
49 -3353 3352 0
49 -3354 3353 0
49 -3355 3354 0
49 -3356 3355 0
49 -3357 3356 0
49 -3358 3357 0
49 3350 1727 0
49 -1727 -3350 0
49 -3350 3351 1728 0
49 3350 -1728 0
49 -1728 -3351 0
49 -3351 3352 1729 0
49 3351 -1729 0
49 -1729 -3352 0
49 -3352 3353 1730 0
49 3352 -1730 0
49 -1730 -3353 0
49 -3353 3354 1731 0
49 3353 -1731 0
49 -1731 -3354 0
49 -3354 3355 1732 0
49 3354 -1732 0
49 -1732 -3355 0
49 -3355 3356 1733 0
49 3355 -1733 0
49 -1733 -3356 0
49 -3356 3357 1734 0
49 3356 -1734 0
49 -1734 -3357 0
49 -3357 3358 1735 0
49 3357 -1735 0
49 -1735 -3358 0
49 -3358 3349 0
49 -3349 3358 0
49 1736 1737 1738 1739 1740 1741 1742 1743 1744 0
49 -3361 3360 0
49 -3362 3361 0
49 -3363 3362 0
49 -3364 3363 0
49 -3365 3364 0
49 -3366 3365 0
49 -3367 3366 0
49 -3368 3367 0
49 3360 1736 0
49 -1736 -3360 0
49 -3360 3361 1737 0
49 3360 -1737 0
49 -1737 -3361 0
49 -3361 3362 1738 0
49 3361 -1738 0
49 -1738 -3362 0
49 -3362 3363 1739 0
49 3362 -1739 0
49 -1739 -3363 0
49 -3363 3364 1740 0
49 3363 -1740 0
49 -1740 -3364 0
49 -3364 3365 1741 0
49 3364 -1741 0
49 -1741 -3365 0
49 -3365 3366 1742 0
49 3365 -1742 0
49 -1742 -3366 0
49 -3366 3367 1743 0
49 3366 -1743 0
49 -1743 -3367 0
49 -3367 3368 1744 0
49 3367 -1744 0
49 -1744 -3368 0
49 -3368 3359 0
49 -3359 3368 0
49 1745 1746 1747 1748 0
49 -3371 3370 0
49 -3372 3371 0
49 -3373 3372 0
49 3370 1745 0
49 -1745 -3370 0
49 -3370 3371 1746 0
49 3370 -1746 0
49 -1746 -3371 0
49 -3371 3372 1747 0
49 3371 -1747 0
49 -1747 -3372 0
49 -3372 3373 1748 0
49 3372 -1748 0
49 -1748 -3373 0
49 -3373 3369 0
49 -3369 3373 0
49 1749 1750 1751 1752 0
49 -3376 3375 0
49 -3377 3376 0
49 -3378 3377 0
49 3375 1749 0
49 -1749 -3375 0
49 -3375 3376 1750 0
49 3375 -1750 0
49 -1750 -3376 0
49 -3376 3377 1751 0
49 3376 -1751 0
49 -1751 -3377 0
49 -3377 3378 1752 0
49 3377 -1752 0
49 -1752 -3378 0
49 -3378 3374 0
49 -3374 3378 0
49 1753 1754 1755 0
49 -3381 3380 0
49 -3382 3381 0
49 3380 1753 0
49 -1753 -3380 0
49 -3380 3381 1754 0
49 3380 -1754 0
49 -1754 -3381 0
49 -3381 3382 1755 0
49 3381 -1755 0
49 -1755 -3382 0
49 -3382 3379 0
49 -3379 3382 0
49 1756 1757 1758 0
49 -3385 3384 0
49 -3386 3385 0
49 3384 1756 0
49 -1756 -3384 0
49 -3384 3385 1757 0
49 3384 -1757 0
49 -1757 -3385 0
49 -3385 3386 1758 0
49 3385 -1758 0
49 -1758 -3386 0
49 -3386 3383 0
49 -3383 3386 0
49 1759 1760 1761 1762 1763 1764 1765 1766 0
49 -3389 3388 0
49 -3390 3389 0
49 -3391 3390 0
49 -3392 3391 0
49 -3393 3392 0
49 -3394 3393 0
49 -3395 3394 0
49 3388 1759 0
49 -1759 -3388 0
49 -3388 3389 1760 0
49 3388 -1760 0
49 -1760 -3389 0
49 -3389 3390 1761 0
49 3389 -1761 0
49 -1761 -3390 0
49 -3390 3391 1762 0
49 3390 -1762 0
49 -1762 -3391 0
49 -3391 3392 1763 0
49 3391 -1763 0
49 -1763 -3392 0
49 -3392 3393 1764 0
49 3392 -1764 0
49 -1764 -3393 0
49 -3393 3394 1765 0
49 3393 -1765 0
49 -1765 -3394 0
49 -3394 3395 1766 0
49 3394 -1766 0
49 -1766 -3395 0
49 -3395 3387 0
49 -3387 3395 0
49 1767 1768 1769 1770 1771 1772 1773 1774 0
49 -3398 3397 0
49 -3399 3398 0
49 -3400 3399 0
49 -3401 3400 0
49 -3402 3401 0
49 -3403 3402 0
49 -3404 3403 0
49 3397 1767 0
49 -1767 -3397 0
49 -3397 3398 1768 0
49 3397 -1768 0
49 -1768 -3398 0
49 -3398 3399 1769 0
49 3398 -1769 0
49 -1769 -3399 0
49 -3399 3400 1770 0
49 3399 -1770 0
49 -1770 -3400 0
49 -3400 3401 1771 0
49 3400 -1771 0
49 -1771 -3401 0
49 -3401 3402 1772 0
49 3401 -1772 0
49 -1772 -3402 0
49 -3402 3403 1773 0
49 3402 -1773 0
49 -1773 -3403 0
49 -3403 3404 1774 0
49 3403 -1774 0
49 -1774 -3404 0
49 -3404 3396 0
49 -3396 3404 0
49 1775 1776 1777 1778 1779 1780 1781 1782 0
49 -3407 3406 0
49 -3408 3407 0
49 -3409 3408 0
49 -3410 3409 0
49 -3411 3410 0
49 -3412 3411 0
49 -3413 3412 0
49 3406 1775 0
49 -1775 -3406 0
49 -3406 3407 1776 0
49 3406 -1776 0
49 -1776 -3407 0
49 -3407 3408 1777 0
49 3407 -1777 0
49 -1777 -3408 0
49 -3408 3409 1778 0
49 3408 -1778 0
49 -1778 -3409 0
49 -3409 3410 1779 0
49 3409 -1779 0
49 -1779 -3410 0
49 -3410 3411 1780 0
49 3410 -1780 0
49 -1780 -3411 0
49 -3411 3412 1781 0
49 3411 -1781 0
49 -1781 -3412 0
49 -3412 3413 1782 0
49 3412 -1782 0
49 -1782 -3413 0
49 -3413 3405 0
49 -3405 3413 0
49 1783 1784 1785 1786 1787 1788 1789 1790 0
49 -3416 3415 0
49 -3417 3416 0
49 -3418 3417 0
49 -3419 3418 0
49 -3420 3419 0
49 -3421 3420 0
49 -3422 3421 0
49 3415 1783 0
49 -1783 -3415 0
49 -3415 3416 1784 0
49 3415 -1784 0
49 -1784 -3416 0
49 -3416 3417 1785 0
49 3416 -1785 0
49 -1785 -3417 0
49 -3417 3418 1786 0
49 3417 -1786 0
49 -1786 -3418 0
49 -3418 3419 1787 0
49 3418 -1787 0
49 -1787 -3419 0
49 -3419 3420 1788 0
49 3419 -1788 0
49 -1788 -3420 0
49 -3420 3421 1789 0
49 3420 -1789 0
49 -1789 -3421 0
49 -3421 3422 1790 0
49 3421 -1790 0
49 -1790 -3422 0
49 -3422 3414 0
49 -3414 3422 0
49 1791 1792 0
49 -1791 -1792 0
49 1793 1794 0
49 -1793 -1794 0
49 1795 1796 1797 1798 0
49 -3425 3424 0
49 -3426 3425 0
49 -3427 3426 0
49 3424 1795 0
49 -1795 -3424 0
49 -3424 3425 1796 0
49 3424 -1796 0
49 -1796 -3425 0
49 -3425 3426 1797 0
49 3425 -1797 0
49 -1797 -3426 0
49 -3426 3427 1798 0
49 3426 -1798 0
49 -1798 -3427 0
49 -3427 3423 0
49 -3423 3427 0
49 1799 1800 1801 1802 0
49 -3430 3429 0
49 -3431 3430 0
49 -3432 3431 0
49 3429 1799 0
49 -1799 -3429 0
49 -3429 3430 1800 0
49 3429 -1800 0
49 -1800 -3430 0
49 -3430 3431 1801 0
49 3430 -1801 0
49 -1801 -3431 0
49 -3431 3432 1802 0
49 3431 -1802 0
49 -1802 -3432 0
49 -3432 3428 0
49 -3428 3432 0
49 1803 1804 1805 1806 1807 1808 1809 1810 0
49 -3435 3434 0
49 -3436 3435 0
49 -3437 3436 0
49 -3438 3437 0
49 -3439 3438 0
49 -3440 3439 0
49 -3441 3440 0
49 3434 1803 0
49 -1803 -3434 0
49 -3434 3435 1804 0
49 3434 -1804 0
49 -1804 -3435 0
49 -3435 3436 1805 0
49 3435 -1805 0
49 -1805 -3436 0
49 -3436 3437 1806 0
49 3436 -1806 0
49 -1806 -3437 0
49 -3437 3438 1807 0
49 3437 -1807 0
49 -1807 -3438 0
49 -3438 3439 1808 0
49 3438 -1808 0
49 -1808 -3439 0
49 -3439 3440 1809 0
49 3439 -1809 0
49 -1809 -3440 0
49 -3440 3441 1810 0
49 3440 -1810 0
49 -1810 -3441 0
49 -3441 3433 0
49 -3433 3441 0
49 1811 1812 1813 1814 1815 1816 1817 1818 0
49 -3444 3443 0
49 -3445 3444 0
49 -3446 3445 0
49 -3447 3446 0
49 -3448 3447 0
49 -3449 3448 0
49 -3450 3449 0
49 3443 1811 0
49 -1811 -3443 0
49 -3443 3444 1812 0
49 3443 -1812 0
49 -1812 -3444 0
49 -3444 3445 1813 0
49 3444 -1813 0
49 -1813 -3445 0
49 -3445 3446 1814 0
49 3445 -1814 0
49 -1814 -3446 0
49 -3446 3447 1815 0
49 3446 -1815 0
49 -1815 -3447 0
49 -3447 3448 1816 0
49 3447 -1816 0
49 -1816 -3448 0
49 -3448 3449 1817 0
49 3448 -1817 0
49 -1817 -3449 0
49 -3449 3450 1818 0
49 3449 -1818 0
49 -1818 -3450 0
49 -3450 3442 0
49 -3442 3450 0
49 1819 1820 1821 1822 1823 1824 1825 1826 0
49 -3453 3452 0
49 -3454 3453 0
49 -3455 3454 0
49 -3456 3455 0
49 -3457 3456 0
49 -3458 3457 0
49 -3459 3458 0
49 3452 1819 0
49 -1819 -3452 0
49 -3452 3453 1820 0
49 3452 -1820 0
49 -1820 -3453 0
49 -3453 3454 1821 0
49 3453 -1821 0
49 -1821 -3454 0
49 -3454 3455 1822 0
49 3454 -1822 0
49 -1822 -3455 0
49 -3455 3456 1823 0
49 3455 -1823 0
49 -1823 -3456 0
49 -3456 3457 1824 0
49 3456 -1824 0
49 -1824 -3457 0
49 -3457 3458 1825 0
49 3457 -1825 0
49 -1825 -3458 0
49 -3458 3459 1826 0
49 3458 -1826 0
49 -1826 -3459 0
49 -3459 3451 0
49 -3451 3459 0
49 1827 1828 1829 1830 1831 1832 1833 1834 0
49 -3462 3461 0
49 -3463 3462 0
49 -3464 3463 0
49 -3465 3464 0
49 -3466 3465 0
49 -3467 3466 0
49 -3468 3467 0
49 3461 1827 0
49 -1827 -3461 0
49 -3461 3462 1828 0
49 3461 -1828 0
49 -1828 -3462 0
49 -3462 3463 1829 0
49 3462 -1829 0
49 -1829 -3463 0
49 -3463 3464 1830 0
49 3463 -1830 0
49 -1830 -3464 0
49 -3464 3465 1831 0
49 3464 -1831 0
49 -1831 -3465 0
49 -3465 3466 1832 0
49 3465 -1832 0
49 -1832 -3466 0
49 -3466 3467 1833 0
49 3466 -1833 0
49 -1833 -3467 0
49 -3467 3468 1834 0
49 3467 -1834 0
49 -1834 -3468 0
49 -3468 3460 0
49 -3460 3468 0
49 1835 1836 1837 1838 1839 1840 1841 1842 0
49 -3471 3470 0
49 -3472 3471 0
49 -3473 3472 0
49 -3474 3473 0
49 -3475 3474 0
49 -3476 3475 0
49 -3477 3476 0
49 3470 1835 0
49 -1835 -3470 0
49 -3470 3471 1836 0
49 3470 -1836 0
49 -1836 -3471 0
49 -3471 3472 1837 0
49 3471 -1837 0
49 -1837 -3472 0
49 -3472 3473 1838 0
49 3472 -1838 0
49 -1838 -3473 0
49 -3473 3474 1839 0
49 3473 -1839 0
49 -1839 -3474 0
49 -3474 3475 1840 0
49 3474 -1840 0
49 -1840 -3475 0
49 -3475 3476 1841 0
49 3475 -1841 0
49 -1841 -3476 0
49 -3476 3477 1842 0
49 3476 -1842 0
49 -1842 -3477 0
49 -3477 3469 0
49 -3469 3477 0
49 1843 1844 1845 1846 1847 1848 1849 1850 0
49 -3480 3479 0
49 -3481 3480 0
49 -3482 3481 0
49 -3483 3482 0
49 -3484 3483 0
49 -3485 3484 0
49 -3486 3485 0
49 3479 1843 0
49 -1843 -3479 0
49 -3479 3480 1844 0
49 3479 -1844 0
49 -1844 -3480 0
49 -3480 3481 1845 0
49 3480 -1845 0
49 -1845 -3481 0
49 -3481 3482 1846 0
49 3481 -1846 0
49 -1846 -3482 0
49 -3482 3483 1847 0
49 3482 -1847 0
49 -1847 -3483 0
49 -3483 3484 1848 0
49 3483 -1848 0
49 -1848 -3484 0
49 -3484 3485 1849 0
49 3484 -1849 0
49 -1849 -3485 0
49 -3485 3486 1850 0
49 3485 -1850 0
49 -1850 -3486 0
49 -3486 3478 0
49 -3478 3486 0
49 1851 1852 1853 1854 1855 1856 1857 1858 1859 1860 0
49 -3489 3488 0
49 -3490 3489 0
49 -3491 3490 0
49 -3492 3491 0
49 -3493 3492 0
49 -3494 3493 0
49 -3495 3494 0
49 -3496 3495 0
49 -3497 3496 0
49 3488 1851 0
49 -1851 -3488 0
49 -3488 3489 1852 0
49 3488 -1852 0
49 -1852 -3489 0
49 -3489 3490 1853 0
49 3489 -1853 0
49 -1853 -3490 0
49 -3490 3491 1854 0
49 3490 -1854 0
49 -1854 -3491 0
49 -3491 3492 1855 0
49 3491 -1855 0
49 -1855 -3492 0
49 -3492 3493 1856 0
49 3492 -1856 0
49 -1856 -3493 0
49 -3493 3494 1857 0
49 3493 -1857 0
49 -1857 -3494 0
49 -3494 3495 1858 0
49 3494 -1858 0
49 -1858 -3495 0
49 -3495 3496 1859 0
49 3495 -1859 0
49 -1859 -3496 0
49 -3496 3497 1860 0
49 3496 -1860 0
49 -1860 -3497 0
49 -3497 3487 0
49 -3487 3497 0
49 1861 1862 1863 1864 1865 1866 1867 1868 1869 1870 0
49 -3500 3499 0
49 -3501 3500 0
49 -3502 3501 0
49 -3503 3502 0
49 -3504 3503 0
49 -3505 3504 0
49 -3506 3505 0
49 -3507 3506 0
49 -3508 3507 0
49 3499 1861 0
49 -1861 -3499 0
49 -3499 3500 1862 0
49 3499 -1862 0
49 -1862 -3500 0
49 -3500 3501 1863 0
49 3500 -1863 0
49 -1863 -3501 0
49 -3501 3502 1864 0
49 3501 -1864 0
49 -1864 -3502 0
49 -3502 3503 1865 0
49 3502 -1865 0
49 -1865 -3503 0
49 -3503 3504 1866 0
49 3503 -1866 0
49 -1866 -3504 0
49 -3504 3505 1867 0
49 3504 -1867 0
49 -1867 -3505 0
49 -3505 3506 1868 0
49 3505 -1868 0
49 -1868 -3506 0
49 -3506 3507 1869 0
49 3506 -1869 0
49 -1869 -3507 0
49 -3507 3508 1870 0
49 3507 -1870 0
49 -1870 -3508 0
49 -3508 3498 0
49 -3498 3508 0
49 1871 1872 0
49 -1871 -1872 0
49 1873 1874 0
49 -1873 -1874 0
49 1875 1876 1877 1878 0
49 -3511 3510 0
49 -3512 3511 0
49 -3513 3512 0
49 3510 1875 0
49 -1875 -3510 0
49 -3510 3511 1876 0
49 3510 -1876 0
49 -1876 -3511 0
49 -3511 3512 1877 0
49 3511 -1877 0
49 -1877 -3512 0
49 -3512 3513 1878 0
49 3512 -1878 0
49 -1878 -3513 0
49 -3513 3509 0
49 -3509 3513 0
49 1879 1880 1881 1882 0
49 -3516 3515 0
49 -3517 3516 0
49 -3518 3517 0
49 3515 1879 0
49 -1879 -3515 0
49 -3515 3516 1880 0
49 3515 -1880 0
49 -1880 -3516 0
49 -3516 3517 1881 0
49 3516 -1881 0
49 -1881 -3517 0
49 -3517 3518 1882 0
49 3517 -1882 0
49 -1882 -3518 0
49 -3518 3514 0
49 -3514 3518 0
49 1883 1884 1885 1886 1887 0
49 -3521 3520 0
49 -3522 3521 0
49 -3523 3522 0
49 -3524 3523 0
49 3520 1883 0
49 -1883 -3520 0
49 -3520 3521 1884 0
49 3520 -1884 0
49 -1884 -3521 0
49 -3521 3522 1885 0
49 3521 -1885 0
49 -1885 -3522 0
49 -3522 3523 1886 0
49 3522 -1886 0
49 -1886 -3523 0
49 -3523 3524 1887 0
49 3523 -1887 0
49 -1887 -3524 0
49 -3524 3519 0
49 -3519 3524 0
49 1888 1889 1890 1891 1892 0
49 -3527 3526 0
49 -3528 3527 0
49 -3529 3528 0
49 -3530 3529 0
49 3526 1888 0
49 -1888 -3526 0
49 -3526 3527 1889 0
49 3526 -1889 0
49 -1889 -3527 0
49 -3527 3528 1890 0
49 3527 -1890 0
49 -1890 -3528 0
49 -3528 3529 1891 0
49 3528 -1891 0
49 -1891 -3529 0
49 -3529 3530 1892 0
49 3529 -1892 0
49 -1892 -3530 0
49 -3530 3525 0
49 -3525 3530 0
49 1893 1894 1895 1896 1897 1898 1899 1900 1901 1902 1903 0
49 -3533 3532 0
49 -3534 3533 0
49 -3535 3534 0
49 -3536 3535 0
49 -3537 3536 0
49 -3538 3537 0
49 -3539 3538 0
49 -3540 3539 0
49 -3541 3540 0
49 -3542 3541 0
49 3532 1893 0
49 -1893 -3532 0
49 -3532 3533 1894 0
49 3532 -1894 0
49 -1894 -3533 0
49 -3533 3534 1895 0
49 3533 -1895 0
49 -1895 -3534 0
49 -3534 3535 1896 0
49 3534 -1896 0
49 -1896 -3535 0
49 -3535 3536 1897 0
49 3535 -1897 0
49 -1897 -3536 0
49 -3536 3537 1898 0
49 3536 -1898 0
49 -1898 -3537 0
49 -3537 3538 1899 0
49 3537 -1899 0
49 -1899 -3538 0
49 -3538 3539 1900 0
49 3538 -1900 0
49 -1900 -3539 0
49 -3539 3540 1901 0
49 3539 -1901 0
49 -1901 -3540 0
49 -3540 3541 1902 0
49 3540 -1902 0
49 -1902 -3541 0
49 -3541 3542 1903 0
49 3541 -1903 0
49 -1903 -3542 0
49 -3542 3531 0
49 -3531 3542 0
49 1904 1905 1906 1907 1908 1909 1910 1911 1912 1913 1914 0
49 -3545 3544 0
49 -3546 3545 0
49 -3547 3546 0
49 -3548 3547 0
49 -3549 3548 0
49 -3550 3549 0
49 -3551 3550 0
49 -3552 3551 0
49 -3553 3552 0
49 -3554 3553 0
49 3544 1904 0
49 -1904 -3544 0
49 -3544 3545 1905 0
49 3544 -1905 0
49 -1905 -3545 0
49 -3545 3546 1906 0
49 3545 -1906 0
49 -1906 -3546 0
49 -3546 3547 1907 0
49 3546 -1907 0
49 -1907 -3547 0
49 -3547 3548 1908 0
49 3547 -1908 0
49 -1908 -3548 0
49 -3548 3549 1909 0
49 3548 -1909 0
49 -1909 -3549 0
49 -3549 3550 1910 0
49 3549 -1910 0
49 -1910 -3550 0
49 -3550 3551 1911 0
49 3550 -1911 0
49 -1911 -3551 0
49 -3551 3552 1912 0
49 3551 -1912 0
49 -1912 -3552 0
49 -3552 3553 1913 0
49 3552 -1913 0
49 -1913 -3553 0
49 -3553 3554 1914 0
49 3553 -1914 0
49 -1914 -3554 0
49 -3554 3543 0
49 -3543 3554 0
49 1915 1916 0
49 -1915 -1916 0
49 1917 1918 0
49 -1917 -1918 0
49 1919 0
49 1920 0
49 1921 1922 1923 1924 1925 1926 1927 1928 1929 0
49 -3557 3556 0
49 -3558 3557 0
49 -3559 3558 0
49 -3560 3559 0
49 -3561 3560 0
49 -3562 3561 0
49 -3563 3562 0
49 -3564 3563 0
49 3556 1921 0
49 -1921 -3556 0
49 -3556 3557 1922 0
49 3556 -1922 0
49 -1922 -3557 0
49 -3557 3558 1923 0
49 3557 -1923 0
49 -1923 -3558 0
49 -3558 3559 1924 0
49 3558 -1924 0
49 -1924 -3559 0
49 -3559 3560 1925 0
49 3559 -1925 0
49 -1925 -3560 0
49 -3560 3561 1926 0
49 3560 -1926 0
49 -1926 -3561 0
49 -3561 3562 1927 0
49 3561 -1927 0
49 -1927 -3562 0
49 -3562 3563 1928 0
49 3562 -1928 0
49 -1928 -3563 0
49 -3563 3564 1929 0
49 3563 -1929 0
49 -1929 -3564 0
49 -3564 3555 0
49 -3555 3564 0
49 1930 1931 1932 1933 1934 1935 1936 1937 1938 0
49 -3567 3566 0
49 -3568 3567 0
49 -3569 3568 0
49 -3570 3569 0
49 -3571 3570 0
49 -3572 3571 0
49 -3573 3572 0
49 -3574 3573 0
49 3566 1930 0
49 -1930 -3566 0
49 -3566 3567 1931 0
49 3566 -1931 0
49 -1931 -3567 0
49 -3567 3568 1932 0
49 3567 -1932 0
49 -1932 -3568 0
49 -3568 3569 1933 0
49 3568 -1933 0
49 -1933 -3569 0
49 -3569 3570 1934 0
49 3569 -1934 0
49 -1934 -3570 0
49 -3570 3571 1935 0
49 3570 -1935 0
49 -1935 -3571 0
49 -3571 3572 1936 0
49 3571 -1936 0
49 -1936 -3572 0
49 -3572 3573 1937 0
49 3572 -1937 0
49 -1937 -3573 0
49 -3573 3574 1938 0
49 3573 -1938 0
49 -1938 -3574 0
49 -3574 3565 0
49 -3565 3574 0
49 1939 1940 1941 1942 1943 1944 1945 1946 1947 1948 1949 0
49 -3577 3576 0
49 -3578 3577 0
49 -3579 3578 0
49 -3580 3579 0
49 -3581 3580 0
49 -3582 3581 0
49 -3583 3582 0
49 -3584 3583 0
49 -3585 3584 0
49 -3586 3585 0
49 3576 1939 0
49 -1939 -3576 0
49 -3576 3577 1940 0
49 3576 -1940 0
49 -1940 -3577 0
49 -3577 3578 1941 0
49 3577 -1941 0
49 -1941 -3578 0
49 -3578 3579 1942 0
49 3578 -1942 0
49 -1942 -3579 0
49 -3579 3580 1943 0
49 3579 -1943 0
49 -1943 -3580 0
49 -3580 3581 1944 0
49 3580 -1944 0
49 -1944 -3581 0
49 -3581 3582 1945 0
49 3581 -1945 0
49 -1945 -3582 0
49 -3582 3583 1946 0
49 3582 -1946 0
49 -1946 -3583 0
49 -3583 3584 1947 0
49 3583 -1947 0
49 -1947 -3584 0
49 -3584 3585 1948 0
49 3584 -1948 0
49 -1948 -3585 0
49 -3585 3586 1949 0
49 3585 -1949 0
49 -1949 -3586 0
49 -3586 3575 0
49 -3575 3586 0
49 1950 1951 1952 1953 1954 1955 1956 1957 1958 1959 1960 0
49 -3589 3588 0
49 -3590 3589 0
49 -3591 3590 0
49 -3592 3591 0
49 -3593 3592 0
49 -3594 3593 0
49 -3595 3594 0
49 -3596 3595 0
49 -3597 3596 0
49 -3598 3597 0
49 3588 1950 0
49 -1950 -3588 0
49 -3588 3589 1951 0
49 3588 -1951 0
49 -1951 -3589 0
49 -3589 3590 1952 0
49 3589 -1952 0
49 -1952 -3590 0
49 -3590 3591 1953 0
49 3590 -1953 0
49 -1953 -3591 0
49 -3591 3592 1954 0
49 3591 -1954 0
49 -1954 -3592 0
49 -3592 3593 1955 0
49 3592 -1955 0
49 -1955 -3593 0
49 -3593 3594 1956 0
49 3593 -1956 0
49 -1956 -3594 0
49 -3594 3595 1957 0
49 3594 -1957 0
49 -1957 -3595 0
49 -3595 3596 1958 0
49 3595 -1958 0
49 -1958 -3596 0
49 -3596 3597 1959 0
49 3596 -1959 0
49 -1959 -3597 0
49 -3597 3598 1960 0
49 3597 -1960 0
49 -1960 -3598 0
49 -3598 3587 0
49 -3587 3598 0
49 -1 2 0
49 -3 7 0
49 -4 8 0
49 -5 9 0
49 -6 10 0
49 -11 12 0
49 -13 14 0
49 -15 16 0
49 -17 23 0
49 -18 24 0
49 -19 25 0
49 -20 26 0
49 -21 27 0
49 -22 28 0
49 -22 -669 0
49 -21 -1803 0
49 -22 -1803 0
49 -22 -1804 0
49 -18 -1819 0
49 -19 -1819 0
49 -19 -1820 0
49 -20 -1819 0
49 -20 -1820 0
49 -20 -1821 0
49 -21 -1819 0
49 -21 -1820 0
49 -21 -1821 0
49 -21 -1822 0
49 -22 -1819 0
49 -22 -1820 0
49 -22 -1821 0
49 -22 -1822 0
49 -29 30 0
49 -31 32 0
49 -33 44 0
49 -34 45 0
49 -35 46 0
49 -36 47 0
49 -37 48 0
49 -38 49 0
49 -39 50 0
49 -40 51 0
49 -41 52 0
49 -42 53 0
49 -43 54 0
49 -41 -1581 0
49 -42 -1581 0
49 -42 -1582 0
49 -43 -1581 0
49 -43 -1582 0
49 -43 -1583 0
49 -48 -1581 0
49 -49 -1581 0
49 -49 -1582 0
49 -50 -1581 0
49 -50 -1582 0
49 -50 -1583 0
49 -51 -1581 0
49 -51 -1582 0
49 -51 -1583 0
49 -51 -1584 0
49 -52 -1581 0
49 -52 -1582 0
49 -52 -1583 0
49 -52 -1584 0
49 -52 -1585 0
49 -53 -1581 0
49 -53 -1582 0
49 -53 -1583 0
49 -53 -1584 0
49 -53 -1585 0
49 -53 -1586 0
49 -54 -1581 0
49 -54 -1582 0
49 -54 -1583 0
49 -54 -1584 0
49 -54 -1585 0
49 -54 -1586 0
49 -54 -1587 0
49 -52 -1589 0
49 -53 -1589 0
49 -53 -1590 0
49 -54 -1589 0
49 -54 -1590 0
49 -54 -1591 0
49 -55 58 0
49 -56 59 0
49 -57 60 0
49 -57 -63 0
49 -61 62 0
49 -63 66 0
49 -64 67 0
49 -65 68 0
49 -63 -1773 0
49 -63 -1774 0
49 -64 -1774 0
49 -69 70 0
49 -71 72 0
49 -73 74 0
49 -75 76 0
49 -77 87 0
49 -78 88 0
49 -79 89 0
49 -80 90 0
49 -81 91 0
49 -82 92 0
49 -83 93 0
49 -84 94 0
49 -85 95 0
49 -86 96 0
49 -77 -305 0
49 -77 -306 0
49 -78 -306 0
49 -78 -307 0
49 -79 -307 0
49 -87 -308 0
49 -87 -309 0
49 -88 -309 0
49 -88 -310 0
49 -89 -310 0
49 -97 98 0
49 -99 101 0
49 -100 102 0
49 -103 104 0
49 -105 106 0
49 -107 109 0
49 -108 110 0
49 -107 -114 0
49 -109 -116 0
49 -111 112 0
49 -113 115 0
49 -114 116 0
49 -113 -1918 0
49 -115 -1916 0
49 -117 121 0
49 -118 122 0
49 -119 123 0
49 -120 124 0
49 -117 -678 0
49 -117 -679 0
49 -117 -680 0
49 -118 -679 0
49 -118 -680 0
49 -119 -680 0
49 -120 -955 0
49 -121 -673 0
49 -121 -674 0
49 -121 -675 0
49 -122 -674 0
49 -122 -675 0
49 -123 -675 0
49 -124 -676 0
49 -125 126 0
49 -127 128 0
49 -129 130 0
49 -131 132 0
49 -133 135 0
49 -134 136 0
49 -137 138 0
49 -139 140 0
49 -141 142 0
49 -143 144 0
49 -145 146 0
49 -147 148 0
49 -149 150 0
49 -151 152 0
49 -153 154 0
49 -155 156 0
49 -157 158 0
49 -159 160 0
49 -161 162 0
49 -163 164 0
49 -165 170 0
49 -166 171 0
49 -167 172 0
49 -168 173 0
49 -169 174 0
49 -173 -216 0
49 -173 -217 0
49 -173 -218 0
49 -174 -218 0
49 -174 -219 0
49 -174 -220 0
49 -170 -1238 0
49 -170 -1239 0
49 -170 -1240 0
49 -171 -1238 0
49 -171 -1239 0
49 -171 -1240 0
49 -171 -1241 0
49 -172 -1238 0
49 -172 -1239 0
49 -172 -1240 0
49 -172 -1241 0
49 -172 -1242 0
49 -172 -1243 0
49 -175 176 0
49 -177 178 0
49 -179 180 0
49 -181 182 0
49 -183 188 0
49 -184 189 0
49 -185 190 0
49 -186 191 0
49 -187 192 0
49 -193 195 0
49 -194 196 0
49 -195 -896 0
49 -197 198 0
49 -199 202 0
49 -200 203 0
49 -201 204 0
49 -205 206 0
49 -207 208 0
49 -209 210 0
49 -211 212 0
49 -213 222 0
49 -214 223 0
49 -215 224 0
49 -216 225 0
49 -217 226 0
49 -218 227 0
49 -219 228 0
49 -220 229 0
49 -221 230 0
49 -222 -1240 0
49 -222 -1241 0
49 -222 -1242 0
49 -222 -1243 0
49 -222 -1244 0
49 -223 -1241 0
49 -223 -1242 0
49 -223 -1243 0
49 -223 -1244 0
49 -224 -1242 0
49 -224 -1243 0
49 -224 -1244 0
49 -225 -1243 0
49 -225 -1244 0
49 -226 -1244 0
49 -231 232 0
49 -233 234 0
49 -235 236 0
49 -237 245 0
49 -238 246 0
49 -239 247 0
49 -240 248 0
49 -241 249 0
49 -242 250 0
49 -243 251 0
49 -244 252 0
49 -253 254 0
49 -255 263 0
49 -256 264 0
49 -257 265 0
49 -258 266 0
49 -259 267 0
49 -260 268 0
49 -261 269 0
49 -262 270 0
49 -271 273 0
49 -272 274 0
49 -272 -1381 0
49 -274 -1383 0
49 -275 276 0
49 -277 278 0
49 -279 282 0
49 -280 283 0
49 -281 284 0
49 -280 -1257 0
49 -281 -1258 0
49 -283 -1260 0
49 -284 -1261 0
49 -285 286 0
49 -287 289 0
49 -288 290 0
49 -287 -818 0
49 -289 -820 0
49 -289 -870 0
49 -291 292 0
49 -293 294 0
49 -295 296 0
49 -297 298 0
49 -299 300 0
49 -301 302 0
49 -303 304 0
49 -305 308 0
49 -306 309 0
49 -307 310 0
49 -306 -1424 0
49 -307 -1424 0
49 -307 -1425 0
49 -311 312 0
49 -313 314 0
49 -315 316 0
49 -317 318 0
49 -319 320 0
49 -321 322 0
49 -323 324 0
49 -325 326 0
49 -327 328 0
49 -329 330 0
49 -331 332 0
49 -333 335 0
49 -334 336 0
49 -337 339 0
49 -338 340 0
49 -339 -345 0
49 -341 346 0
49 -342 347 0
49 -343 348 0
49 -344 349 0
49 -345 350 0
49 -351 352 0
49 -353 354 0
49 -355 356 0
49 -357 358 0
49 -359 360 0
49 -361 363 0
49 -362 364 0
49 -361 -406 0
49 -363 -404 0
49 -365 366 0
49 -367 368 0
49 -369 370 0
49 -371 374 0
49 -372 375 0
49 -373 376 0
49 -377 379 0
49 -378 380 0
49 -381 382 0
49 -383 384 0
49 -385 389 0
49 -386 390 0
49 -387 391 0
49 -388 392 0
49 -392 -1279 0
49 -393 394 0
49 -395 399 0
49 -396 400 0
49 -397 401 0
49 -398 402 0
49 -403 405 0
49 -404 406 0
49 -407 408 0
49 -409 420 0
49 -410 421 0
49 -411 422 0
49 -412 423 0
49 -413 424 0
49 -414 425 0
49 -415 426 0
49 -416 427 0
49 -417 428 0
49 -418 419 0
49 -409 -434 0
49 -409 -435 0
49 -409 -436 0
49 -409 -437 0
49 -409 -438 0
49 -409 -439 0
49 -410 -435 0
49 -410 -436 0
49 -410 -437 0
49 -410 -438 0
49 -410 -439 0
49 -411 -436 0
49 -411 -437 0
49 -411 -438 0
49 -411 -439 0
49 -412 -437 0
49 -412 -438 0
49 -412 -439 0
49 -413 -438 0
49 -413 -439 0
49 -414 -439 0
49 -419 -432 0
49 -419 -433 0
49 -419 -434 0
49 -419 -435 0
49 -419 -436 0
49 -419 -437 0
49 -419 -438 0
49 -419 -439 0
49 -419 -445 0
49 -419 -446 0
49 -419 -447 0
49 -419 -448 0
49 -429 430 0
49 -431 440 0
49 -432 441 0
49 -433 442 0
49 -434 443 0
49 -435 444 0
49 -436 445 0
49 -437 446 0
49 -438 447 0
49 -439 448 0
49 -449 450 0
49 -451 452 0
49 -453 454 0
49 -455 456 0
49 -457 458 0
49 -459 460 0
49 -461 463 0
49 -462 464 0
49 -465 466 0
49 -467 468 0
49 -469 471 0
49 -470 472 0
49 -470 -1341 0
49 -472 -1344 0
49 -473 475 0
49 -474 476 0
49 -473 -484 0
49 -475 -488 0
49 -477 478 0
49 -479 480 0
49 -481 485 0
49 -482 486 0
49 -483 487 0
49 -484 488 0
49 -489 490 0
49 -491 492 0
49 -493 494 0
49 -495 496 0
49 -497 499 0
49 -498 500 0
49 -501 502 0
49 -503 504 0
49 -505 506 0
49 -507 516 0
49 -508 517 0
49 -509 518 0
49 -510 519 0
49 -511 520 0
49 -512 521 0
49 -513 522 0
49 -514 523 0
49 -515 524 0
49 -512 -525 0
49 -513 -525 0
49 -513 -526 0
49 -514 -525 0
49 -514 -526 0
49 -514 -527 0
49 -515 -525 0
49 -515 -526 0
49 -515 -527 0
49 -515 -528 0
49 -510 -543 0
49 -511 -543 0
49 -511 -544 0
49 -512 -543 0
49 -512 -544 0
49 -512 -545 0
49 -513 -543 0
49 -513 -544 0
49 -513 -545 0
49 -513 -546 0
49 -514 -543 0
49 -514 -544 0
49 -514 -545 0
49 -514 -546 0
49 -514 -547 0
49 -515 -543 0
49 -515 -544 0
49 -515 -545 0
49 -515 -546 0
49 -515 -547 0
49 -515 -548 0
49 -515 -551 0
49 -524 -543 0
49 -525 531 0
49 -526 532 0
49 -527 533 0
49 -528 534 0
49 -529 535 0
49 -530 536 0
49 -537 540 0
49 -538 541 0
49 -539 542 0
49 -539 -1921 0
49 -543 551 0
49 -544 552 0
49 -545 553 0
49 -546 554 0
49 -547 555 0
49 -548 556 0
49 -549 557 0
49 -550 558 0
49 -559 560 0
49 -561 562 0
49 -563 564 0
49 -565 566 0
49 -567 568 0
49 -569 570 0
49 -571 572 0
49 -573 574 0
49 -575 576 0
49 -577 585 0
49 -578 586 0
49 -579 587 0
49 -580 588 0
49 -581 589 0
49 -582 590 0
49 -583 591 0
49 -584 592 0
49 -593 594 0
49 -595 596 0
49 -597 601 0
49 -598 602 0
49 -599 603 0
49 -600 604 0
49 -597 -1800 0
49 -597 -1801 0
49 -597 -1802 0
49 -598 -1801 0
49 -598 -1802 0
49 -599 -1802 0
49 -601 -1796 0
49 -601 -1797 0
49 -601 -1798 0
49 -602 -1797 0
49 -602 -1798 0
49 -603 -1798 0
49 -605 607 0
49 -606 608 0
49 -606 -611 0
49 -608 -609 0
49 -609 611 0
49 -610 612 0
49 -613 617 0
49 -614 618 0
49 -615 619 0
49 -616 620 0
49 -613 -1547 0
49 -614 -1689 0
49 -615 -1689 0
49 -615 -1690 0
49 -616 -1689 0
49 -616 -1690 0
49 -616 -1691 0
49 -613 -1703 0
49 -613 -1704 0
49 -614 -1704 0
49 -618 -1685 0
49 -619 -1685 0
49 -619 -1686 0
49 -620 -1685 0
49 -620 -1686 0
49 -620 -1687 0
49 -621 626 0
49 -622 627 0
49 -623 628 0
49 -624 629 0
49 -625 630 0
49 -631 632 0
49 -633 634 0
49 -635 636 0
49 -637 638 0
49 -639 640 0
49 -641 650 0
49 -642 651 0
49 -643 652 0
49 -644 653 0
49 -645 654 0
49 -646 655 0
49 -647 656 0
49 -648 657 0
49 -649 658 0
49 -641 -1052 0
49 -641 -1053 0
49 -641 -1054 0
49 -641 -1055 0
49 -642 -1053 0
49 -642 -1054 0
49 -642 -1055 0
49 -642 -1056 0
49 -643 -1053 0
49 -643 -1054 0
49 -643 -1055 0
49 -643 -1056 0
49 -643 -1057 0
49 -644 -1053 0
49 -644 -1054 0
49 -644 -1055 0
49 -644 -1056 0
49 -644 -1057 0
49 -644 -1058 0
49 -645 -1053 0
49 -645 -1054 0
49 -645 -1055 0
49 -645 -1056 0
49 -645 -1057 0
49 -645 -1058 0
49 -645 -1059 0
49 -646 -1054 0
49 -646 -1055 0
49 -646 -1056 0
49 -646 -1057 0
49 -646 -1058 0
49 -646 -1059 0
49 -646 -1060 0
49 -647 -1055 0
49 -647 -1056 0
49 -647 -1057 0
49 -647 -1058 0
49 -647 -1059 0
49 -647 -1060 0
49 -648 -1056 0
49 -648 -1057 0
49 -648 -1058 0
49 -648 -1059 0
49 -648 -1060 0
49 -649 -1057 0
49 -649 -1058 0
49 -649 -1059 0
49 -649 -1060 0
49 -650 -1045 0
49 -650 -1046 0
49 -650 -1047 0
49 -651 -1045 0
49 -651 -1046 0
49 -651 -1047 0
49 -651 -1048 0
49 -652 -1045 0
49 -652 -1046 0
49 -652 -1047 0
49 -652 -1048 0
49 -652 -1049 0
49 -653 -1045 0
49 -653 -1046 0
49 -653 -1047 0
49 -653 -1048 0
49 -653 -1049 0
49 -653 -1050 0
49 -654 -1045 0
49 -654 -1046 0
49 -654 -1047 0
49 -654 -1048 0
49 -654 -1049 0
49 -654 -1050 0
49 -654 -1051 0
49 -655 -1046 0
49 -655 -1047 0
49 -655 -1048 0
49 -655 -1049 0
49 -655 -1050 0
49 -655 -1051 0
49 -655 -1052 0
49 -656 -1047 0
49 -656 -1048 0
49 -656 -1049 0
49 -656 -1050 0
49 -656 -1051 0
49 -656 -1052 0
49 -657 -1048 0
49 -657 -1049 0
49 -657 -1050 0
49 -657 -1051 0
49 -657 -1052 0
49 -658 -1049 0
49 -658 -1050 0
49 -658 -1051 0
49 -658 -1052 0
49 -655 -1053 0
49 -655 -1054 0
49 -655 -1055 0
49 -656 -1053 0
49 -656 -1054 0
49 -656 -1055 0
49 -656 -1056 0
49 -657 -1053 0
49 -657 -1054 0
49 -657 -1055 0
49 -657 -1056 0
49 -657 -1057 0
49 -658 -1053 0
49 -658 -1054 0
49 -658 -1055 0
49 -658 -1056 0
49 -658 -1057 0
49 -658 -1058 0
49 -650 -1702 0
49 -650 -1703 0
49 -650 -1704 0
49 -651 -1703 0
49 -651 -1704 0
49 -652 -1704 0
49 -659 662 0
49 -660 663 0
49 -661 664 0
49 -659 -1696 0
49 -659 -1697 0
49 -660 -1697 0
49 -659 -1790 0
49 -662 -1700 0
49 -665 666 0
49 -667 669 0
49 -668 670 0
49 -671 676 0
49 -672 677 0
49 -673 678 0
49 -674 679 0
49 -675 680 0
49 -681 682 0
49 -683 684 0
49 -685 694 0
49 -686 695 0
49 -687 696 0
49 -688 697 0
49 -689 698 0
49 -690 699 0
49 -691 700 0
49 -692 701 0
49 -693 702 0
49 -703 706 0
49 -704 707 0
49 -705 708 0
49 -705 -1477 0
49 -709 710 0
49 -711 712 0
49 -713 714 0
49 -715 725 0
49 -716 726 0
49 -717 727 0
49 -718 728 0
49 -719 729 0
49 -720 730 0
49 -721 731 0
49 -722 732 0
49 -723 733 0
49 -724 734 0
49 -724 -735 0
49 -735 743 0
49 -736 744 0
49 -737 745 0
49 -738 746 0
49 -739 747 0
49 -740 748 0
49 -741 749 0
49 -742 750 0
49 -751 752 0
49 -753 755 0
49 -754 756 0
49 -757 758 0
49 -759 760 0
49 -761 762 0
49 -763 764 0
49 -765 769 0
49 -766 770 0
49 -767 771 0
49 -768 772 0
49 -773 774 0
49 -775 776 0
49 -777 778 0
49 -779 780 0
49 -781 784 0
49 -782 785 0
49 -783 786 0
49 -787 788 0
49 -789 790 0
49 -791 792 0
49 -793 794 0
49 -795 798 0
49 -796 799 0
49 -797 800 0
49 -801 803 0
49 -802 804 0
49 -805 806 0
49 -807 808 0
49 -809 810 0
49 -811 813 0
49 -812 814 0
49 -812 -1471 0
49 -815 816 0
49 -817 819 0
49 -818 820 0
49 -818 -871 0
49 -820 -869 0
49 -821 822 0
49 -823 824 0
49 -825 836 0
49 -826 837 0
49 -827 838 0
49 -828 839 0
49 -829 840 0
49 -830 841 0
49 -831 842 0
49 -832 843 0
49 -833 844 0
49 -834 845 0
49 -835 846 0
49 -836 -852 0
49 -836 -853 0
49 -837 -853 0
49 -847 848 0
49 -849 850 0
49 -851 854 0
49 -852 855 0
49 -853 856 0
49 -857 859 0
49 -858 860 0
49 -861 862 0
49 -863 864 0
49 -865 866 0
49 -867 868 0
49 -869 871 0
49 -870 872 0
49 -873 880 0
49 -874 881 0
49 -875 882 0
49 -876 883 0
49 -877 884 0
49 -878 885 0
49 -879 886 0
49 -873 -890 0
49 -887 889 0
49 -888 890 0
49 -891 892 0
49 -893 895 0
49 -894 896 0
49 -897 898 0
49 -899 900 0
49 -901 902 0
49 -903 907 0
49 -904 908 0
49 -905 909 0
49 -906 910 0
49 -903 -929 0
49 -903 -930 0
49 -904 -930 0
49 -911 912 0
49 -913 914 0
49 -915 916 0
49 -917 919 0
49 -918 920 0
49 -921 922 0
49 -923 924 0
49 -925 926 0
49 -927 931 0
49 -928 932 0
49 -929 933 0
49 -930 934 0
49 -935 936 0
49 -937 938 0
49 -939 947 0
49 -940 948 0
49 -941 949 0
49 -942 950 0
49 -943 951 0
49 -944 952 0
49 -945 953 0
49 -946 954 0
49 -939 -977 0
49 -939 -978 0
49 -939 -979 0
49 -940 -978 0
49 -940 -979 0
49 -941 -979 0
49 -942 -980 0
49 -943 -980 0
49 -943 -981 0
49 -944 -980 0
49 -944 -981 0
49 -944 -982 0
49 -945 -980 0
49 -945 -981 0
49 -945 -982 0
49 -945 -983 0
49 -946 -980 0
49 -946 -981 0
49 -946 -982 0
49 -946 -983 0
49 -946 -984 0
49 -939 -1002 0
49 -939 -1003 0
49 -939 -1004 0
49 -940 -1002 0
49 -940 -1003 0
49 -940 -1004 0
49 -940 -1005 0
49 -941 -1002 0
49 -941 -1003 0
49 -941 -1004 0
49 -941 -1005 0
49 -941 -1006 0
49 -942 -1003 0
49 -942 -1004 0
49 -942 -1005 0
49 -942 -1006 0
49 -942 -1007 0
49 -943 -1004 0
49 -943 -1005 0
49 -943 -1006 0
49 -943 -1007 0
49 -943 -1008 0
49 -944 -1005 0
49 -944 -1006 0
49 -944 -1007 0
49 -944 -1008 0
49 -944 -1009 0
49 -945 -1006 0
49 -945 -1007 0
49 -945 -1008 0
49 -945 -1009 0
49 -945 -1010 0
49 -946 -1007 0
49 -946 -1008 0
49 -946 -1009 0
49 -946 -1010 0
49 -946 -1011 0
49 -947 -969 0
49 -947 -970 0
49 -947 -971 0
49 -948 -969 0
49 -948 -970 0
49 -948 -971 0
49 -948 -972 0
49 -949 -969 0
49 -949 -970 0
49 -949 -971 0
49 -949 -972 0
49 -949 -973 0
49 -950 -970 0
49 -950 -971 0
49 -950 -972 0
49 -950 -973 0
49 -950 -974 0
49 -951 -971 0
49 -951 -972 0
49 -951 -973 0
49 -951 -974 0
49 -951 -975 0
49 -952 -972 0
49 -952 -973 0
49 -952 -974 0
49 -952 -975 0
49 -952 -976 0
49 -953 -973 0
49 -953 -974 0
49 -953 -975 0
49 -953 -976 0
49 -953 -977 0
49 -954 -974 0
49 -954 -975 0
49 -954 -976 0
49 -954 -977 0
49 -954 -978 0
49 -950 -1002 0
49 -951 -1002 0
49 -951 -1003 0
49 -952 -1002 0
49 -952 -1003 0
49 -952 -1004 0
49 -953 -1002 0
49 -953 -1003 0
49 -953 -1004 0
49 -953 -1005 0
49 -954 -1002 0
49 -954 -1003 0
49 -954 -1004 0
49 -954 -1005 0
49 -954 -1006 0
49 -955 959 0
49 -956 960 0
49 -957 961 0
49 -958 962 0
49 -955 -1580 0
49 -963 966 0
49 -964 967 0
49 -965 968 0
49 -966 -1398 0
49 -966 -1399 0
49 -967 -1399 0
49 -969 1002 0
49 -970 1003 0
49 -971 1004 0
49 -972 1005 0
49 -973 1006 0
49 -974 1007 0
49 -975 1008 0
49 -976 1009 0
49 -977 1010 0
49 -978 1011 0
49 -979 1012 0
49 -980 1024 0
49 -981 1025 0
49 -982 1026 0
49 -983 1027 0
49 -984 1028 0
49 -985 1029 0
49 -986 1030 0
49 -987 1031 0
49 -988 1032 0
49 -989 1033 0
49 -990 1034 0
49 -991 1013 0
49 -992 1014 0
49 -993 1015 0
49 -994 1016 0
49 -995 1017 0
49 -996 1018 0
49 -997 1019 0
49 -998 1020 0
49 -999 1021 0
49 -1000 1022 0
49 -1001 1023 0
49 -1035 1036 0
49 -1037 1038 0
49 -1039 1040 0
49 -1041 1043 0
49 -1042 1044 0
49 -1045 1053 0
49 -1046 1054 0
49 -1047 1055 0
49 -1048 1056 0
49 -1049 1057 0
49 -1050 1058 0
49 -1051 1059 0
49 -1052 1060 0
49 -1045 -1702 0
49 -1045 -1703 0
49 -1045 -1704 0
49 -1046 -1703 0
49 -1046 -1704 0
49 -1047 -1704 0
49 -1061 1062 0
49 -1063 1081 0
49 -1064 1091 0
49 -1065 1092 0
49 -1066 1093 0
49 -1067 1094 0
49 -1068 1095 0
49 -1069 1096 0
49 -1070 1097 0
49 -1071 1098 0
49 -1072 1082 0
49 -1073 1083 0
49 -1074 1084 0
49 -1075 1085 0
49 -1076 1086 0
49 -1077 1087 0
49 -1078 1088 0
49 -1079 1089 0
49 -1080 1090 0
49 -1063 -1099 0
49 -1063 -1100 0
49 -1063 -1101 0
49 -1063 -1102 0
49 -1063 -1103 0
49 -1063 -1104 0
49 -1063 -1105 0
49 -1063 -1106 0
49 -1063 -1107 0
49 -1063 -1108 0
49 -1063 -1109 0
49 -1063 -1110 0
49 -1063 -1111 0
49 -1063 -1112 0
49 -1063 -1113 0
49 -1063 -1114 0
49 -1063 -1115 0
49 -1064 -1107 0
49 -1064 -1108 0
49 -1064 -1109 0
49 -1064 -1110 0
49 -1064 -1111 0
49 -1064 -1112 0
49 -1064 -1113 0
49 -1064 -1114 0
49 -1064 -1115 0
49 -1064 -1116 0
49 -1064 -1117 0
49 -1064 -1118 0
49 -1064 -1119 0
49 -1064 -1120 0
49 -1064 -1121 0
49 -1064 -1122 0
49 -1064 -1123 0
49 -1064 -1124 0
49 -1065 -1107 0
49 -1065 -1108 0
49 -1065 -1109 0
49 -1065 -1110 0
49 -1065 -1111 0
49 -1065 -1112 0
49 -1065 -1113 0
49 -1065 -1114 0
49 -1065 -1115 0
49 -1065 -1116 0
49 -1065 -1117 0
49 -1065 -1118 0
49 -1065 -1119 0
49 -1065 -1120 0
49 -1065 -1121 0
49 -1065 -1122 0
49 -1065 -1123 0
49 -1065 -1124 0
49 -1066 -1107 0
49 -1066 -1108 0
49 -1066 -1109 0
49 -1066 -1110 0
49 -1066 -1111 0
49 -1066 -1112 0
49 -1066 -1113 0
49 -1066 -1114 0
49 -1066 -1115 0
49 -1066 -1116 0
49 -1066 -1117 0
49 -1066 -1118 0
49 -1066 -1119 0
49 -1066 -1120 0
49 -1066 -1121 0
49 -1066 -1122 0
49 -1066 -1123 0
49 -1066 -1124 0
49 -1067 -1107 0
49 -1067 -1108 0
49 -1067 -1109 0
49 -1067 -1110 0
49 -1067 -1111 0
49 -1067 -1112 0
49 -1067 -1113 0
49 -1067 -1114 0
49 -1067 -1115 0
49 -1067 -1116 0
49 -1067 -1117 0
49 -1067 -1118 0
49 -1067 -1119 0
49 -1067 -1120 0
49 -1067 -1121 0
49 -1067 -1122 0
49 -1067 -1123 0
49 -1067 -1124 0
49 -1068 -1107 0
49 -1068 -1108 0
49 -1068 -1109 0
49 -1068 -1110 0
49 -1068 -1111 0
49 -1068 -1112 0
49 -1068 -1113 0
49 -1068 -1114 0
49 -1068 -1115 0
49 -1068 -1116 0
49 -1068 -1117 0
49 -1068 -1118 0
49 -1068 -1119 0
49 -1068 -1120 0
49 -1068 -1121 0
49 -1068 -1122 0
49 -1068 -1123 0
49 -1068 -1124 0
49 -1069 -1107 0
49 -1069 -1108 0
49 -1069 -1109 0
49 -1069 -1110 0
49 -1069 -1111 0
49 -1069 -1112 0
49 -1069 -1113 0
49 -1069 -1114 0
49 -1069 -1115 0
49 -1069 -1116 0
49 -1069 -1117 0
49 -1069 -1118 0
49 -1069 -1119 0
49 -1069 -1120 0
49 -1069 -1121 0
49 -1069 -1122 0
49 -1069 -1123 0
49 -1069 -1124 0
49 -1070 -1107 0
49 -1070 -1108 0
49 -1070 -1109 0
49 -1070 -1110 0
49 -1070 -1111 0
49 -1070 -1112 0
49 -1070 -1113 0
49 -1070 -1114 0
49 -1070 -1115 0
49 -1070 -1116 0
49 -1070 -1117 0
49 -1070 -1118 0
49 -1070 -1119 0
49 -1070 -1120 0
49 -1070 -1121 0
49 -1070 -1122 0
49 -1070 -1123 0
49 -1070 -1124 0
49 -1071 -1108 0
49 -1071 -1109 0
49 -1071 -1110 0
49 -1071 -1111 0
49 -1071 -1112 0
49 -1071 -1113 0
49 -1071 -1114 0
49 -1071 -1115 0
49 -1071 -1116 0
49 -1071 -1117 0
49 -1071 -1118 0
49 -1071 -1119 0
49 -1071 -1120 0
49 -1071 -1121 0
49 -1071 -1122 0
49 -1071 -1123 0
49 -1071 -1124 0
49 -1072 -1116 0
49 -1072 -1117 0
49 -1072 -1118 0
49 -1072 -1119 0
49 -1072 -1120 0
49 -1072 -1121 0
49 -1072 -1122 0
49 -1072 -1123 0
49 -1072 -1124 0
49 -1073 -1116 0
49 -1073 -1117 0
49 -1073 -1118 0
49 -1073 -1119 0
49 -1073 -1120 0
49 -1073 -1121 0
49 -1073 -1122 0
49 -1073 -1123 0
49 -1073 -1124 0
49 -1074 -1117 0
49 -1074 -1118 0
49 -1074 -1119 0
49 -1074 -1120 0
49 -1074 -1121 0
49 -1074 -1122 0
49 -1074 -1123 0
49 -1074 -1124 0
49 -1075 -1118 0
49 -1075 -1119 0
49 -1075 -1120 0
49 -1075 -1121 0
49 -1075 -1122 0
49 -1075 -1123 0
49 -1075 -1124 0
49 -1076 -1119 0
49 -1076 -1120 0
49 -1076 -1121 0
49 -1076 -1122 0
49 -1076 -1123 0
49 -1076 -1124 0
49 -1077 -1120 0
49 -1077 -1121 0
49 -1077 -1122 0
49 -1077 -1123 0
49 -1077 -1124 0
49 -1078 -1121 0
49 -1078 -1122 0
49 -1078 -1123 0
49 -1078 -1124 0
49 -1079 -1122 0
49 -1079 -1123 0
49 -1079 -1124 0
49 -1080 -1123 0
49 -1080 -1124 0
49 -1063 -1125 0
49 -1063 -1126 0
49 -1063 -1127 0
49 -1063 -1128 0
49 -1063 -1129 0
49 -1063 -1130 0
49 -1063 -1131 0
49 -1063 -1132 0
49 -1063 -1133 0
49 -1063 -1134 0
49 -1063 -1135 0
49 -1063 -1136 0
49 -1063 -1137 0
49 -1063 -1138 0
49 -1063 -1139 0
49 -1063 -1140 0
49 -1063 -1141 0
49 -1064 -1126 0
49 -1064 -1127 0
49 -1064 -1128 0
49 -1064 -1129 0
49 -1064 -1130 0
49 -1064 -1131 0
49 -1064 -1132 0
49 -1064 -1133 0
49 -1064 -1134 0
49 -1064 -1135 0
49 -1064 -1136 0
49 -1064 -1137 0
49 -1064 -1138 0
49 -1064 -1139 0
49 -1064 -1140 0
49 -1064 -1141 0
49 -1064 -1142 0
49 -1064 -1143 0
49 -1064 -1144 0
49 -1064 -1145 0
49 -1064 -1146 0
49 -1064 -1147 0
49 -1064 -1148 0
49 -1064 -1149 0
49 -1064 -1150 0
49 -1065 -1127 0
49 -1065 -1128 0
49 -1065 -1129 0
49 -1065 -1130 0
49 -1065 -1131 0
49 -1065 -1132 0
49 -1065 -1133 0
49 -1065 -1134 0
49 -1065 -1135 0
49 -1065 -1136 0
49 -1065 -1137 0
49 -1065 -1138 0
49 -1065 -1139 0
49 -1065 -1140 0
49 -1065 -1141 0
49 -1065 -1142 0
49 -1065 -1143 0
49 -1065 -1144 0
49 -1065 -1145 0
49 -1065 -1146 0
49 -1065 -1147 0
49 -1065 -1148 0
49 -1065 -1149 0
49 -1065 -1150 0
49 -1066 -1128 0
49 -1066 -1129 0
49 -1066 -1130 0
49 -1066 -1131 0
49 -1066 -1132 0
49 -1066 -1133 0
49 -1066 -1134 0
49 -1066 -1135 0
49 -1066 -1136 0
49 -1066 -1137 0
49 -1066 -1138 0
49 -1066 -1139 0
49 -1066 -1140 0
49 -1066 -1141 0
49 -1066 -1142 0
49 -1066 -1143 0
49 -1066 -1144 0
49 -1066 -1145 0
49 -1066 -1146 0
49 -1066 -1147 0
49 -1066 -1148 0
49 -1066 -1149 0
49 -1066 -1150 0
49 -1067 -1129 0
49 -1067 -1130 0
49 -1067 -1131 0
49 -1067 -1132 0
49 -1067 -1133 0
49 -1067 -1134 0
49 -1067 -1135 0
49 -1067 -1136 0
49 -1067 -1137 0
49 -1067 -1138 0
49 -1067 -1139 0
49 -1067 -1140 0
49 -1067 -1141 0
49 -1067 -1142 0
49 -1067 -1143 0
49 -1067 -1144 0
49 -1067 -1145 0
49 -1067 -1146 0
49 -1067 -1147 0
49 -1067 -1148 0
49 -1067 -1149 0
49 -1067 -1150 0
49 -1068 -1130 0
49 -1068 -1131 0
49 -1068 -1132 0
49 -1068 -1133 0
49 -1068 -1134 0
49 -1068 -1135 0
49 -1068 -1136 0
49 -1068 -1137 0
49 -1068 -1138 0
49 -1068 -1139 0
49 -1068 -1140 0
49 -1068 -1141 0
49 -1068 -1142 0
49 -1068 -1143 0
49 -1068 -1144 0
49 -1068 -1145 0
49 -1068 -1146 0
49 -1068 -1147 0
49 -1068 -1148 0
49 -1068 -1149 0
49 -1068 -1150 0
49 -1069 -1131 0
49 -1069 -1132 0
49 -1069 -1133 0
49 -1069 -1134 0
49 -1069 -1135 0
49 -1069 -1136 0
49 -1069 -1137 0
49 -1069 -1138 0
49 -1069 -1139 0
49 -1069 -1140 0
49 -1069 -1141 0
49 -1069 -1142 0
49 -1069 -1143 0
49 -1069 -1144 0
49 -1069 -1145 0
49 -1069 -1146 0
49 -1069 -1147 0
49 -1069 -1148 0
49 -1069 -1149 0
49 -1069 -1150 0
49 -1070 -1132 0
49 -1070 -1133 0
49 -1070 -1134 0
49 -1070 -1135 0
49 -1070 -1136 0
49 -1070 -1137 0
49 -1070 -1138 0
49 -1070 -1139 0
49 -1070 -1140 0
49 -1070 -1141 0
49 -1070 -1142 0
49 -1070 -1143 0
49 -1070 -1144 0
49 -1070 -1145 0
49 -1070 -1146 0
49 -1070 -1147 0
49 -1070 -1148 0
49 -1070 -1149 0
49 -1070 -1150 0
49 -1071 -1133 0
49 -1071 -1134 0
49 -1071 -1135 0
49 -1071 -1136 0
49 -1071 -1137 0
49 -1071 -1138 0
49 -1071 -1139 0
49 -1071 -1140 0
49 -1071 -1141 0
49 -1071 -1142 0
49 -1071 -1143 0
49 -1071 -1144 0
49 -1071 -1145 0
49 -1071 -1146 0
49 -1071 -1147 0
49 -1071 -1148 0
49 -1071 -1149 0
49 -1071 -1150 0
49 -1072 -1134 0
49 -1072 -1135 0
49 -1072 -1136 0
49 -1072 -1137 0
49 -1072 -1138 0
49 -1072 -1139 0
49 -1072 -1140 0
49 -1072 -1141 0
49 -1072 -1142 0
49 -1072 -1143 0
49 -1072 -1144 0
49 -1072 -1145 0
49 -1072 -1146 0
49 -1072 -1147 0
49 -1072 -1148 0
49 -1072 -1149 0
49 -1072 -1150 0
49 -1073 -1135 0
49 -1073 -1136 0
49 -1073 -1137 0
49 -1073 -1138 0
49 -1073 -1139 0
49 -1073 -1140 0
49 -1073 -1141 0
49 -1073 -1142 0
49 -1073 -1143 0
49 -1073 -1144 0
49 -1073 -1145 0
49 -1073 -1146 0
49 -1073 -1147 0
49 -1073 -1148 0
49 -1073 -1149 0
49 -1073 -1150 0
49 -1074 -1136 0
49 -1074 -1137 0
49 -1074 -1138 0
49 -1074 -1139 0
49 -1074 -1140 0
49 -1074 -1141 0
49 -1074 -1142 0
49 -1074 -1143 0
49 -1074 -1144 0
49 -1074 -1145 0
49 -1074 -1146 0
49 -1074 -1147 0
49 -1074 -1148 0
49 -1074 -1149 0
49 -1074 -1150 0
49 -1075 -1137 0
49 -1075 -1138 0
49 -1075 -1139 0
49 -1075 -1140 0
49 -1075 -1141 0
49 -1075 -1142 0
49 -1075 -1143 0
49 -1075 -1144 0
49 -1075 -1145 0
49 -1075 -1146 0
49 -1075 -1147 0
49 -1075 -1148 0
49 -1075 -1149 0
49 -1075 -1150 0
49 -1076 -1138 0
49 -1076 -1139 0
49 -1076 -1140 0
49 -1076 -1141 0
49 -1076 -1142 0
49 -1076 -1143 0
49 -1076 -1144 0
49 -1076 -1145 0
49 -1076 -1146 0
49 -1076 -1147 0
49 -1076 -1148 0
49 -1076 -1149 0
49 -1076 -1150 0
49 -1077 -1139 0
49 -1077 -1140 0
49 -1077 -1141 0
49 -1077 -1142 0
49 -1077 -1143 0
49 -1077 -1144 0
49 -1077 -1145 0
49 -1077 -1146 0
49 -1077 -1147 0
49 -1077 -1148 0
49 -1077 -1149 0
49 -1077 -1150 0
49 -1078 -1140 0
49 -1078 -1141 0
49 -1078 -1142 0
49 -1078 -1143 0
49 -1078 -1144 0
49 -1078 -1145 0
49 -1078 -1146 0
49 -1078 -1147 0
49 -1078 -1148 0
49 -1078 -1149 0
49 -1078 -1150 0
49 -1079 -1141 0
49 -1079 -1142 0
49 -1079 -1143 0
49 -1079 -1144 0
49 -1079 -1145 0
49 -1079 -1146 0
49 -1079 -1147 0
49 -1079 -1148 0
49 -1079 -1149 0
49 -1079 -1150 0
49 -1080 -1142 0
49 -1080 -1143 0
49 -1080 -1144 0
49 -1080 -1145 0
49 -1080 -1146 0
49 -1080 -1147 0
49 -1080 -1148 0
49 -1080 -1149 0
49 -1080 -1150 0
49 -1081 -1109 0
49 -1081 -1110 0
49 -1081 -1111 0
49 -1081 -1112 0
49 -1081 -1113 0
49 -1081 -1114 0
49 -1081 -1115 0
49 -1081 -1116 0
49 -1081 -1117 0
49 -1081 -1118 0
49 -1082 -1113 0
49 -1082 -1114 0
49 -1082 -1115 0
49 -1082 -1116 0
49 -1082 -1117 0
49 -1082 -1118 0
49 -1082 -1119 0
49 -1082 -1120 0
49 -1082 -1121 0
49 -1082 -1122 0
49 -1083 -1114 0
49 -1083 -1115 0
49 -1083 -1116 0
49 -1083 -1117 0
49 -1083 -1118 0
49 -1083 -1119 0
49 -1083 -1120 0
49 -1083 -1121 0
49 -1083 -1122 0
49 -1083 -1123 0
49 -1084 -1115 0
49 -1084 -1116 0
49 -1084 -1117 0
49 -1084 -1118 0
49 -1084 -1119 0
49 -1084 -1120 0
49 -1084 -1121 0
49 -1084 -1122 0
49 -1084 -1123 0
49 -1084 -1124 0
49 -1085 -1116 0
49 -1085 -1117 0
49 -1085 -1118 0
49 -1085 -1119 0
49 -1085 -1120 0
49 -1085 -1121 0
49 -1085 -1122 0
49 -1085 -1123 0
49 -1085 -1124 0
49 -1086 -1116 0
49 -1086 -1117 0
49 -1086 -1118 0
49 -1086 -1119 0
49 -1086 -1120 0
49 -1086 -1121 0
49 -1086 -1122 0
49 -1086 -1123 0
49 -1086 -1124 0
49 -1087 -1116 0
49 -1087 -1117 0
49 -1087 -1118 0
49 -1087 -1119 0
49 -1087 -1120 0
49 -1087 -1121 0
49 -1087 -1122 0
49 -1087 -1123 0
49 -1087 -1124 0
49 -1088 -1116 0
49 -1088 -1117 0
49 -1088 -1118 0
49 -1088 -1119 0
49 -1088 -1120 0
49 -1088 -1121 0
49 -1088 -1122 0
49 -1088 -1123 0
49 -1088 -1124 0
49 -1089 -1117 0
49 -1089 -1118 0
49 -1089 -1119 0
49 -1089 -1120 0
49 -1089 -1121 0
49 -1089 -1122 0
49 -1089 -1123 0
49 -1089 -1124 0
49 -1090 -1118 0
49 -1090 -1119 0
49 -1090 -1120 0
49 -1090 -1121 0
49 -1090 -1122 0
49 -1090 -1123 0
49 -1090 -1124 0
49 -1081 -1132 0
49 -1081 -1133 0
49 -1081 -1134 0
49 -1081 -1135 0
49 -1081 -1136 0
49 -1081 -1137 0
49 -1081 -1138 0
49 -1081 -1139 0
49 -1081 -1140 0
49 -1081 -1141 0
49 -1082 -1134 0
49 -1082 -1135 0
49 -1082 -1136 0
49 -1082 -1137 0
49 -1082 -1138 0
49 -1082 -1139 0
49 -1082 -1140 0
49 -1082 -1141 0
49 -1082 -1142 0
49 -1082 -1143 0
49 -1083 -1134 0
49 -1083 -1135 0
49 -1083 -1136 0
49 -1083 -1137 0
49 -1083 -1138 0
49 -1083 -1139 0
49 -1083 -1140 0
49 -1083 -1141 0
49 -1083 -1142 0
49 -1083 -1143 0
49 -1083 -1144 0
49 -1084 -1134 0
49 -1084 -1135 0
49 -1084 -1136 0
49 -1084 -1137 0
49 -1084 -1138 0
49 -1084 -1139 0
49 -1084 -1140 0
49 -1084 -1141 0
49 -1084 -1142 0
49 -1084 -1143 0
49 -1084 -1144 0
49 -1084 -1145 0
49 -1085 -1134 0
49 -1085 -1135 0
49 -1085 -1136 0
49 -1085 -1137 0
49 -1085 -1138 0
49 -1085 -1139 0
49 -1085 -1140 0
49 -1085 -1141 0
49 -1085 -1142 0
49 -1085 -1143 0
49 -1085 -1144 0
49 -1085 -1145 0
49 -1085 -1146 0
49 -1086 -1134 0
49 -1086 -1135 0
49 -1086 -1136 0
49 -1086 -1137 0
49 -1086 -1138 0
49 -1086 -1139 0
49 -1086 -1140 0
49 -1086 -1141 0
49 -1086 -1142 0
49 -1086 -1143 0
49 -1086 -1144 0
49 -1086 -1145 0
49 -1086 -1146 0
49 -1086 -1147 0
49 -1087 -1134 0
49 -1087 -1135 0
49 -1087 -1136 0
49 -1087 -1137 0
49 -1087 -1138 0
49 -1087 -1139 0
49 -1087 -1140 0
49 -1087 -1141 0
49 -1087 -1142 0
49 -1087 -1143 0
49 -1087 -1144 0
49 -1087 -1145 0
49 -1087 -1146 0
49 -1087 -1147 0
49 -1087 -1148 0
49 -1088 -1134 0
49 -1088 -1135 0
49 -1088 -1136 0
49 -1088 -1137 0
49 -1088 -1138 0
49 -1088 -1139 0
49 -1088 -1140 0
49 -1088 -1141 0
49 -1088 -1142 0
49 -1088 -1143 0
49 -1088 -1144 0
49 -1088 -1145 0
49 -1088 -1146 0
49 -1088 -1147 0
49 -1088 -1148 0
49 -1088 -1149 0
49 -1089 -1134 0
49 -1089 -1135 0
49 -1089 -1136 0
49 -1089 -1137 0
49 -1089 -1138 0
49 -1089 -1139 0
49 -1089 -1140 0
49 -1089 -1141 0
49 -1089 -1142 0
49 -1089 -1143 0
49 -1089 -1144 0
49 -1089 -1145 0
49 -1089 -1146 0
49 -1089 -1147 0
49 -1089 -1148 0
49 -1089 -1149 0
49 -1089 -1150 0
49 -1090 -1135 0
49 -1090 -1136 0
49 -1090 -1137 0
49 -1090 -1138 0
49 -1090 -1139 0
49 -1090 -1140 0
49 -1090 -1141 0
49 -1090 -1142 0
49 -1090 -1143 0
49 -1090 -1144 0
49 -1090 -1145 0
49 -1090 -1146 0
49 -1090 -1147 0
49 -1090 -1148 0
49 -1090 -1149 0
49 -1090 -1150 0
49 -1091 -1142 0
49 -1091 -1143 0
49 -1091 -1144 0
49 -1091 -1145 0
49 -1091 -1146 0
49 -1091 -1147 0
49 -1091 -1148 0
49 -1091 -1149 0
49 -1091 -1150 0
49 -1092 -1142 0
49 -1092 -1143 0
49 -1092 -1144 0
49 -1092 -1145 0
49 -1092 -1146 0
49 -1092 -1147 0
49 -1092 -1148 0
49 -1092 -1149 0
49 -1092 -1150 0
49 -1093 -1142 0
49 -1093 -1143 0
49 -1093 -1144 0
49 -1093 -1145 0
49 -1093 -1146 0
49 -1093 -1147 0
49 -1093 -1148 0
49 -1093 -1149 0
49 -1093 -1150 0
49 -1094 -1142 0
49 -1094 -1143 0
49 -1094 -1144 0
49 -1094 -1145 0
49 -1094 -1146 0
49 -1094 -1147 0
49 -1094 -1148 0
49 -1094 -1149 0
49 -1094 -1150 0
49 -1095 -1142 0
49 -1095 -1143 0
49 -1095 -1144 0
49 -1095 -1145 0
49 -1095 -1146 0
49 -1095 -1147 0
49 -1095 -1148 0
49 -1095 -1149 0
49 -1095 -1150 0
49 -1096 -1142 0
49 -1096 -1143 0
49 -1096 -1144 0
49 -1096 -1145 0
49 -1096 -1146 0
49 -1096 -1147 0
49 -1096 -1148 0
49 -1096 -1149 0
49 -1096 -1150 0
49 -1097 -1142 0
49 -1097 -1143 0
49 -1097 -1144 0
49 -1097 -1145 0
49 -1097 -1146 0
49 -1097 -1147 0
49 -1097 -1148 0
49 -1097 -1149 0
49 -1097 -1150 0
49 -1098 -1142 0
49 -1098 -1143 0
49 -1098 -1144 0
49 -1098 -1145 0
49 -1098 -1146 0
49 -1098 -1147 0
49 -1098 -1148 0
49 -1098 -1149 0
49 -1098 -1150 0
49 -1099 1134 0
49 -1100 1135 0
49 -1101 1136 0
49 -1102 1137 0
49 -1103 1138 0
49 -1104 1139 0
49 -1105 1140 0
49 -1106 1141 0
49 -1107 1125 0
49 -1108 1126 0
49 -1109 1127 0
49 -1110 1128 0
49 -1111 1129 0
49 -1112 1130 0
49 -1113 1131 0
49 -1114 1132 0
49 -1115 1133 0
49 -1116 1142 0
49 -1117 1143 0
49 -1118 1144 0
49 -1119 1145 0
49 -1120 1146 0
49 -1121 1147 0
49 -1122 1148 0
49 -1123 1149 0
49 -1124 1150 0
49 -1099 -1151 0
49 -1099 -1152 0
49 -1099 -1153 0
49 -1099 -1154 0
49 -1099 -1155 0
49 -1099 -1156 0
49 -1099 -1157 0
49 -1099 -1158 0
49 -1099 -1159 0
49 -1100 -1151 0
49 -1100 -1152 0
49 -1100 -1153 0
49 -1100 -1154 0
49 -1100 -1155 0
49 -1100 -1156 0
49 -1100 -1157 0
49 -1100 -1158 0
49 -1100 -1159 0
49 -1101 -1151 0
49 -1101 -1152 0
49 -1101 -1153 0
49 -1101 -1154 0
49 -1101 -1155 0
49 -1101 -1156 0
49 -1101 -1157 0
49 -1101 -1158 0
49 -1101 -1159 0
49 -1102 -1151 0
49 -1102 -1152 0
49 -1102 -1153 0
49 -1102 -1154 0
49 -1102 -1155 0
49 -1102 -1156 0
49 -1102 -1157 0
49 -1102 -1158 0
49 -1102 -1159 0
49 -1103 -1151 0
49 -1103 -1152 0
49 -1103 -1153 0
49 -1103 -1154 0
49 -1103 -1155 0
49 -1103 -1156 0
49 -1103 -1157 0
49 -1103 -1158 0
49 -1103 -1159 0
49 -1104 -1151 0
49 -1104 -1152 0
49 -1104 -1153 0
49 -1104 -1154 0
49 -1104 -1155 0
49 -1104 -1156 0
49 -1104 -1157 0
49 -1104 -1158 0
49 -1104 -1159 0
49 -1105 -1151 0
49 -1105 -1152 0
49 -1105 -1153 0
49 -1105 -1154 0
49 -1105 -1155 0
49 -1105 -1156 0
49 -1105 -1157 0
49 -1105 -1158 0
49 -1105 -1159 0
49 -1106 -1151 0
49 -1106 -1152 0
49 -1106 -1153 0
49 -1106 -1154 0
49 -1106 -1155 0
49 -1106 -1156 0
49 -1106 -1157 0
49 -1106 -1158 0
49 -1106 -1159 0
49 -1107 -1160 0
49 -1107 -1161 0
49 -1107 -1162 0
49 -1107 -1163 0
49 -1107 -1164 0
49 -1107 -1165 0
49 -1107 -1166 0
49 -1107 -1167 0
49 -1108 -1160 0
49 -1108 -1161 0
49 -1108 -1162 0
49 -1108 -1163 0
49 -1108 -1164 0
49 -1108 -1165 0
49 -1108 -1166 0
49 -1108 -1167 0
49 -1109 -1160 0
49 -1109 -1161 0
49 -1109 -1162 0
49 -1109 -1163 0
49 -1109 -1164 0
49 -1109 -1165 0
49 -1109 -1166 0
49 -1109 -1167 0
49 -1110 -1160 0
49 -1110 -1161 0
49 -1110 -1162 0
49 -1110 -1163 0
49 -1110 -1164 0
49 -1110 -1165 0
49 -1110 -1166 0
49 -1110 -1167 0
49 -1111 -1160 0
49 -1111 -1161 0
49 -1111 -1162 0
49 -1111 -1163 0
49 -1111 -1164 0
49 -1111 -1165 0
49 -1111 -1166 0
49 -1111 -1167 0
49 -1112 -1160 0
49 -1112 -1161 0
49 -1112 -1162 0
49 -1112 -1163 0
49 -1112 -1164 0
49 -1112 -1165 0
49 -1112 -1166 0
49 -1112 -1167 0
49 -1113 -1160 0
49 -1113 -1161 0
49 -1113 -1162 0
49 -1113 -1163 0
49 -1113 -1164 0
49 -1113 -1165 0
49 -1113 -1166 0
49 -1113 -1167 0
49 -1114 -1160 0
49 -1114 -1161 0
49 -1114 -1162 0
49 -1114 -1163 0
49 -1114 -1164 0
49 -1114 -1165 0
49 -1114 -1166 0
49 -1114 -1167 0
49 -1115 -1160 0
49 -1115 -1161 0
49 -1115 -1162 0
49 -1115 -1163 0
49 -1115 -1164 0
49 -1115 -1165 0
49 -1115 -1166 0
49 -1115 -1167 0
49 -1116 -1163 0
49 -1116 -1164 0
49 -1116 -1165 0
49 -1116 -1166 0
49 -1116 -1167 0
49 -1117 -1164 0
49 -1117 -1165 0
49 -1117 -1166 0
49 -1117 -1167 0
49 -1118 -1165 0
49 -1118 -1166 0
49 -1118 -1167 0
49 -1119 -1166 0
49 -1119 -1167 0
49 -1120 -1167 0
49 -1099 -1170 0
49 -1099 -1171 0
49 -1099 -1172 0
49 -1099 -1173 0
49 -1099 -1174 0
49 -1100 -1170 0
49 -1100 -1171 0
49 -1100 -1172 0
49 -1100 -1173 0
49 -1100 -1174 0
49 -1100 -1175 0
49 -1101 -1170 0
49 -1101 -1171 0
49 -1101 -1172 0
49 -1101 -1173 0
49 -1101 -1174 0
49 -1101 -1175 0
49 -1101 -1176 0
49 -1102 -1170 0
49 -1102 -1171 0
49 -1102 -1172 0
49 -1102 -1173 0
49 -1102 -1174 0
49 -1102 -1175 0
49 -1102 -1176 0
49 -1102 -1177 0
49 -1103 -1170 0
49 -1103 -1171 0
49 -1103 -1172 0
49 -1103 -1173 0
49 -1103 -1174 0
49 -1103 -1175 0
49 -1103 -1176 0
49 -1103 -1177 0
49 -1104 -1171 0
49 -1104 -1172 0
49 -1104 -1173 0
49 -1104 -1174 0
49 -1104 -1175 0
49 -1104 -1176 0
49 -1104 -1177 0
49 -1105 -1172 0
49 -1105 -1173 0
49 -1105 -1174 0
49 -1105 -1175 0
49 -1105 -1176 0
49 -1105 -1177 0
49 -1106 -1173 0
49 -1106 -1174 0
49 -1106 -1175 0
49 -1106 -1176 0
49 -1106 -1177 0
49 -1107 -1178 0
49 -1107 -1179 0
49 -1107 -1180 0
49 -1107 -1181 0
49 -1107 -1182 0
49 -1108 -1178 0
49 -1108 -1179 0
49 -1108 -1180 0
49 -1108 -1181 0
49 -1108 -1182 0
49 -1108 -1183 0
49 -1109 -1178 0
49 -1109 -1179 0
49 -1109 -1180 0
49 -1109 -1181 0
49 -1109 -1182 0
49 -1109 -1183 0
49 -1109 -1184 0
49 -1110 -1178 0
49 -1110 -1179 0
49 -1110 -1180 0
49 -1110 -1181 0
49 -1110 -1182 0
49 -1110 -1183 0
49 -1110 -1184 0
49 -1110 -1185 0
49 -1111 -1178 0
49 -1111 -1179 0
49 -1111 -1180 0
49 -1111 -1181 0
49 -1111 -1182 0
49 -1111 -1183 0
49 -1111 -1184 0
49 -1111 -1185 0
49 -1111 -1186 0
49 -1112 -1179 0
49 -1112 -1180 0
49 -1112 -1181 0
49 -1112 -1182 0
49 -1112 -1183 0
49 -1112 -1184 0
49 -1112 -1185 0
49 -1112 -1186 0
49 -1113 -1180 0
49 -1113 -1181 0
49 -1113 -1182 0
49 -1113 -1183 0
49 -1113 -1184 0
49 -1113 -1185 0
49 -1113 -1186 0
49 -1114 -1181 0
49 -1114 -1182 0
49 -1114 -1183 0
49 -1114 -1184 0
49 -1114 -1185 0
49 -1114 -1186 0
49 -1115 -1182 0
49 -1115 -1183 0
49 -1115 -1184 0
49 -1115 -1185 0
49 -1115 -1186 0
49 -1115 -1187 0
49 -1116 -1186 0
49 -1116 -1187 0
49 -1116 -1188 0
49 -1117 -1187 0
49 -1117 -1188 0
49 -1118 -1187 0
49 -1118 -1188 0
49 -1119 -1187 0
49 -1119 -1188 0
49 -1120 -1187 0
49 -1120 -1188 0
49 -1121 -1188 0
49 -1125 -1151 0
49 -1125 -1152 0
49 -1125 -1153 0
49 -1125 -1154 0
49 -1125 -1155 0
49 -1126 -1151 0
49 -1126 -1152 0
49 -1126 -1153 0
49 -1126 -1154 0
49 -1126 -1155 0
49 -1126 -1156 0
49 -1127 -1151 0
49 -1127 -1152 0
49 -1127 -1153 0
49 -1127 -1154 0
49 -1127 -1155 0
49 -1127 -1156 0
49 -1127 -1157 0
49 -1128 -1151 0
49 -1128 -1152 0
49 -1128 -1153 0
49 -1128 -1154 0
49 -1128 -1155 0
49 -1128 -1156 0
49 -1128 -1157 0
49 -1128 -1158 0
49 -1129 -1151 0
49 -1129 -1152 0
49 -1129 -1153 0
49 -1129 -1154 0
49 -1129 -1155 0
49 -1129 -1156 0
49 -1129 -1157 0
49 -1129 -1158 0
49 -1129 -1159 0
49 -1130 -1152 0
49 -1130 -1153 0
49 -1130 -1154 0
49 -1130 -1155 0
49 -1130 -1156 0
49 -1130 -1157 0
49 -1130 -1158 0
49 -1130 -1159 0
49 -1131 -1153 0
49 -1131 -1154 0
49 -1131 -1155 0
49 -1131 -1156 0
49 -1131 -1157 0
49 -1131 -1158 0
49 -1131 -1159 0
49 -1132 -1154 0
49 -1132 -1155 0
49 -1132 -1156 0
49 -1132 -1157 0
49 -1132 -1158 0
49 -1132 -1159 0
49 -1133 -1155 0
49 -1133 -1156 0
49 -1133 -1157 0
49 -1133 -1158 0
49 -1133 -1159 0
49 -1134 -1160 0
49 -1134 -1161 0
49 -1134 -1162 0
49 -1134 -1163 0
49 -1134 -1164 0
49 -1135 -1160 0
49 -1135 -1161 0
49 -1135 -1162 0
49 -1135 -1163 0
49 -1135 -1164 0
49 -1135 -1165 0
49 -1136 -1160 0
49 -1136 -1161 0
49 -1136 -1162 0
49 -1136 -1163 0
49 -1136 -1164 0
49 -1136 -1165 0
49 -1136 -1166 0
49 -1137 -1160 0
49 -1137 -1161 0
49 -1137 -1162 0
49 -1137 -1163 0
49 -1137 -1164 0
49 -1137 -1165 0
49 -1137 -1166 0
49 -1137 -1167 0
49 -1138 -1160 0
49 -1138 -1161 0
49 -1138 -1162 0
49 -1138 -1163 0
49 -1138 -1164 0
49 -1138 -1165 0
49 -1138 -1166 0
49 -1138 -1167 0
49 -1139 -1161 0
49 -1139 -1162 0
49 -1139 -1163 0
49 -1139 -1164 0
49 -1139 -1165 0
49 -1139 -1166 0
49 -1139 -1167 0
49 -1140 -1162 0
49 -1140 -1163 0
49 -1140 -1164 0
49 -1140 -1165 0
49 -1140 -1166 0
49 -1140 -1167 0
49 -1141 -1163 0
49 -1141 -1164 0
49 -1141 -1165 0
49 -1141 -1166 0
49 -1141 -1167 0
49 -1142 -1168 0
49 -1142 -1169 0
49 -1143 -1168 0
49 -1143 -1169 0
49 -1144 -1168 0
49 -1144 -1169 0
49 -1145 -1168 0
49 -1145 -1169 0
49 -1146 -1168 0
49 -1146 -1169 0
49 -1147 -1169 0
49 -1125 -1170 0
49 -1125 -1171 0
49 -1125 -1172 0
49 -1125 -1173 0
49 -1125 -1174 0
49 -1125 -1175 0
49 -1125 -1176 0
49 -1125 -1177 0
49 -1126 -1170 0
49 -1126 -1171 0
49 -1126 -1172 0
49 -1126 -1173 0
49 -1126 -1174 0
49 -1126 -1175 0
49 -1126 -1176 0
49 -1126 -1177 0
49 -1126 -1178 0
49 -1127 -1170 0
49 -1127 -1171 0
49 -1127 -1172 0
49 -1127 -1173 0
49 -1127 -1174 0
49 -1127 -1175 0
49 -1127 -1176 0
49 -1127 -1177 0
49 -1127 -1178 0
49 -1127 -1179 0
49 -1128 -1170 0
49 -1128 -1171 0
49 -1128 -1172 0
49 -1128 -1173 0
49 -1128 -1174 0
49 -1128 -1175 0
49 -1128 -1176 0
49 -1128 -1177 0
49 -1128 -1178 0
49 -1128 -1179 0
49 -1128 -1180 0
49 -1129 -1170 0
49 -1129 -1171 0
49 -1129 -1172 0
49 -1129 -1173 0
49 -1129 -1174 0
49 -1129 -1175 0
49 -1129 -1176 0
49 -1129 -1177 0
49 -1129 -1178 0
49 -1129 -1179 0
49 -1129 -1180 0
49 -1129 -1181 0
49 -1130 -1170 0
49 -1130 -1171 0
49 -1130 -1172 0
49 -1130 -1173 0
49 -1130 -1174 0
49 -1130 -1175 0
49 -1130 -1176 0
49 -1130 -1177 0
49 -1130 -1178 0
49 -1130 -1179 0
49 -1130 -1180 0
49 -1130 -1181 0
49 -1130 -1182 0
49 -1131 -1170 0
49 -1131 -1171 0
49 -1131 -1172 0
49 -1131 -1173 0
49 -1131 -1174 0
49 -1131 -1175 0
49 -1131 -1176 0
49 -1131 -1177 0
49 -1131 -1178 0
49 -1131 -1179 0
49 -1131 -1180 0
49 -1131 -1181 0
49 -1131 -1182 0
49 -1131 -1183 0
49 -1132 -1170 0
49 -1132 -1171 0
49 -1132 -1172 0
49 -1132 -1173 0
49 -1132 -1174 0
49 -1132 -1175 0
49 -1132 -1176 0
49 -1132 -1177 0
49 -1132 -1178 0
49 -1132 -1179 0
49 -1132 -1180 0
49 -1132 -1181 0
49 -1132 -1182 0
49 -1132 -1183 0
49 -1132 -1184 0
49 -1133 -1170 0
49 -1133 -1171 0
49 -1133 -1172 0
49 -1133 -1173 0
49 -1133 -1174 0
49 -1133 -1175 0
49 -1133 -1176 0
49 -1133 -1177 0
49 -1133 -1178 0
49 -1133 -1179 0
49 -1133 -1180 0
49 -1133 -1181 0
49 -1133 -1182 0
49 -1133 -1183 0
49 -1133 -1184 0
49 -1133 -1185 0
49 -1134 -1171 0
49 -1134 -1172 0
49 -1134 -1173 0
49 -1134 -1174 0
49 -1134 -1175 0
49 -1134 -1176 0
49 -1134 -1177 0
49 -1134 -1178 0
49 -1134 -1179 0
49 -1134 -1180 0
49 -1134 -1181 0
49 -1134 -1182 0
49 -1134 -1183 0
49 -1134 -1184 0
49 -1134 -1185 0
49 -1134 -1186 0
49 -1134 -1187 0
49 -1134 -1188 0
49 -1135 -1172 0
49 -1135 -1173 0
49 -1135 -1174 0
49 -1135 -1175 0
49 -1135 -1176 0
49 -1135 -1177 0
49 -1135 -1178 0
49 -1135 -1179 0
49 -1135 -1180 0
49 -1135 -1181 0
49 -1135 -1182 0
49 -1135 -1183 0
49 -1135 -1184 0
49 -1135 -1185 0
49 -1135 -1186 0
49 -1135 -1187 0
49 -1135 -1188 0
49 -1136 -1173 0
49 -1136 -1174 0
49 -1136 -1175 0
49 -1136 -1176 0
49 -1136 -1177 0
49 -1136 -1178 0
49 -1136 -1179 0
49 -1136 -1180 0
49 -1136 -1181 0
49 -1136 -1182 0
49 -1136 -1183 0
49 -1136 -1184 0
49 -1136 -1185 0
49 -1136 -1186 0
49 -1136 -1187 0
49 -1136 -1188 0
49 -1137 -1174 0
49 -1137 -1175 0
49 -1137 -1176 0
49 -1137 -1177 0
49 -1137 -1178 0
49 -1137 -1179 0
49 -1137 -1180 0
49 -1137 -1181 0
49 -1137 -1182 0
49 -1137 -1183 0
49 -1137 -1184 0
49 -1137 -1185 0
49 -1137 -1186 0
49 -1137 -1187 0
49 -1137 -1188 0
49 -1138 -1175 0
49 -1138 -1176 0
49 -1138 -1177 0
49 -1138 -1178 0
49 -1138 -1179 0
49 -1138 -1180 0
49 -1138 -1181 0
49 -1138 -1182 0
49 -1138 -1183 0
49 -1138 -1184 0
49 -1138 -1185 0
49 -1138 -1186 0
49 -1138 -1187 0
49 -1138 -1188 0
49 -1139 -1176 0
49 -1139 -1177 0
49 -1139 -1178 0
49 -1139 -1179 0
49 -1139 -1180 0
49 -1139 -1181 0
49 -1139 -1182 0
49 -1139 -1183 0
49 -1139 -1184 0
49 -1139 -1185 0
49 -1139 -1186 0
49 -1139 -1187 0
49 -1139 -1188 0
49 -1140 -1177 0
49 -1140 -1178 0
49 -1140 -1179 0
49 -1140 -1180 0
49 -1140 -1181 0
49 -1140 -1182 0
49 -1140 -1183 0
49 -1140 -1184 0
49 -1140 -1185 0
49 -1140 -1186 0
49 -1140 -1187 0
49 -1140 -1188 0
49 -1141 -1178 0
49 -1141 -1179 0
49 -1141 -1180 0
49 -1141 -1181 0
49 -1141 -1182 0
49 -1141 -1183 0
49 -1141 -1184 0
49 -1141 -1185 0
49 -1141 -1186 0
49 -1141 -1187 0
49 -1141 -1188 0
49 -1142 -1188 0
49 -1151 1178 0
49 -1152 1179 0
49 -1153 1180 0
49 -1154 1181 0
49 -1155 1182 0
49 -1156 1183 0
49 -1157 1184 0
49 -1158 1185 0
49 -1159 1186 0
49 -1160 1170 0
49 -1161 1171 0
49 -1162 1172 0
49 -1163 1173 0
49 -1164 1174 0
49 -1165 1175 0
49 -1166 1176 0
49 -1167 1177 0
49 -1168 1187 0
49 -1169 1188 0
49 -1189 1190 0
49 -1191 1199 0
49 -1192 1200 0
49 -1193 1201 0
49 -1194 1202 0
49 -1195 1203 0
49 -1196 1204 0
49 -1197 1205 0
49 -1198 1206 0
49 -1196 -1207 0
49 -1197 -1207 0
49 -1197 -1208 0
49 -1198 -1207 0
49 -1198 -1208 0
49 -1198 -1209 0
49 -1200 -1207 0
49 -1201 -1207 0
49 -1201 -1208 0
49 -1202 -1207 0
49 -1202 -1208 0
49 -1202 -1209 0
49 -1203 -1207 0
49 -1203 -1208 0
49 -1203 -1209 0
49 -1204 -1207 0
49 -1204 -1208 0
49 -1204 -1209 0
49 -1205 -1207 0
49 -1205 -1208 0
49 -1205 -1209 0
49 -1206 -1207 0
49 -1206 -1208 0
49 -1206 -1209 0
49 -1204 -1219 0
49 -1205 -1219 0
49 -1205 -1220 0
49 -1206 -1219 0
49 -1206 -1220 0
49 -1206 -1221 0
49 -1207 1228 0
49 -1208 1229 0
49 -1209 1230 0
49 -1210 1219 0
49 -1211 1220 0
49 -1212 1221 0
49 -1213 1222 0
49 -1214 1223 0
49 -1215 1224 0
49 -1216 1225 0
49 -1217 1226 0
49 -1218 1227 0
49 -1207 -1240 0
49 -1207 -1241 0
49 -1207 -1242 0
49 -1207 -1243 0
49 -1207 -1244 0
49 -1208 -1241 0
49 -1208 -1242 0
49 -1208 -1243 0
49 -1208 -1244 0
49 -1209 -1242 0
49 -1209 -1243 0
49 -1209 -1244 0
49 -1219 -1244 0
49 -1231 1238 0
49 -1232 1239 0
49 -1233 1240 0
49 -1234 1241 0
49 -1235 1242 0
49 -1236 1243 0
49 -1237 1244 0
49 -1245 1246 0
49 -1247 1248 0
49 -1249 1253 0
49 -1250 1254 0
49 -1251 1255 0
49 -1252 1256 0
49 -1253 -1958 0
49 -1253 -1959 0
49 -1253 -1960 0
49 -1254 -1959 0
49 -1254 -1960 0
49 -1255 -1960 0
49 -1257 1260 0
49 -1258 1261 0
49 -1259 1262 0
49 -1263 1264 0
49 -1265 1266 0
49 -1267 1268 0
49 -1269 1270 0
49 -1271 1272 0
49 -1273 1274 0
49 -1275 1279 0
49 -1276 1280 0
49 -1277 1281 0
49 -1278 1282 0
49 -1283 1284 0
49 -1285 1286 0
49 -1287 1291 0
49 -1288 1292 0
49 -1289 1293 0
49 -1290 1294 0
49 -1295 1301 0
49 -1296 1302 0
49 -1297 1303 0
49 -1298 1304 0
49 -1299 1305 0
49 -1300 1306 0
49 -1307 1311 0
49 -1308 1312 0
49 -1309 1313 0
49 -1310 1314 0
49 -1315 1316 0
49 -1317 1318 0
49 -1319 1321 0
49 -1320 1322 0
49 -1323 1327 0
49 -1324 1328 0
49 -1325 1329 0
49 -1326 1330 0
49 -1331 1333 0
49 -1332 1334 0
49 -1331 -1386 0
49 -1335 1338 0
49 -1336 1339 0
49 -1337 1340 0
49 -1341 1344 0
49 -1342 1345 0
49 -1343 1346 0
49 -1345 -1347 0
49 -1346 -1347 0
49 -1346 -1348 0
49 -1347 1352 0
49 -1348 1353 0
49 -1349 1354 0
49 -1350 1355 0
49 -1351 1356 0
49 -1357 1359 0
49 -1358 1360 0
49 -1361 1365 0
49 -1362 1366 0
49 -1363 1367 0
49 -1364 1368 0
49 -1369 1373 0
49 -1370 1374 0
49 -1371 1375 0
49 -1372 1376 0
49 -1377 1379 0
49 -1378 1380 0
49 -1381 1383 0
49 -1382 1384 0
49 -1385 1387 0
49 -1386 1388 0
49 -1389 1390 0
49 -1391 1393 0
49 -1392 1394 0
49 -1395 1396 0
49 -1397 1400 0
49 -1398 1401 0
49 -1399 1402 0
49 -1403 1405 0
49 -1404 1406 0
49 -1407 1409 0
49 -1408 1410 0
49 -1411 1412 0
49 -1413 1416 0
49 -1414 1417 0
49 -1415 1418 0
49 -1419 1424 0
49 -1420 1425 0
49 -1421 1426 0
49 -1422 1427 0
49 -1423 1428 0
49 -1424 -1435 0
49 -1424 -1436 0
49 -1425 -1436 0
49 -1429 1437 0
49 -1430 1438 0
49 -1431 1439 0
49 -1432 1440 0
49 -1433 1441 0
49 -1434 1442 0
49 -1435 1443 0
49 -1436 1444 0
49 -1434 -1445 0
49 -1435 -1445 0
49 -1435 -1446 0
49 -1436 -1445 0
49 -1436 -1446 0
49 -1436 -1447 0
49 -1445 1449 0
49 -1446 1450 0
49 -1447 1451 0
49 -1448 1452 0
49 -1445 -1458 0
49 -1445 -1459 0
49 -1445 -1460 0
49 -1446 -1459 0
49 -1446 -1460 0
49 -1447 -1460 0
49 -1449 -1454 0
49 -1449 -1455 0
49 -1449 -1456 0
49 -1450 -1455 0
49 -1450 -1456 0
49 -1451 -1456 0
49 -1453 1457 0
49 -1454 1458 0
49 -1455 1459 0
49 -1456 1460 0
49 -1461 1465 0
49 -1462 1466 0
49 -1463 1467 0
49 -1464 1468 0
49 -1469 1471 0
49 -1470 1472 0
49 -1470 -1473 0
49 -1472 -1475 0
49 -1473 1475 0
49 -1474 1476 0
49 -1477 1480 0
49 -1478 1481 0
49 -1479 1482 0
49 -1477 -1484 0
49 -1477 -1485 0
49 -1478 -1485 0
49 -1480 -1487 0
49 -1480 -1488 0
49 -1481 -1488 0
49 -1483 1486 0
49 -1484 1487 0
49 -1485 1488 0
49 -1483 -1493 0
49 -1483 -1494 0
49 -1484 -1494 0
49 -1489 1492 0
49 -1490 1493 0
49 -1491 1494 0
49 -1489 -1499 0
49 -1489 -1500 0
49 -1490 -1500 0
49 -1492 -1497 0
49 -1493 -1501 0
49 -1494 -1501 0
49 -1494 -1502 0
49 -1495 1498 0
49 -1496 1499 0
49 -1497 1500 0
49 -1501 1507 0
49 -1502 1508 0
49 -1503 1509 0
49 -1504 1510 0
49 -1505 1511 0
49 -1506 1512 0
49 -1513 1514 0
49 -1515 1521 0
49 -1516 1522 0
49 -1517 1523 0
49 -1518 1524 0
49 -1519 1525 0
49 -1520 1526 0
49 -1527 1529 0
49 -1528 1530 0
49 -1531 1533 0
49 -1532 1534 0
49 -1532 -1535 0
49 -1534 -1539 0
49 -1535 1539 0
49 -1536 1540 0
49 -1537 1541 0
49 -1538 1542 0
49 -1543 1548 0
49 -1544 1549 0
49 -1545 1550 0
49 -1546 1551 0
49 -1547 1552 0
49 -1545 -1701 0
49 -1546 -1701 0
49 -1546 -1702 0
49 -1547 -1701 0
49 -1547 -1702 0
49 -1547 -1703 0
49 -1543 -1708 0
49 -1550 -1705 0
49 -1551 -1705 0
49 -1551 -1706 0
49 -1552 -1705 0
49 -1552 -1706 0
49 -1552 -1707 0
49 -1553 1554 0
49 -1555 1556 0
49 -1557 1558 0
49 -1559 1567 0
49 -1560 1568 0
49 -1561 1569 0
49 -1562 1570 0
49 -1563 1571 0
49 -1564 1572 0
49 -1565 1573 0
49 -1566 1574 0
49 -1575 1578 0
49 -1576 1579 0
49 -1577 1580 0
49 -1579 -1581 0
49 -1580 -1581 0
49 -1580 -1582 0
49 -1581 1589 0
49 -1582 1590 0
49 -1583 1591 0
49 -1584 1592 0
49 -1585 1593 0
49 -1586 1594 0
49 -1587 1595 0
49 -1588 1596 0
49 -1581 -1859 0
49 -1581 -1860 0
49 -1582 -1860 0
49 -1581 -1870 0
49 -1582 -1870 0
49 -1583 -1870 0
49 -1584 -1870 0
49 -1585 -1870 0
49 -1586 -1870 0
49 -1587 -1870 0
49 -1597 1602 0
49 -1598 1603 0
49 -1599 1604 0
49 -1600 1605 0
49 -1601 1606 0
49 -1597 -1608 0
49 -1597 -1609 0
49 -1597 -1610 0
49 -1597 -1611 0
49 -1597 -1612 0
49 -1598 -1609 0
49 -1598 -1610 0
49 -1598 -1611 0
49 -1598 -1612 0
49 -1599 -1610 0
49 -1599 -1611 0
49 -1599 -1612 0
49 -1600 -1611 0
49 -1600 -1612 0
49 -1597 -1618 0
49 -1597 -1638 0
49 -1597 -1639 0
49 -1598 -1639 0
49 -1599 -1639 0
49 -1600 -1639 0
49 -1597 -1722 0
49 -1597 -1723 0
49 -1597 -1724 0
49 -1598 -1723 0
49 -1598 -1724 0
49 -1599 -1724 0
49 -1602 -1612 0
49 -1602 -1634 0
49 -1607 1613 0
49 -1608 1614 0
49 -1609 1615 0
49 -1610 1616 0
49 -1611 1617 0
49 -1612 1618 0
49 -1611 -1619 0
49 -1611 -1620 0
49 -1612 -1619 0
49 -1612 -1620 0
49 -1612 -1621 0
49 -1609 -1627 0
49 -1610 -1627 0
49 -1610 -1628 0
49 -1611 -1627 0
49 -1611 -1628 0
49 -1611 -1629 0
49 -1611 -1630 0
49 -1611 -1631 0
49 -1611 -1632 0
49 -1612 -1627 0
49 -1612 -1628 0
49 -1612 -1629 0
49 -1612 -1630 0
49 -1612 -1631 0
49 -1612 -1632 0
49 -1612 -1633 0
49 -1607 -1720 0
49 -1608 -1720 0
49 -1608 -1721 0
49 -1609 -1720 0
49 -1609 -1721 0
49 -1609 -1722 0
49 -1610 -1720 0
49 -1610 -1721 0
49 -1610 -1722 0
49 -1610 -1723 0
49 -1611 -1721 0
49 -1611 -1722 0
49 -1611 -1723 0
49 -1611 -1724 0
49 -1612 -1721 0
49 -1612 -1722 0
49 -1612 -1723 0
49 -1612 -1724 0
49 -1617 -1627 0
49 -1617 -1628 0
49 -1618 -1627 0
49 -1618 -1628 0
49 -1618 -1629 0
49 -1613 -1715 0
49 -1614 -1715 0
49 -1614 -1716 0
49 -1615 -1715 0
49 -1615 -1716 0
49 -1615 -1717 0
49 -1616 -1715 0
49 -1616 -1716 0
49 -1616 -1717 0
49 -1616 -1718 0
49 -1617 -1716 0
49 -1617 -1717 0
49 -1617 -1718 0
49 -1617 -1719 0
49 -1618 -1716 0
49 -1618 -1717 0
49 -1618 -1718 0
49 -1618 -1719 0
49 -1614 -1720 0
49 -1615 -1720 0
49 -1616 -1720 0
49 -1617 -1720 0
49 -1618 -1720 0
49 -1618 -1721 0
49 -1619 1627 0
49 -1620 1628 0
49 -1621 1629 0
49 -1622 1630 0
49 -1623 1631 0
49 -1624 1632 0
49 -1625 1633 0
49 -1626 1634 0
49 -1619 -1649 0
49 -1619 -1650 0
49 -1619 -1651 0
49 -1619 -1652 0
49 -1619 -1653 0
49 -1620 -1650 0
49 -1620 -1651 0
49 -1620 -1652 0
49 -1620 -1653 0
49 -1621 -1651 0
49 -1621 -1652 0
49 -1621 -1653 0
49 -1622 -1651 0
49 -1622 -1652 0
49 -1622 -1653 0
49 -1623 -1651 0
49 -1623 -1652 0
49 -1623 -1653 0
49 -1624 -1652 0
49 -1624 -1653 0
49 -1625 -1653 0
49 -1619 -1654 0
49 -1619 -1655 0
49 -1619 -1656 0
49 -1619 -1657 0
49 -1619 -1658 0
49 -1619 -1659 0
49 -1620 -1654 0
49 -1620 -1655 0
49 -1620 -1656 0
49 -1620 -1657 0
49 -1620 -1658 0
49 -1620 -1659 0
49 -1620 -1660 0
49 -1621 -1655 0
49 -1621 -1656 0
49 -1621 -1657 0
49 -1621 -1658 0
49 -1621 -1659 0
49 -1621 -1660 0
49 -1621 -1661 0
49 -1622 -1656 0
49 -1622 -1657 0
49 -1622 -1658 0
49 -1622 -1659 0
49 -1622 -1660 0
49 -1622 -1661 0
49 -1622 -1662 0
49 -1623 -1657 0
49 -1623 -1658 0
49 -1623 -1659 0
49 -1623 -1660 0
49 -1623 -1661 0
49 -1623 -1662 0
49 -1624 -1658 0
49 -1624 -1659 0
49 -1624 -1660 0
49 -1624 -1661 0
49 -1624 -1662 0
49 -1625 -1659 0
49 -1625 -1660 0
49 -1625 -1661 0
49 -1625 -1662 0
49 -1626 -1660 0
49 -1626 -1661 0
49 -1626 -1662 0
49 -1619 -1667 0
49 -1619 -1668 0
49 -1619 -1669 0
49 -1619 -1670 0
49 -1619 -1671 0
49 -1619 -1672 0
49 -1619 -1673 0
49 -1620 -1668 0
49 -1620 -1669 0
49 -1620 -1670 0
49 -1620 -1671 0
49 -1620 -1672 0
49 -1620 -1673 0
49 -1621 -1669 0
49 -1621 -1670 0
49 -1621 -1671 0
49 -1621 -1672 0
49 -1621 -1673 0
49 -1622 -1670 0
49 -1622 -1671 0
49 -1622 -1672 0
49 -1622 -1673 0
49 -1623 -1671 0
49 -1623 -1672 0
49 -1623 -1673 0
49 -1624 -1672 0
49 -1624 -1673 0
49 -1625 -1673 0
49 -1619 -1674 0
49 -1619 -1675 0
49 -1619 -1676 0
49 -1619 -1677 0
49 -1619 -1678 0
49 -1619 -1679 0
49 -1619 -1680 0
49 -1620 -1675 0
49 -1620 -1676 0
49 -1620 -1677 0
49 -1620 -1678 0
49 -1620 -1679 0
49 -1620 -1680 0
49 -1620 -1681 0
49 -1621 -1676 0
49 -1621 -1677 0
49 -1621 -1678 0
49 -1621 -1679 0
49 -1621 -1680 0
49 -1621 -1681 0
49 -1621 -1682 0
49 -1622 -1677 0
49 -1622 -1678 0
49 -1622 -1679 0
49 -1622 -1680 0
49 -1622 -1681 0
49 -1622 -1682 0
49 -1622 -1683 0
49 -1623 -1678 0
49 -1623 -1679 0
49 -1623 -1680 0
49 -1623 -1681 0
49 -1623 -1682 0
49 -1623 -1683 0
49 -1623 -1684 0
49 -1624 -1679 0
49 -1624 -1680 0
49 -1624 -1681 0
49 -1624 -1682 0
49 -1624 -1683 0
49 -1624 -1684 0
49 -1625 -1680 0
49 -1625 -1681 0
49 -1625 -1682 0
49 -1625 -1683 0
49 -1625 -1684 0
49 -1626 -1681 0
49 -1626 -1682 0
49 -1626 -1683 0
49 -1626 -1684 0
49 -1627 -1636 0
49 -1627 -1637 0
49 -1627 -1638 0
49 -1627 -1639 0
49 -1628 -1637 0
49 -1628 -1638 0
49 -1628 -1639 0
49 -1629 -1638 0
49 -1629 -1639 0
49 -1630 -1639 0
49 -1631 -1639 0
49 -1632 -1639 0
49 -1633 -1639 0
49 -1627 -1645 0
49 -1627 -1646 0
49 -1627 -1647 0
49 -1627 -1648 0
49 -1627 -1649 0
49 -1627 -1650 0
49 -1628 -1645 0
49 -1628 -1646 0
49 -1628 -1647 0
49 -1628 -1648 0
49 -1628 -1649 0
49 -1628 -1650 0
49 -1628 -1651 0
49 -1629 -1646 0
49 -1629 -1647 0
49 -1629 -1648 0
49 -1629 -1649 0
49 -1629 -1650 0
49 -1629 -1651 0
49 -1629 -1652 0
49 -1630 -1647 0
49 -1630 -1648 0
49 -1630 -1649 0
49 -1630 -1650 0
49 -1630 -1651 0
49 -1630 -1652 0
49 -1630 -1653 0
49 -1631 -1648 0
49 -1631 -1649 0
49 -1631 -1650 0
49 -1631 -1651 0
49 -1631 -1652 0
49 -1631 -1653 0
49 -1632 -1649 0
49 -1632 -1650 0
49 -1632 -1651 0
49 -1632 -1652 0
49 -1632 -1653 0
49 -1633 -1650 0
49 -1633 -1651 0
49 -1633 -1652 0
49 -1633 -1653 0
49 -1634 -1651 0
49 -1634 -1652 0
49 -1634 -1653 0
49 -1633 -1654 0
49 -1634 -1654 0
49 -1634 -1655 0
49 -1627 -1663 0
49 -1627 -1664 0
49 -1627 -1665 0
49 -1627 -1666 0
49 -1627 -1667 0
49 -1627 -1668 0
49 -1627 -1669 0
49 -1628 -1664 0
49 -1628 -1665 0
49 -1628 -1666 0
49 -1628 -1667 0
49 -1628 -1668 0
49 -1628 -1669 0
49 -1628 -1670 0
49 -1629 -1665 0
49 -1629 -1666 0
49 -1629 -1667 0
49 -1629 -1668 0
49 -1629 -1669 0
49 -1629 -1670 0
49 -1629 -1671 0
49 -1630 -1666 0
49 -1630 -1667 0
49 -1630 -1668 0
49 -1630 -1669 0
49 -1630 -1670 0
49 -1630 -1671 0
49 -1630 -1672 0
49 -1631 -1667 0
49 -1631 -1668 0
49 -1631 -1669 0
49 -1631 -1670 0
49 -1631 -1671 0
49 -1631 -1672 0
49 -1631 -1673 0
49 -1632 -1668 0
49 -1632 -1669 0
49 -1632 -1670 0
49 -1632 -1671 0
49 -1632 -1672 0
49 -1632 -1673 0
49 -1633 -1669 0
49 -1633 -1670 0
49 -1633 -1671 0
49 -1633 -1672 0
49 -1633 -1673 0
49 -1634 -1670 0
49 -1634 -1671 0
49 -1634 -1672 0
49 -1634 -1673 0
49 -1632 -1674 0
49 -1633 -1674 0
49 -1633 -1675 0
49 -1634 -1674 0
49 -1634 -1675 0
49 -1634 -1676 0
49 -1627 -1721 0
49 -1627 -1722 0
49 -1627 -1723 0
49 -1627 -1724 0
49 -1628 -1722 0
49 -1628 -1723 0
49 -1628 -1724 0
49 -1629 -1723 0
49 -1629 -1724 0
49 -1630 -1724 0
49 -1635 1640 0
49 -1636 1641 0
49 -1637 1642 0
49 -1638 1643 0
49 -1639 1644 0
49 -1637 -1645 0
49 -1638 -1645 0
49 -1638 -1646 0
49 -1639 -1645 0
49 -1639 -1646 0
49 -1639 -1647 0
49 -1639 -1648 0
49 -1639 -1649 0
49 -1639 -1650 0
49 -1637 -1663 0
49 -1638 -1663 0
49 -1638 -1664 0
49 -1639 -1663 0
49 -1639 -1664 0
49 -1639 -1665 0
49 -1639 -1666 0
49 -1639 -1667 0
49 -1639 -1668 0
49 -1635 -1719 0
49 -1635 -1720 0
49 -1636 -1720 0
49 -1636 -1721 0
49 -1637 -1720 0
49 -1637 -1721 0
49 -1637 -1722 0
49 -1638 -1720 0
49 -1638 -1721 0
49 -1638 -1722 0
49 -1638 -1723 0
49 -1639 -1721 0
49 -1639 -1722 0
49 -1639 -1723 0
49 -1639 -1724 0
49 -1640 -1715 0
49 -1641 -1715 0
49 -1641 -1716 0
49 -1642 -1715 0
49 -1642 -1716 0
49 -1642 -1717 0
49 -1643 -1715 0
49 -1643 -1716 0
49 -1643 -1717 0
49 -1643 -1718 0
49 -1644 -1716 0
49 -1644 -1717 0
49 -1644 -1718 0
49 -1644 -1719 0
49 -1641 -1720 0
49 -1642 -1720 0
49 -1643 -1720 0
49 -1644 -1720 0
49 -1645 1654 0
49 -1646 1655 0
49 -1647 1656 0
49 -1648 1657 0
49 -1649 1658 0
49 -1650 1659 0
49 -1651 1660 0
49 -1652 1661 0
49 -1653 1662 0
49 -1645 -1663 0
49 -1646 -1664 0
49 -1647 -1665 0
49 -1648 -1666 0
49 -1649 -1667 0
49 -1650 -1668 0
49 -1651 -1671 0
49 -1652 -1672 0
49 -1653 -1673 0
49 -1649 -1674 0
49 -1650 -1674 0
49 -1650 -1675 0
49 -1651 -1674 0
49 -1651 -1675 0
49 -1651 -1676 0
49 -1651 -1677 0
49 -1651 -1678 0
49 -1652 -1674 0
49 -1652 -1675 0
49 -1652 -1676 0
49 -1652 -1677 0
49 -1652 -1678 0
49 -1652 -1679 0
49 -1653 -1674 0
49 -1653 -1675 0
49 -1653 -1676 0
49 -1653 -1677 0
49 -1653 -1678 0
49 -1653 -1679 0
49 -1653 -1680 0
49 -1645 -1722 0
49 -1645 -1723 0
49 -1645 -1724 0
49 -1646 -1723 0
49 -1646 -1724 0
49 -1647 -1724 0
49 -1654 -1668 0
49 -1654 -1669 0
49 -1654 -1670 0
49 -1654 -1671 0
49 -1654 -1672 0
49 -1654 -1673 0
49 -1655 -1669 0
49 -1655 -1670 0
49 -1655 -1671 0
49 -1655 -1672 0
49 -1655 -1673 0
49 -1656 -1670 0
49 -1656 -1671 0
49 -1656 -1672 0
49 -1656 -1673 0
49 -1657 -1671 0
49 -1657 -1672 0
49 -1657 -1673 0
49 -1658 -1672 0
49 -1658 -1673 0
49 -1659 -1673 0
49 -1654 -1674 0
49 -1655 -1675 0
49 -1656 -1676 0
49 -1657 -1677 0
49 -1658 -1678 0
49 -1659 -1679 0
49 -1660 -1682 0
49 -1661 -1683 0
49 -1662 -1684 0
49 -1663 1674 0
49 -1664 1675 0
49 -1665 1676 0
49 -1666 1677 0
49 -1667 1678 0
49 -1668 1679 0
49 -1669 1680 0
49 -1670 1681 0
49 -1671 1682 0
49 -1672 1683 0
49 -1673 1684 0
49 -1663 -1722 0
49 -1663 -1723 0
49 -1663 -1724 0
49 -1664 -1723 0
49 -1664 -1724 0
49 -1665 -1724 0
49 -1685 1689 0
49 -1686 1690 0
49 -1687 1691 0
49 -1688 1692 0
49 -1689 -1704 0
49 -1693 1694 0
49 -1695 1698 0
49 -1696 1699 0
49 -1697 1700 0
49 -1695 -1789 0
49 -1695 -1790 0
49 -1696 -1790 0
49 -1701 1705 0
49 -1702 1706 0
49 -1703 1707 0
49 -1704 1708 0
49 -1709 1712 0
49 -1710 1713 0
49 -1711 1714 0
49 -1710 -1749 0
49 -1711 -1749 0
49 -1711 -1750 0
49 -1709 -1774 0
49 -1709 -1849 0
49 -1709 -1850 0
49 -1710 -1850 0
49 -1713 -1745 0
49 -1714 -1745 0
49 -1714 -1746 0
49 -1715 1720 0
49 -1716 1721 0
49 -1717 1722 0
49 -1718 1723 0
49 -1719 1724 0
49 -1725 1726 0
49 -1727 1736 0
49 -1728 1737 0
49 -1729 1738 0
49 -1730 1739 0
49 -1731 1740 0
49 -1732 1741 0
49 -1733 1742 0
49 -1734 1743 0
49 -1735 1744 0
49 -1727 -1893 0
49 -1727 -1894 0
49 -1727 -1895 0
49 -1727 -1896 0
49 -1727 -1897 0
49 -1728 -1893 0
49 -1728 -1894 0
49 -1728 -1895 0
49 -1728 -1896 0
49 -1728 -1897 0
49 -1728 -1898 0
49 -1729 -1893 0
49 -1729 -1894 0
49 -1729 -1895 0
49 -1729 -1896 0
49 -1729 -1897 0
49 -1729 -1898 0
49 -1729 -1899 0
49 -1730 -1894 0
49 -1730 -1895 0
49 -1730 -1896 0
49 -1730 -1897 0
49 -1730 -1898 0
49 -1730 -1899 0
49 -1730 -1900 0
49 -1731 -1895 0
49 -1731 -1896 0
49 -1731 -1897 0
49 -1731 -1898 0
49 -1731 -1899 0
49 -1731 -1900 0
49 -1731 -1901 0
49 -1732 -1896 0
49 -1732 -1897 0
49 -1732 -1898 0
49 -1732 -1899 0
49 -1732 -1900 0
49 -1732 -1901 0
49 -1732 -1902 0
49 -1733 -1897 0
49 -1733 -1898 0
49 -1733 -1899 0
49 -1733 -1900 0
49 -1733 -1901 0
49 -1733 -1902 0
49 -1733 -1903 0
49 -1734 -1898 0
49 -1734 -1899 0
49 -1734 -1900 0
49 -1734 -1901 0
49 -1734 -1902 0
49 -1734 -1903 0
49 -1735 -1899 0
49 -1735 -1900 0
49 -1735 -1901 0
49 -1735 -1902 0
49 -1735 -1903 0
49 -1735 -1904 0
49 -1736 -1897 0
49 -1736 -1898 0
49 -1736 -1899 0
49 -1736 -1900 0
49 -1736 -1901 0
49 -1736 -1902 0
49 -1736 -1903 0
49 -1737 -1898 0
49 -1737 -1899 0
49 -1737 -1900 0
49 -1737 -1901 0
49 -1737 -1902 0
49 -1737 -1903 0
49 -1738 -1899 0
49 -1738 -1900 0
49 -1738 -1901 0
49 -1738 -1902 0
49 -1738 -1903 0
49 -1739 -1900 0
49 -1739 -1901 0
49 -1739 -1902 0
49 -1739 -1903 0
49 -1740 -1901 0
49 -1740 -1902 0
49 -1740 -1903 0
49 -1741 -1902 0
49 -1741 -1903 0
49 -1742 -1903 0
49 -1745 1749 0
49 -1746 1750 0
49 -1747 1751 0
49 -1748 1752 0
49 -1753 1756 0
49 -1754 1757 0
49 -1755 1758 0
49 -1753 -1913 0
49 -1753 -1914 0
49 -1754 -1914 0
49 -1759 1767 0
49 -1760 1768 0
49 -1761 1769 0
49 -1762 1770 0
49 -1763 1771 0
49 -1764 1772 0
49 -1765 1773 0
49 -1766 1774 0
49 -1775 1783 0
49 -1776 1784 0
49 -1777 1785 0
49 -1778 1786 0
49 -1779 1787 0
49 -1780 1788 0
49 -1781 1789 0
49 -1782 1790 0
49 -1788 -1888 0
49 -1789 -1888 0
49 -1789 -1889 0
49 -1790 -1888 0
49 -1790 -1889 0
49 -1790 -1890 0
49 -1791 1793 0
49 -1792 1794 0
49 -1792 -1871 0
49 -1794 -1873 0
49 -1795 1799 0
49 -1796 1800 0
49 -1797 1801 0
49 -1798 1802 0
49 -1803 1811 0
49 -1804 1812 0
49 -1805 1813 0
49 -1806 1814 0
49 -1807 1815 0
49 -1808 1816 0
49 -1809 1817 0
49 -1810 1818 0
49 -1803 -1819 0
49 -1803 -1820 0
49 -1803 -1821 0
49 -1803 -1822 0
49 -1804 -1819 0
49 -1804 -1820 0
49 -1804 -1821 0
49 -1804 -1822 0
49 -1804 -1823 0
49 -1805 -1819 0
49 -1805 -1820 0
49 -1805 -1821 0
49 -1805 -1822 0
49 -1805 -1823 0
49 -1805 -1824 0
49 -1806 -1819 0
49 -1806 -1820 0
49 -1806 -1821 0
49 -1806 -1822 0
49 -1806 -1823 0
49 -1806 -1824 0
49 -1806 -1825 0
49 -1807 -1820 0
49 -1807 -1821 0
49 -1807 -1822 0
49 -1807 -1823 0
49 -1807 -1824 0
49 -1807 -1825 0
49 -1807 -1826 0
49 -1808 -1821 0
49 -1808 -1822 0
49 -1808 -1823 0
49 -1808 -1824 0
49 -1808 -1825 0
49 -1808 -1826 0
49 -1809 -1822 0
49 -1809 -1823 0
49 -1809 -1824 0
49 -1809 -1825 0
49 -1809 -1826 0
49 -1810 -1823 0
49 -1810 -1824 0
49 -1810 -1825 0
49 -1810 -1826 0
49 -1804 -1827 0
49 -1805 -1827 0
49 -1805 -1828 0
49 -1806 -1827 0
49 -1806 -1828 0
49 -1806 -1829 0
49 -1807 -1827 0
49 -1807 -1828 0
49 -1807 -1829 0
49 -1807 -1830 0
49 -1808 -1827 0
49 -1808 -1828 0
49 -1808 -1829 0
49 -1808 -1830 0
49 -1808 -1831 0
49 -1809 -1827 0
49 -1809 -1828 0
49 -1809 -1829 0
49 -1809 -1830 0
49 -1809 -1831 0
49 -1809 -1832 0
49 -1810 -1827 0
49 -1810 -1828 0
49 -1810 -1829 0
49 -1810 -1830 0
49 -1810 -1831 0
49 -1810 -1832 0
49 -1810 -1833 0
49 -1803 -1848 0
49 -1803 -1849 0
49 -1803 -1850 0
49 -1804 -1849 0
49 -1804 -1850 0
49 -1805 -1850 0
49 -1811 -1826 0
49 -1811 -1827 0
49 -1811 -1828 0
49 -1811 -1829 0
49 -1811 -1830 0
49 -1812 -1827 0
49 -1812 -1828 0
49 -1812 -1829 0
49 -1812 -1830 0
49 -1812 -1831 0
49 -1813 -1827 0
49 -1813 -1828 0
49 -1813 -1829 0
49 -1813 -1830 0
49 -1813 -1831 0
49 -1813 -1832 0
49 -1814 -1827 0
49 -1814 -1828 0
49 -1814 -1829 0
49 -1814 -1830 0
49 -1814 -1831 0
49 -1814 -1832 0
49 -1814 -1833 0
49 -1815 -1828 0
49 -1815 -1829 0
49 -1815 -1830 0
49 -1815 -1831 0
49 -1815 -1832 0
49 -1815 -1833 0
49 -1815 -1834 0
49 -1816 -1829 0
49 -1816 -1830 0
49 -1816 -1831 0
49 -1816 -1832 0
49 -1816 -1833 0
49 -1816 -1834 0
49 -1817 -1830 0
49 -1817 -1831 0
49 -1817 -1832 0
49 -1817 -1833 0
49 -1817 -1834 0
49 -1818 -1831 0
49 -1818 -1832 0
49 -1818 -1833 0
49 -1818 -1834 0
49 -1819 1827 0
49 -1820 1828 0
49 -1821 1829 0
49 -1822 1830 0
49 -1823 1831 0
49 -1824 1832 0
49 -1825 1833 0
49 -1826 1834 0
49 -1819 -1845 0
49 -1819 -1846 0
49 -1819 -1847 0
49 -1819 -1848 0
49 -1819 -1849 0
49 -1819 -1850 0
49 -1820 -1846 0
49 -1820 -1847 0
49 -1820 -1848 0
49 -1820 -1849 0
49 -1820 -1850 0
49 -1821 -1847 0
49 -1821 -1848 0
49 -1821 -1849 0
49 -1821 -1850 0
49 -1822 -1848 0
49 -1822 -1849 0
49 -1822 -1850 0
49 -1823 -1850 0
49 -1835 1843 0
49 -1836 1844 0
49 -1837 1845 0
49 -1838 1846 0
49 -1839 1847 0
49 -1840 1848 0
49 -1841 1849 0
49 -1842 1850 0
49 -1851 1870 0
49 -1852 1861 0
49 -1853 1862 0
49 -1854 1863 0
49 -1855 1864 0
49 -1856 1865 0
49 -1857 1866 0
49 -1858 1867 0
49 -1859 1868 0
49 -1860 1869 0
49 -1871 1873 0
49 -1872 1874 0
49 -1871 -1882 0
49 -1873 -1878 0
49 -1875 1879 0
49 -1876 1880 0
49 -1877 1881 0
49 -1878 1882 0
49 -1882 -1888 0
49 -1883 1888 0
49 -1884 1889 0
49 -1885 1890 0
49 -1886 1891 0
49 -1887 1892 0
49 -1893 1904 0
49 -1894 1905 0
49 -1895 1906 0
49 -1896 1907 0
49 -1897 1908 0
49 -1898 1909 0
49 -1899 1910 0
49 -1900 1911 0
49 -1901 1912 0
49 -1902 1913 0
49 -1903 1914 0
49 -1915 1917 0
49 -1916 1918 0
49 -1919 1920 0
49 -1921 1930 0
49 -1922 1931 0
49 -1923 1932 0
49 -1924 1933 0
49 -1925 1934 0
49 -1926 1935 0
49 -1927 1936 0
49 -1928 1937 0
49 -1929 1938 0
49 -1939 1950 0
49 -1940 1951 0
49 -1941 1952 0
49 -1942 1953 0
49 -1943 1954 0
49 -1944 1955 0
49 -1945 1956 0
49 -1946 1957 0
49 -1947 1958 0
49 -1948 1959 0
49 -1949 1960 0
49 -1 3640 0
49 -2 3628 0
49 -3 3613 0
49 -4 3614 0
49 -5 3615 0
49 -6 3616 0
49 -7 3600 0
49 -8 3601 0
49 -9 3602 0
49 -10 3603 0
49 -11 3643 0
49 -12 3632 0
49 -13 3599 0
49 -14 3612 0
49 -15 3599 0
49 -16 3612 0
49 -17 3613 0
49 -18 3614 0
49 -19 3615 0
49 -20 3616 0
49 -21 3617 0
49 -22 3618 0
49 -23 3600 0
49 -24 3601 0
49 -25 3602 0
49 -26 3603 0
49 -27 3604 0
49 -28 3605 0
49 -29 3607 0
49 -30 3620 0
49 -31 3643 0
49 -32 3632 0
49 -33 3599 0
49 -34 3600 0
49 -35 3601 0
49 -36 3602 0
49 -37 3603 0
49 -38 3604 0
49 -39 3605 0
49 -40 3606 0
49 -41 3607 0
49 -42 3608 0
49 -43 3609 0
49 -44 3612 0
49 -45 3613 0
49 -46 3614 0
49 -47 3615 0
49 -48 3616 0
49 -49 3617 0
49 -50 3618 0
49 -51 3619 0
49 -52 3620 0
49 -53 3621 0
49 -54 3622 0
49 -55 3620 0
49 -56 3621 0
49 -57 3622 0
49 -58 3607 0
49 -59 3608 0
49 -60 3609 0
49 -61 3645 0
49 -62 3634 0
49 -63 3624 0
49 -64 3625 0
49 -65 3626 0
49 -66 3636 0
49 -67 3637 0
49 -68 3638 0
49 -69 3599 0
49 -70 3612 0
49 -71 3636 0
49 -72 3624 0
49 -73 3633 0
49 -74 3644 0
49 -75 3615 0
49 -76 3602 0
49 -77 3624 0
49 -78 3626 0
49 -79 3627 0
49 -80 3628 0
49 -81 3630 0
49 -82 3631 0
49 -83 3632 0
49 -84 3633 0
49 -85 3634 0
49 -86 3635 0
49 -87 3636 0
49 -88 3638 0
49 -89 3639 0
49 -90 3640 0
49 -91 3641 0
49 -92 3642 0
49 -93 3643 0
49 -94 3644 0
49 -95 3645 0
49 -96 3646 0
49 -97 3607 0
49 -98 3620 0
49 -99 3599 0
49 -100 3600 0
49 -101 3612 0
49 -102 3613 0
49 -103 3600 0
49 -104 3613 0
49 -105 3640 0
49 -106 3628 0
49 -107 3608 0
49 -108 3609 0
49 -109 3621 0
49 -110 3622 0
49 -111 3636 0
49 -112 3624 0
49 -113 3603 0
49 -114 3604 0
49 -115 3616 0
49 -116 3617 0
49 -117 3619 0
49 -118 3620 0
49 -119 3621 0
49 -120 3622 0
49 -121 3606 0
49 -122 3607 0
49 -123 3608 0
49 -124 3609 0
49 -125 3600 0
49 -126 3613 0
49 -127 3645 0
49 -128 3634 0
49 -129 3603 0
49 -130 3616 0
49 -131 3609 0
49 -132 3622 0
49 -133 3608 0
49 -134 3609 0
49 -135 3621 0
49 -136 3622 0
49 -137 3634 0
49 -138 3645 0
49 -139 3608 0
49 -140 3621 0
49 -141 3622 0
49 -142 3609 0
49 -143 3641 0
49 -144 3630 0
49 -145 3635 0
49 -146 3646 0
49 -147 3615 0
49 -148 3602 0
49 -149 3636 0
49 -150 3624 0
49 -151 3635 0
49 -152 3646 0
49 -153 3635 0
49 -154 3646 0
49 -155 3608 0
49 -156 3621 0
49 -157 3606 0
49 -158 3619 0
49 -159 3608 0
49 -160 3621 0
49 -161 3601 0
49 -162 3614 0
49 -163 3636 0
49 -164 3624 0
49 -165 3612 0
49 -166 3613 0
49 -167 3615 0
49 -168 3631 0
49 -169 3633 0
49 -170 3599 0
49 -171 3600 0
49 -172 3602 0
49 -173 3642 0
49 -174 3644 0
49 -175 3615 0
49 -176 3602 0
49 -177 3609 0
49 -178 3622 0
49 -179 3604 0
49 -180 3617 0
49 -181 3628 0
49 -182 3640 0
49 -183 3614 0
49 -184 3615 0
49 -185 3616 0
49 -186 3617 0
49 -187 3618 0
49 -188 3601 0
49 -189 3602 0
49 -190 3603 0
49 -191 3604 0
49 -192 3605 0
49 -193 3632 0
49 -194 3633 0
49 -195 3643 0
49 -196 3644 0
49 -197 3636 0
49 -198 3624 0
49 -199 3612 0
49 -200 3613 0
49 -201 3615 0
49 -202 3599 0
49 -203 3600 0
49 -204 3602 0
49 -205 3633 0
49 -206 3644 0
49 -207 3628 0
49 -208 3640 0
49 -209 3604 0
49 -210 3617 0
49 -211 3617 0
49 -212 3604 0
49 -213 3638 0
49 -214 3639 0
49 -215 3640 0
49 -216 3641 0
49 -217 3642 0
49 -218 3643 0
49 -219 3644 0
49 -220 3645 0
49 -221 3646 0
49 -222 3626 0
49 -223 3627 0
49 -224 3628 0
49 -225 3630 0
49 -226 3631 0
49 -227 3632 0
49 -228 3633 0
49 -229 3634 0
49 -230 3635 0
49 -231 3613 0
49 -232 3600 0
49 -233 3608 0
49 -234 3621 0
49 -235 3644 0
49 -236 3633 0
49 -237 3599 0
49 -238 3600 0
49 -239 3601 0
49 -240 3602 0
49 -241 3603 0
49 -242 3604 0
49 -243 3605 0
49 -244 3606 0
49 -245 3612 0
49 -246 3613 0
49 -247 3614 0
49 -248 3615 0
49 -249 3616 0
49 -250 3617 0
49 -251 3618 0
49 -252 3619 0
49 -253 3603 0
49 -254 3616 0
49 -255 3639 0
49 -256 3640 0
49 -257 3641 0
49 -258 3642 0
49 -259 3643 0
49 -260 3644 0
49 -261 3645 0
49 -262 3646 0
49 -263 3627 0
49 -264 3628 0
49 -265 3630 0
49 -266 3631 0
49 -267 3632 0
49 -268 3633 0
49 -269 3634 0
49 -270 3635 0
49 -271 3624 0
49 -272 3625 0
49 -273 3636 0
49 -274 3637 0
49 -275 3644 0
49 -276 3633 0
49 -277 3636 0
49 -278 3624 0
49 -279 3600 0
49 -280 3601 0
49 -281 3602 0
49 -282 3613 0
49 -283 3614 0
49 -284 3615 0
49 -285 3616 0
49 -286 3603 0
49 -287 3645 0
49 -288 3646 0
49 -289 3634 0
49 -290 3635 0
49 -291 3603 0
49 -292 3616 0
49 -293 3603 0
49 -294 3616 0
49 -295 3631 0
49 -296 3642 0
49 -297 3646 0
49 -298 3635 0
49 -299 3635 0
49 -300 3646 0
49 -301 3622 0
49 -302 3609 0
49 -303 3642 0
49 -304 3631 0
49 -305 3624 0
49 -306 3625 0
49 -307 3626 0
49 -308 3636 0
49 -309 3637 0
49 -310 3638 0
49 -311 3632 0
49 -312 3643 0
49 -313 3610 0
49 -314 3623 0
49 -315 3635 0
49 -316 3646 0
49 -317 3600 0
49 -318 3613 0
49 -319 3634 0
49 -320 3645 0
49 -321 3621 0
49 -322 3608 0
49 -323 3601 0
49 -324 3614 0
49 -325 3627 0
49 -326 3639 0
49 -327 3646 0
49 -328 3635 0
49 -329 3622 0
49 -330 3609 0
49 -331 3640 0
49 -332 3628 0
49 -333 3628 0
49 -334 3630 0
49 -335 3640 0
49 -336 3641 0
49 -337 3636 0
49 -338 3637 0
49 -339 3624 0
49 -340 3625 0
49 -341 3612 0
49 -342 3613 0
49 -343 3614 0
49 -344 3615 0
49 -345 3616 0
49 -346 3599 0
49 -347 3600 0
49 -348 3601 0
49 -349 3602 0
49 -350 3603 0
49 -351 3622 0
49 -352 3609 0
49 -353 3612 0
49 -354 3599 0
49 -355 3609 0
49 -356 3622 0
49 -357 3609 0
49 -358 3622 0
49 -359 3621 0
49 -360 3608 0
49 -361 3619 0
49 -362 3620 0
49 -363 3606 0
49 -364 3607 0
49 -365 3643 0
49 -366 3632 0
49 -367 3646 0
49 -368 3635 0
49 -369 3632 0
49 -370 3643 0
49 -371 3644 0
49 -372 3645 0
49 -373 3646 0
49 -374 3633 0
49 -375 3634 0
49 -376 3635 0
49 -377 3633 0
49 -378 3634 0
49 -379 3644 0
49 -380 3645 0
49 -381 3634 0
49 -382 3645 0
49 -383 3622 0
49 -384 3609 0
49 -385 3606 0
49 -386 3607 0
49 -387 3608 0
49 -388 3609 0
49 -389 3619 0
49 -390 3620 0
49 -391 3621 0
49 -392 3622 0
49 -393 3627 0
49 -394 3639 0
49 -395 3600 0
49 -396 3601 0
49 -397 3602 0
49 -398 3603 0
49 -399 3613 0
49 -400 3614 0
49 -401 3615 0
49 -402 3616 0
49 -403 3600 0
49 -404 3601 0
49 -405 3613 0
49 -406 3614 0
49 -407 3602 0
49 -408 3615 0
49 -409 3625 0
49 -410 3626 0
49 -411 3627 0
49 -412 3628 0
49 -413 3630 0
49 -414 3631 0
49 -415 3632 0
49 -416 3633 0
49 -417 3634 0
49 -418 3645 0
49 -419 3634 0
49 -420 3637 0
49 -421 3638 0
49 -422 3639 0
49 -423 3640 0
49 -424 3641 0
49 -425 3642 0
49 -426 3643 0
49 -427 3644 0
49 -428 3645 0
49 -429 3614 0
49 -430 3601 0
49 -431 3613 0
49 -432 3614 0
49 -433 3615 0
49 -434 3616 0
49 -435 3617 0
49 -436 3618 0
49 -437 3619 0
49 -438 3620 0
49 -439 3621 0
49 -440 3600 0
49 -441 3601 0
49 -442 3602 0
49 -443 3603 0
49 -444 3604 0
49 -445 3605 0
49 -446 3606 0
49 -447 3607 0
49 -448 3608 0
49 -449 3631 0
49 -450 3642 0
49 -451 3620 0
49 -452 3607 0
49 -453 3625 0
49 -454 3637 0
49 -455 3644 0
49 -456 3633 0
49 -457 3614 0
49 -458 3601 0
49 -459 3643 0
49 -460 3632 0
49 -461 3638 0
49 -462 3639 0
49 -463 3626 0
49 -464 3627 0
49 -465 3645 0
49 -466 3634 0
49 -467 3634 0
49 -468 3645 0
49 -469 3600 0
49 -470 3601 0
49 -471 3613 0
49 -472 3614 0
49 -473 3619 0
49 -474 3620 0
49 -475 3606 0
49 -476 3607 0
49 -477 3618 0
49 -478 3605 0
49 -479 3625 0
49 -480 3637 0
49 -481 3612 0
49 -482 3613 0
49 -483 3614 0
49 -484 3615 0
49 -485 3599 0
49 -486 3600 0
49 -487 3601 0
49 -488 3602 0
49 -489 3639 0
49 -490 3627 0
49 -491 3607 0
49 -492 3620 0
49 -493 3645 0
49 -494 3634 0
49 -495 3620 0
49 -496 3607 0
49 -497 3639 0
49 -498 3640 0
49 -499 3627 0
49 -500 3628 0
49 -501 3626 0
49 -502 3638 0
49 -503 3614 0
49 -504 3601 0
49 -505 3627 0
49 -506 3639 0
49 -507 3613 0
49 -508 3614 0
49 -509 3615 0
49 -510 3616 0
49 -511 3617 0
49 -512 3618 0
49 -513 3619 0
49 -514 3620 0
49 -515 3621 0
49 -516 3600 0
49 -517 3601 0
49 -518 3602 0
49 -519 3603 0
49 -520 3604 0
49 -521 3605 0
49 -522 3606 0
49 -523 3607 0
49 -524 3608 0
49 -525 3628 0
49 -526 3630 0
49 -527 3631 0
49 -528 3632 0
49 -529 3633 0
49 -530 3634 0
49 -531 3640 0
49 -532 3641 0
49 -533 3642 0
49 -534 3643 0
49 -535 3644 0
49 -536 3645 0
49 -537 3619 0
49 -538 3620 0
49 -539 3621 0
49 -540 3606 0
49 -541 3607 0
49 -542 3608 0
49 -543 3626 0
49 -544 3627 0
49 -545 3628 0
49 -546 3630 0
49 -547 3631 0
49 -548 3632 0
49 -549 3633 0
49 -550 3634 0
49 -551 3638 0
49 -552 3639 0
49 -553 3640 0
49 -554 3641 0
49 -555 3642 0
49 -556 3643 0
49 -557 3644 0
49 -558 3645 0
49 -559 3638 0
49 -560 3626 0
49 -561 3618 0
49 -562 3605 0
49 -563 3606 0
49 -564 3619 0
49 -565 3626 0
49 -566 3638 0
49 -567 3643 0
49 -568 3632 0
49 -569 3637 0
49 -570 3625 0
49 -571 3645 0
49 -572 3634 0
49 -573 3609 0
49 -574 3622 0
49 -575 3636 0
49 -576 3624 0
49 -577 3638 0
49 -578 3639 0
49 -579 3640 0
49 -580 3641 0
49 -581 3642 0
49 -582 3643 0
49 -583 3644 0
49 -584 3645 0
49 -585 3626 0
49 -586 3627 0
49 -587 3628 0
49 -588 3630 0
49 -589 3631 0
49 -590 3632 0
49 -591 3633 0
49 -592 3634 0
49 -593 3601 0
49 -594 3614 0
49 -595 3619 0
49 -596 3606 0
49 -597 3631 0
49 -598 3632 0
49 -599 3633 0
49 -600 3634 0
49 -601 3642 0
49 -602 3643 0
49 -603 3644 0
49 -604 3645 0
49 -605 3613 0
49 -606 3614 0
49 -607 3600 0
49 -608 3601 0
49 -609 3607 0
49 -610 3608 0
49 -611 3620 0
49 -612 3621 0
49 -613 3625 0
49 -614 3626 0
49 -615 3627 0
49 -616 3628 0
49 -617 3637 0
49 -618 3638 0
49 -619 3639 0
49 -620 3640 0
49 -621 3612 0
49 -622 3613 0
49 -623 3614 0
49 -624 3615 0
49 -625 3616 0
49 -626 3599 0
49 -627 3600 0
49 -628 3601 0
49 -629 3602 0
49 -630 3603 0
49 -631 3645 0
49 -632 3634 0
49 -633 3627 0
49 -634 3639 0
49 -635 3634 0
49 -636 3645 0
49 -637 3630 0
49 -638 3641 0
49 -639 3634 0
49 -640 3645 0
49 -641 3636 0
49 -642 3637 0
49 -643 3638 0
49 -644 3639 0
49 -645 3640 0
49 -646 3643 0
49 -647 3644 0
49 -648 3645 0
49 -649 3646 0
49 -650 3624 0
49 -651 3625 0
49 -652 3626 0
49 -653 3627 0
49 -654 3628 0
49 -655 3632 0
49 -656 3633 0
49 -657 3634 0
49 -658 3635 0
49 -659 3632 0
49 -660 3633 0
49 -661 3634 0
49 -662 3643 0
49 -663 3644 0
49 -664 3645 0
49 -665 3634 0
49 -666 3645 0
49 -667 3637 0
49 -668 3638 0
49 -669 3625 0
49 -670 3626 0
49 -671 3599 0
49 -672 3600 0
49 -673 3601 0
49 -674 3602 0
49 -675 3603 0
49 -676 3612 0
49 -677 3613 0
49 -678 3614 0
49 -679 3615 0
49 -680 3616 0
49 -681 3621 0
49 -682 3608 0
49 -683 3607 0
49 -684 3620 0
49 -685 3613 0
49 -686 3614 0
49 -687 3615 0
49 -688 3616 0
49 -689 3617 0
49 -690 3618 0
49 -691 3619 0
49 -692 3620 0
49 -693 3621 0
49 -694 3600 0
49 -695 3601 0
49 -696 3602 0
49 -697 3603 0
49 -698 3604 0
49 -699 3605 0
49 -700 3606 0
49 -701 3607 0
49 -702 3608 0
49 -703 3619 0
49 -704 3620 0
49 -705 3621 0
49 -706 3606 0
49 -707 3607 0
49 -708 3608 0
49 -709 3641 0
49 -710 3630 0
49 -711 3615 0
49 -712 3602 0
49 -713 3620 0
49 -714 3607 0
49 -715 3612 0
49 -716 3613 0
49 -717 3614 0
49 -718 3615 0
49 -719 3616 0
49 -720 3617 0
49 -721 3618 0
49 -722 3619 0
49 -723 3620 0
49 -724 3621 0
49 -725 3599 0
49 -726 3600 0
49 -727 3601 0
49 -728 3602 0
49 -729 3603 0
49 -730 3604 0
49 -731 3605 0
49 -732 3606 0
49 -733 3607 0
49 -734 3608 0
49 -735 3624 0
49 -736 3625 0
49 -737 3626 0
49 -738 3627 0
49 -739 3628 0
49 -740 3630 0
49 -741 3631 0
49 -742 3632 0
49 -743 3636 0
49 -744 3637 0
49 -745 3638 0
49 -746 3639 0
49 -747 3640 0
49 -748 3641 0
49 -749 3642 0
49 -750 3643 0
49 -751 3640 0
49 -752 3628 0
49 -753 3645 0
49 -754 3646 0
49 -755 3634 0
49 -756 3635 0
49 -757 3618 0
49 -758 3605 0
49 -759 3624 0
49 -760 3636 0
49 -761 3618 0
49 -762 3605 0
49 -763 3616 0
49 -764 3603 0
49 -765 3599 0
49 -766 3600 0
49 -767 3601 0
49 -768 3602 0
49 -769 3612 0
49 -770 3613 0
49 -771 3614 0
49 -772 3615 0
49 -773 3609 0
49 -774 3622 0
49 -775 3637 0
49 -776 3625 0
49 -777 3621 0
49 -778 3608 0
49 -779 3627 0
49 -780 3639 0
49 -781 3613 0
49 -782 3614 0
49 -783 3615 0
49 -784 3600 0
49 -785 3601 0
49 -786 3602 0
49 -787 3620 0
49 -788 3607 0
49 -789 3608 0
49 -790 3621 0
49 -791 3639 0
49 -792 3627 0
49 -793 3618 0
49 -794 3605 0
49 -795 3643 0
49 -796 3644 0
49 -797 3645 0
49 -798 3632 0
49 -799 3633 0
49 -800 3634 0
49 -801 3600 0
49 -802 3601 0
49 -803 3613 0
49 -804 3614 0
49 -805 3625 0
49 -806 3637 0
49 -807 3641 0
49 -808 3630 0
49 -809 3646 0
49 -810 3635 0
49 -811 3625 0
49 -812 3626 0
49 -813 3637 0
49 -814 3638 0
49 -815 3635 0
49 -816 3646 0
49 -817 3638 0
49 -818 3639 0
49 -819 3626 0
49 -820 3627 0
49 -821 3644 0
49 -822 3633 0
49 -823 3622 0
49 -824 3609 0
49 -825 3636 0
49 -826 3637 0
49 -827 3638 0
49 -828 3639 0
49 -829 3640 0
49 -830 3641 0
49 -831 3642 0
49 -832 3643 0
49 -833 3644 0
49 -834 3645 0
49 -835 3646 0
49 -836 3624 0
49 -837 3625 0
49 -838 3626 0
49 -839 3627 0
49 -840 3628 0
49 -841 3630 0
49 -842 3631 0
49 -843 3632 0
49 -844 3633 0
49 -845 3634 0
49 -846 3635 0
49 -847 3644 0
49 -848 3633 0
49 -849 3607 0
49 -850 3620 0
49 -851 3619 0
49 -852 3620 0
49 -853 3621 0
49 -854 3606 0
49 -855 3607 0
49 -856 3608 0
49 -857 3632 0
49 -858 3633 0
49 -859 3643 0
49 -860 3644 0
49 -861 3634 0
49 -862 3645 0
49 -863 3645 0
49 -864 3634 0
49 -865 3606 0
49 -866 3619 0
49 -867 3638 0
49 -868 3626 0
49 -869 3633 0
49 -870 3634 0
49 -871 3644 0
49 -872 3645 0
49 -873 3628 0
49 -874 3630 0
49 -875 3631 0
49 -876 3632 0
49 -877 3633 0
49 -878 3634 0
49 -879 3635 0
49 -880 3640 0
49 -881 3641 0
49 -882 3642 0
49 -883 3643 0
49 -884 3644 0
49 -885 3645 0
49 -886 3646 0
49 -887 3607 0
49 -888 3608 0
49 -889 3620 0
49 -890 3621 0
49 -891 3634 0
49 -892 3645 0
49 -893 3628 0
49 -894 3630 0
49 -895 3640 0
49 -896 3641 0
49 -897 3600 0
49 -898 3613 0
49 -899 3608 0
49 -900 3621 0
49 -901 3645 0
49 -902 3634 0
49 -903 3627 0
49 -904 3628 0
49 -905 3630 0
49 -906 3631 0
49 -907 3639 0
49 -908 3640 0
49 -909 3641 0
49 -910 3642 0
49 -911 3620 0
49 -912 3607 0
49 -913 3613 0
49 -914 3600 0
49 -915 3637 0
49 -916 3625 0
49 -917 3600 0
49 -918 3601 0
49 -919 3613 0
49 -920 3614 0
49 -921 3625 0
49 -922 3637 0
49 -923 3607 0
49 -924 3620 0
49 -925 3613 0
49 -926 3600 0
49 -927 3616 0
49 -928 3617 0
49 -929 3618 0
49 -930 3619 0
49 -931 3603 0
49 -932 3604 0
49 -933 3605 0
49 -934 3606 0
49 -935 3601 0
49 -936 3614 0
49 -937 3604 0
49 -938 3617 0
49 -939 3612 0
49 -940 3613 0
49 -941 3614 0
49 -942 3615 0
49 -943 3616 0
49 -944 3617 0
49 -945 3618 0
49 -946 3619 0
49 -947 3599 0
49 -948 3600 0
49 -949 3601 0
49 -950 3602 0
49 -951 3603 0
49 -952 3604 0
49 -953 3605 0
49 -954 3606 0
49 -955 3628 0
49 -956 3630 0
49 -957 3631 0
49 -958 3632 0
49 -959 3640 0
49 -960 3641 0
49 -961 3642 0
49 -962 3643 0
49 -963 3626 0
49 -964 3627 0
49 -965 3628 0
49 -966 3638 0
49 -967 3639 0
49 -968 3640 0
49 -969 3599 0
49 -970 3600 0
49 -971 3601 0
49 -972 3602 0
49 -973 3603 0
49 -974 3604 0
49 -975 3605 0
49 -976 3606 0
49 -977 3607 0
49 -978 3608 0
49 -979 3609 0
49 -980 3624 0
49 -981 3625 0
49 -982 3626 0
49 -983 3627 0
49 -984 3628 0
49 -985 3630 0
49 -986 3631 0
49 -987 3632 0
49 -988 3633 0
49 -989 3634 0
49 -990 3635 0
49 -991 3636 0
49 -992 3637 0
49 -993 3638 0
49 -994 3639 0
49 -995 3640 0
49 -996 3641 0
49 -997 3642 0
49 -998 3643 0
49 -999 3644 0
49 -1000 3645 0
49 -1001 3646 0
49 -1002 3612 0
49 -1003 3613 0
49 -1004 3614 0
49 -1005 3615 0
49 -1006 3616 0
49 -1007 3617 0
49 -1008 3618 0
49 -1009 3619 0
49 -1010 3620 0
49 -1011 3621 0
49 -1012 3622 0
49 -1013 3624 0
49 -1014 3625 0
49 -1015 3626 0
49 -1016 3627 0
49 -1017 3628 0
49 -1018 3630 0
49 -1019 3631 0
49 -1020 3632 0
49 -1021 3633 0
49 -1022 3634 0
49 -1023 3635 0
49 -1024 3636 0
49 -1025 3637 0
49 -1026 3638 0
49 -1027 3639 0
49 -1028 3640 0
49 -1029 3641 0
49 -1030 3642 0
49 -1031 3643 0
49 -1032 3644 0
49 -1033 3645 0
49 -1034 3646 0
49 -1035 3618 0
49 -1036 3605 0
49 -1037 3599 0
49 -1038 3612 0
49 -1039 3622 0
49 -1040 3609 0
49 -1041 3620 0
49 -1042 3622 0
49 -1043 3607 0
49 -1044 3609 0
49 -1045 3626 0
49 -1046 3627 0
49 -1047 3628 0
49 -1048 3630 0
49 -1049 3631 0
49 -1050 3632 0
49 -1051 3633 0
49 -1052 3634 0
49 -1053 3638 0
49 -1054 3639 0
49 -1055 3640 0
49 -1056 3641 0
49 -1057 3642 0
49 -1058 3643 0
49 -1059 3644 0
49 -1060 3645 0
49 -1061 3603 0
49 -1062 3616 0
49 -1063 3608 0
49 -1064 3626 0
49 -1065 3627 0
49 -1066 3628 0
49 -1067 3630 0
49 -1068 3631 0
49 -1069 3632 0
49 -1070 3633 0
49 -1071 3634 0
49 -1072 3637 0
49 -1073 3638 0
49 -1074 3639 0
49 -1075 3640 0
49 -1076 3641 0
49 -1077 3642 0
49 -1078 3643 0
49 -1079 3644 0
49 -1080 3645 0
49 -1081 3621 0
49 -1082 3625 0
49 -1083 3626 0
49 -1084 3627 0
49 -1085 3628 0
49 -1086 3630 0
49 -1087 3631 0
49 -1088 3632 0
49 -1089 3633 0
49 -1090 3634 0
49 -1091 3638 0
49 -1092 3639 0
49 -1093 3640 0
49 -1094 3641 0
49 -1095 3642 0
49 -1096 3643 0
49 -1097 3644 0
49 -1098 3645 0
49 -1099 3600 0
49 -1100 3601 0
49 -1101 3602 0
49 -1102 3603 0
49 -1103 3604 0
49 -1104 3605 0
49 -1105 3606 0
49 -1106 3607 0
49 -1107 3613 0
49 -1108 3614 0
49 -1109 3615 0
49 -1110 3616 0
49 -1111 3617 0
49 -1112 3618 0
49 -1113 3619 0
49 -1114 3620 0
49 -1115 3621 0
49 -1116 3625 0
49 -1117 3626 0
49 -1118 3627 0
49 -1119 3628 0
49 -1120 3630 0
49 -1121 3631 0
49 -1122 3632 0
49 -1123 3633 0
49 -1124 3634 0
49 -1125 3600 0
49 -1126 3601 0
49 -1127 3602 0
49 -1128 3603 0
49 -1129 3604 0
49 -1130 3605 0
49 -1131 3606 0
49 -1132 3607 0
49 -1133 3608 0
49 -1134 3613 0
49 -1135 3614 0
49 -1136 3615 0
49 -1137 3616 0
49 -1138 3617 0
49 -1139 3618 0
49 -1140 3619 0
49 -1141 3620 0
49 -1142 3637 0
49 -1143 3638 0
49 -1144 3639 0
49 -1145 3640 0
49 -1146 3641 0
49 -1147 3642 0
49 -1148 3643 0
49 -1149 3644 0
49 -1150 3645 0
49 -1151 3600 0
49 -1152 3601 0
49 -1153 3602 0
49 -1154 3603 0
49 -1155 3604 0
49 -1156 3605 0
49 -1157 3606 0
49 -1158 3607 0
49 -1159 3608 0
49 -1160 3613 0
49 -1161 3614 0
49 -1162 3615 0
49 -1163 3616 0
49 -1164 3617 0
49 -1165 3618 0
49 -1166 3619 0
49 -1167 3620 0
49 -1168 3637 0
49 -1169 3638 0
49 -1170 3600 0
49 -1171 3601 0
49 -1172 3602 0
49 -1173 3603 0
49 -1174 3604 0
49 -1175 3605 0
49 -1176 3606 0
49 -1177 3607 0
49 -1178 3613 0
49 -1179 3614 0
49 -1180 3615 0
49 -1181 3616 0
49 -1182 3617 0
49 -1183 3618 0
49 -1184 3619 0
49 -1185 3620 0
49 -1186 3621 0
49 -1187 3625 0
49 -1188 3626 0
49 -1189 3631 0
49 -1190 3642 0
49 -1191 3600 0
49 -1192 3601 0
49 -1193 3602 0
49 -1194 3603 0
49 -1195 3604 0
49 -1196 3605 0
49 -1197 3606 0
49 -1198 3607 0
49 -1199 3613 0
49 -1200 3614 0
49 -1201 3615 0
49 -1202 3616 0
49 -1203 3617 0
49 -1204 3618 0
49 -1205 3619 0
49 -1206 3620 0
49 -1207 3632 0
49 -1208 3633 0
49 -1209 3634 0
49 -1210 3637 0
49 -1211 3638 0
49 -1212 3639 0
49 -1213 3640 0
49 -1214 3641 0
49 -1215 3642 0
49 -1216 3643 0
49 -1217 3644 0
49 -1218 3645 0
49 -1219 3625 0
49 -1220 3626 0
49 -1221 3627 0
49 -1222 3628 0
49 -1223 3630 0
49 -1224 3631 0
49 -1225 3632 0
49 -1226 3633 0
49 -1227 3634 0
49 -1228 3643 0
49 -1229 3644 0
49 -1230 3645 0
49 -1231 3600 0
49 -1232 3601 0
49 -1233 3602 0
49 -1234 3603 0
49 -1235 3604 0
49 -1236 3605 0
49 -1237 3606 0
49 -1238 3613 0
49 -1239 3614 0
49 -1240 3615 0
49 -1241 3616 0
49 -1242 3617 0
49 -1243 3618 0
49 -1244 3619 0
49 -1245 3631 0
49 -1246 3642 0
49 -1247 3605 0
49 -1248 3618 0
49 -1249 3638 0
49 -1250 3639 0
49 -1251 3640 0
49 -1252 3641 0
49 -1253 3626 0
49 -1254 3627 0
49 -1255 3628 0
49 -1256 3630 0
49 -1257 3601 0
49 -1258 3602 0
49 -1259 3603 0
49 -1260 3614 0
49 -1261 3615 0
49 -1262 3616 0
49 -1263 3609 0
49 -1264 3622 0
49 -1265 3603 0
49 -1266 3616 0
49 -1267 3603 0
49 -1268 3616 0
49 -1269 3640 0
49 -1270 3628 0
49 -1271 3622 0
49 -1272 3609 0
49 -1273 3646 0
49 -1274 3635 0
49 -1275 3642 0
49 -1276 3643 0
49 -1277 3644 0
49 -1278 3645 0
49 -1279 3631 0
49 -1280 3632 0
49 -1281 3633 0
49 -1282 3634 0
49 -1283 3634 0
49 -1284 3645 0
49 -1285 3634 0
49 -1286 3645 0
49 -1287 3641 0
49 -1288 3642 0
49 -1289 3643 0
49 -1290 3644 0
49 -1291 3630 0
49 -1292 3631 0
49 -1293 3632 0
49 -1294 3633 0
49 -1295 3628 0
49 -1296 3630 0
49 -1297 3631 0
49 -1298 3632 0
49 -1299 3633 0
49 -1300 3634 0
49 -1301 3640 0
49 -1302 3641 0
49 -1303 3642 0
49 -1304 3643 0
49 -1305 3644 0
49 -1306 3645 0
49 -1307 3613 0
49 -1308 3614 0
49 -1309 3615 0
49 -1310 3616 0
49 -1311 3600 0
49 -1312 3601 0
49 -1313 3602 0
49 -1314 3603 0
49 -1315 3637 0
49 -1316 3625 0
49 -1317 3646 0
49 -1318 3635 0
49 -1319 3600 0
49 -1320 3601 0
49 -1321 3613 0
49 -1322 3614 0
49 -1323 3600 0
49 -1324 3601 0
49 -1325 3602 0
49 -1326 3603 0
49 -1327 3613 0
49 -1328 3614 0
49 -1329 3615 0
49 -1330 3616 0
49 -1331 3640 0
49 -1332 3641 0
49 -1333 3628 0
49 -1334 3630 0
49 -1335 3613 0
49 -1336 3614 0
49 -1337 3615 0
49 -1338 3600 0
49 -1339 3601 0
49 -1340 3602 0
49 -1341 3606 0
49 -1342 3607 0
49 -1343 3608 0
49 -1344 3619 0
49 -1345 3620 0
49 -1346 3621 0
49 -1347 3630 0
49 -1348 3631 0
49 -1349 3632 0
49 -1350 3633 0
49 -1351 3634 0
49 -1352 3641 0
49 -1353 3642 0
49 -1354 3643 0
49 -1355 3644 0
49 -1356 3645 0
49 -1357 3625 0
49 -1358 3626 0
49 -1359 3637 0
49 -1360 3638 0
49 -1361 3631 0
49 -1362 3632 0
49 -1363 3633 0
49 -1364 3634 0
49 -1365 3642 0
49 -1366 3643 0
49 -1367 3644 0
49 -1368 3645 0
49 -1369 3613 0
49 -1370 3614 0
49 -1371 3615 0
49 -1372 3616 0
49 -1373 3600 0
49 -1374 3601 0
49 -1375 3602 0
49 -1376 3603 0
49 -1377 3600 0
49 -1378 3601 0
49 -1379 3613 0
49 -1380 3614 0
49 -1381 3633 0
49 -1382 3634 0
49 -1383 3644 0
49 -1384 3645 0
49 -1385 3636 0
49 -1386 3637 0
49 -1387 3624 0
49 -1388 3625 0
49 -1389 3617 0
49 -1390 3604 0
49 -1391 3637 0
49 -1392 3638 0
49 -1393 3625 0
49 -1394 3626 0
49 -1395 3622 0
49 -1396 3609 0
49 -1397 3636 0
49 -1398 3637 0
49 -1399 3638 0
49 -1400 3624 0
49 -1401 3625 0
49 -1402 3626 0
49 -1403 3613 0
49 -1404 3614 0
49 -1405 3600 0
49 -1406 3601 0
49 -1407 3613 0
49 -1408 3614 0
49 -1409 3600 0
49 -1410 3601 0
49 -1411 3603 0
49 -1412 3616 0
49 -1413 3600 0
49 -1414 3601 0
49 -1415 3602 0
49 -1416 3613 0
49 -1417 3614 0
49 -1418 3615 0
49 -1419 3641 0
49 -1420 3642 0
49 -1421 3643 0
49 -1422 3644 0
49 -1423 3645 0
49 -1424 3630 0
49 -1425 3631 0
49 -1426 3632 0
49 -1427 3633 0
49 -1428 3634 0
49 -1429 3613 0
49 -1430 3614 0
49 -1431 3615 0
49 -1432 3616 0
49 -1433 3618 0
49 -1434 3619 0
49 -1435 3620 0
49 -1436 3621 0
49 -1437 3600 0
49 -1438 3601 0
49 -1439 3602 0
49 -1440 3603 0
49 -1441 3605 0
49 -1442 3606 0
49 -1443 3607 0
49 -1444 3608 0
49 -1445 3631 0
49 -1446 3632 0
49 -1447 3633 0
49 -1448 3634 0
49 -1449 3642 0
49 -1450 3643 0
49 -1451 3644 0
49 -1452 3645 0
49 -1453 3637 0
49 -1454 3638 0
49 -1455 3639 0
49 -1456 3640 0
49 -1457 3625 0
49 -1458 3626 0
49 -1459 3627 0
49 -1460 3628 0
49 -1461 3613 0
49 -1462 3614 0
49 -1463 3620 0
49 -1464 3621 0
49 -1465 3600 0
49 -1466 3601 0
49 -1467 3607 0
49 -1468 3608 0
49 -1469 3639 0
49 -1470 3640 0
49 -1471 3627 0
49 -1472 3628 0
49 -1473 3644 0
49 -1474 3645 0
49 -1475 3633 0
49 -1476 3634 0
49 -1477 3632 0
49 -1478 3633 0
49 -1479 3634 0
49 -1480 3643 0
49 -1481 3644 0
49 -1482 3645 0
49 -1483 3625 0
49 -1484 3626 0
49 -1485 3627 0
49 -1486 3637 0
49 -1487 3638 0
49 -1488 3639 0
49 -1489 3606 0
49 -1490 3607 0
49 -1491 3608 0
49 -1492 3619 0
49 -1493 3620 0
49 -1494 3621 0
49 -1495 3612 0
49 -1496 3613 0
49 -1497 3614 0
49 -1498 3599 0
49 -1499 3600 0
49 -1500 3601 0
49 -1501 3628 0
49 -1502 3630 0
49 -1503 3631 0
49 -1504 3632 0
49 -1505 3633 0
49 -1506 3634 0
49 -1507 3640 0
49 -1508 3641 0
49 -1509 3642 0
49 -1510 3643 0
49 -1511 3644 0
49 -1512 3645 0
49 -1513 3608 0
49 -1514 3621 0
49 -1515 3628 0
49 -1516 3630 0
49 -1517 3631 0
49 -1518 3632 0
49 -1519 3633 0
49 -1520 3634 0
49 -1521 3640 0
49 -1522 3641 0
49 -1523 3642 0
49 -1524 3643 0
49 -1525 3644 0
49 -1526 3645 0
49 -1527 3617 0
49 -1528 3618 0
49 -1529 3604 0
49 -1530 3605 0
49 -1531 3637 0
49 -1532 3638 0
49 -1533 3625 0
49 -1534 3626 0
49 -1535 3642 0
49 -1536 3643 0
49 -1537 3644 0
49 -1538 3645 0
49 -1539 3631 0
49 -1540 3632 0
49 -1541 3633 0
49 -1542 3634 0
49 -1543 3613 0
49 -1544 3614 0
49 -1545 3615 0
49 -1546 3616 0
49 -1547 3617 0
49 -1548 3600 0
49 -1549 3601 0
49 -1550 3602 0
49 -1551 3603 0
49 -1552 3604 0
49 -1553 3632 0
49 -1554 3643 0
49 -1555 3599 0
49 -1556 3612 0
49 -1557 3612 0
49 -1558 3599 0
49 -1559 3627 0
49 -1560 3628 0
49 -1561 3630 0
49 -1562 3631 0
49 -1563 3632 0
49 -1564 3633 0
49 -1565 3634 0
49 -1566 3635 0
49 -1567 3639 0
49 -1568 3640 0
49 -1569 3641 0
49 -1570 3642 0
49 -1571 3643 0
49 -1572 3644 0
49 -1573 3645 0
49 -1574 3646 0
49 -1575 3606 0
49 -1576 3607 0
49 -1577 3608 0
49 -1578 3619 0
49 -1579 3620 0
49 -1580 3621 0
49 -1581 3626 0
49 -1582 3627 0
49 -1583 3628 0
49 -1584 3630 0
49 -1585 3631 0
49 -1586 3632 0
49 -1587 3633 0
49 -1588 3634 0
49 -1589 3638 0
49 -1590 3639 0
49 -1591 3640 0
49 -1592 3641 0
49 -1593 3642 0
49 -1594 3643 0
49 -1595 3644 0
49 -1596 3645 0
49 -1597 3625 0
49 -1598 3626 0
49 -1599 3627 0
49 -1600 3628 0
49 -1601 3635 0
49 -1602 3637 0
49 -1603 3638 0
49 -1604 3639 0
49 -1605 3640 0
49 -1606 3646 0
49 -1607 3612 0
49 -1608 3613 0
49 -1609 3614 0
49 -1610 3615 0
49 -1611 3619 0
49 -1612 3620 0
49 -1613 3599 0
49 -1614 3600 0
49 -1615 3601 0
49 -1616 3602 0
49 -1617 3606 0
49 -1618 3607 0
49 -1619 3639 0
49 -1620 3640 0
49 -1621 3641 0
49 -1622 3642 0
49 -1623 3643 0
49 -1624 3644 0
49 -1625 3645 0
49 -1626 3646 0
49 -1627 3627 0
49 -1628 3628 0
49 -1629 3630 0
49 -1630 3631 0
49 -1631 3632 0
49 -1632 3633 0
49 -1633 3634 0
49 -1634 3635 0
49 -1635 3612 0
49 -1636 3613 0
49 -1637 3614 0
49 -1638 3615 0
49 -1639 3619 0
49 -1640 3599 0
49 -1641 3600 0
49 -1642 3601 0
49 -1643 3602 0
49 -1644 3606 0
49 -1645 3624 0
49 -1646 3625 0
49 -1647 3626 0
49 -1648 3627 0
49 -1649 3628 0
49 -1650 3630 0
49 -1651 3633 0
49 -1652 3634 0
49 -1653 3635 0
49 -1654 3636 0
49 -1655 3637 0
49 -1656 3638 0
49 -1657 3639 0
49 -1658 3640 0
49 -1659 3641 0
49 -1660 3644 0
49 -1661 3645 0
49 -1662 3646 0
49 -1663 3624 0
49 -1664 3625 0
49 -1665 3626 0
49 -1666 3627 0
49 -1667 3628 0
49 -1668 3630 0
49 -1669 3631 0
49 -1670 3632 0
49 -1671 3633 0
49 -1672 3634 0
49 -1673 3635 0
49 -1674 3636 0
49 -1675 3637 0
49 -1676 3638 0
49 -1677 3639 0
49 -1678 3640 0
49 -1679 3641 0
49 -1680 3642 0
49 -1681 3643 0
49 -1682 3644 0
49 -1683 3645 0
49 -1684 3646 0
49 -1685 3642 0
49 -1686 3643 0
49 -1687 3644 0
49 -1688 3645 0
49 -1689 3631 0
49 -1690 3632 0
49 -1691 3633 0
49 -1692 3634 0
49 -1693 3646 0
49 -1694 3635 0
49 -1695 3624 0
49 -1696 3625 0
49 -1697 3626 0
49 -1698 3636 0
49 -1699 3637 0
49 -1700 3638 0
49 -1701 3618 0
49 -1702 3619 0
49 -1703 3620 0
49 -1704 3621 0
49 -1705 3605 0
49 -1706 3606 0
49 -1707 3607 0
49 -1708 3608 0
49 -1709 3625 0
49 -1710 3626 0
49 -1711 3627 0
49 -1712 3637 0
49 -1713 3638 0
49 -1714 3639 0
49 -1715 3599 0
49 -1716 3606 0
49 -1717 3607 0
49 -1718 3608 0
49 -1719 3609 0
49 -1720 3612 0
49 -1721 3619 0
49 -1722 3620 0
49 -1723 3621 0
49 -1724 3622 0
49 -1725 3635 0
49 -1726 3646 0
49 -1727 3600 0
49 -1728 3601 0
49 -1729 3602 0
49 -1730 3603 0
49 -1731 3604 0
49 -1732 3605 0
49 -1733 3606 0
49 -1734 3607 0
49 -1735 3608 0
49 -1736 3613 0
49 -1737 3614 0
49 -1738 3615 0
49 -1739 3616 0
49 -1740 3617 0
49 -1741 3618 0
49 -1742 3619 0
49 -1743 3620 0
49 -1744 3621 0
49 -1745 3642 0
49 -1746 3643 0
49 -1747 3644 0
49 -1748 3645 0
49 -1749 3631 0
49 -1750 3632 0
49 -1751 3633 0
49 -1752 3634 0
49 -1753 3632 0
49 -1754 3633 0
49 -1755 3634 0
49 -1756 3643 0
49 -1757 3644 0
49 -1758 3645 0
49 -1759 3600 0
49 -1760 3601 0
49 -1761 3602 0
49 -1762 3603 0
49 -1763 3604 0
49 -1764 3605 0
49 -1765 3606 0
49 -1766 3607 0
49 -1767 3613 0
49 -1768 3614 0
49 -1769 3615 0
49 -1770 3616 0
49 -1771 3617 0
49 -1772 3618 0
49 -1773 3619 0
49 -1774 3620 0
49 -1775 3600 0
49 -1776 3601 0
49 -1777 3602 0
49 -1778 3603 0
49 -1779 3604 0
49 -1780 3605 0
49 -1781 3606 0
49 -1782 3607 0
49 -1783 3613 0
49 -1784 3614 0
49 -1785 3615 0
49 -1786 3616 0
49 -1787 3617 0
49 -1788 3618 0
49 -1789 3619 0
49 -1790 3620 0
49 -1791 3613 0
49 -1792 3614 0
49 -1793 3600 0
49 -1794 3601 0
49 -1795 3637 0
49 -1796 3638 0
49 -1797 3639 0
49 -1798 3640 0
49 -1799 3625 0
49 -1800 3626 0
49 -1801 3627 0
49 -1802 3628 0
49 -1803 3625 0
49 -1804 3626 0
49 -1805 3627 0
49 -1806 3628 0
49 -1807 3631 0
49 -1808 3632 0
49 -1809 3633 0
49 -1810 3634 0
49 -1811 3637 0
49 -1812 3638 0
49 -1813 3639 0
49 -1814 3640 0
49 -1815 3642 0
49 -1816 3643 0
49 -1817 3644 0
49 -1818 3645 0
49 -1819 3625 0
49 -1820 3626 0
49 -1821 3627 0
49 -1822 3628 0
49 -1823 3631 0
49 -1824 3632 0
49 -1825 3633 0
49 -1826 3634 0
49 -1827 3637 0
49 -1828 3638 0
49 -1829 3639 0
49 -1830 3640 0
49 -1831 3642 0
49 -1832 3643 0
49 -1833 3644 0
49 -1834 3645 0
49 -1835 3600 0
49 -1836 3601 0
49 -1837 3602 0
49 -1838 3603 0
49 -1839 3604 0
49 -1840 3605 0
49 -1841 3606 0
49 -1842 3607 0
49 -1843 3613 0
49 -1844 3614 0
49 -1845 3615 0
49 -1846 3616 0
49 -1847 3617 0
49 -1848 3618 0
49 -1849 3619 0
49 -1850 3620 0
49 -1851 3600 0
49 -1852 3613 0
49 -1853 3614 0
49 -1854 3615 0
49 -1855 3616 0
49 -1856 3617 0
49 -1857 3618 0
49 -1858 3619 0
49 -1859 3620 0
49 -1860 3621 0
49 -1861 3600 0
49 -1862 3601 0
49 -1863 3602 0
49 -1864 3603 0
49 -1865 3604 0
49 -1866 3605 0
49 -1867 3606 0
49 -1868 3607 0
49 -1869 3608 0
49 -1870 3613 0
49 -1871 3620 0
49 -1872 3621 0
49 -1873 3607 0
49 -1874 3608 0
49 -1875 3600 0
49 -1876 3601 0
49 -1877 3602 0
49 -1878 3603 0
49 -1879 3613 0
49 -1880 3614 0
49 -1881 3615 0
49 -1882 3616 0
49 -1883 3638 0
49 -1884 3639 0
49 -1885 3640 0
49 -1886 3641 0
49 -1887 3642 0
49 -1888 3626 0
49 -1889 3627 0
49 -1890 3628 0
49 -1891 3630 0
49 -1892 3631 0
49 -1893 3599 0
49 -1894 3600 0
49 -1895 3601 0
49 -1896 3602 0
49 -1897 3603 0
49 -1898 3604 0
49 -1899 3605 0
49 -1900 3606 0
49 -1901 3607 0
49 -1902 3608 0
49 -1903 3609 0
49 -1904 3612 0
49 -1905 3613 0
49 -1906 3614 0
49 -1907 3615 0
49 -1908 3616 0
49 -1909 3617 0
49 -1910 3618 0
49 -1911 3619 0
49 -1912 3620 0
49 -1913 3621 0
49 -1914 3622 0
49 -1915 3612 0
49 -1916 3613 0
49 -1917 3599 0
49 -1918 3600 0
49 -1919 3613 0
49 -1920 3600 0
49 -1921 3625 0
49 -1922 3626 0
49 -1923 3627 0
49 -1924 3628 0
49 -1925 3630 0
49 -1926 3631 0
49 -1927 3632 0
49 -1928 3633 0
49 -1929 3634 0
49 -1930 3637 0
49 -1931 3638 0
49 -1932 3639 0
49 -1933 3640 0
49 -1934 3641 0
49 -1935 3642 0
49 -1936 3643 0
49 -1937 3644 0
49 -1938 3645 0
49 -1939 3599 0
49 -1940 3600 0
49 -1941 3601 0
49 -1942 3602 0
49 -1943 3603 0
49 -1944 3604 0
49 -1945 3605 0
49 -1946 3606 0
49 -1947 3607 0
49 -1948 3608 0
49 -1949 3609 0
49 -1950 3612 0
49 -1951 3613 0
49 -1952 3614 0
49 -1953 3615 0
49 -1954 3616 0
49 -1955 3617 0
49 -1956 3618 0
49 -1957 3619 0
49 -1958 3620 0
49 -1959 3621 0
49 -1960 3622 0
