c Dataset: TUD916.2
c Encoding: DSE
c DecisionVars: 1180
c OrderVars: 0
c CardinalityAuxVars: 342
c LabelVars: 48
c TotalVars: 1570
c OrderClauses: 0
c CardinalityClauses: 2106
c DistanceClauses: 646
c LabelLinkClauses: 1180
c SoftClauses: 48
c HardClauses: 3932
c TotalClauses: 3980
p wcnf 1570 3980 49
1 -1523 0
1 -1524 0
1 -1525 0
1 -1526 0
1 -1527 0
1 -1528 0
1 -1529 0
1 -1530 0
1 -1531 0
1 -1532 0
1 -1533 0
1 -1534 0
1 -1535 0
1 -1536 0
1 -1537 0
1 -1538 0
1 -1539 0
1 -1540 0
1 -1541 0
1 -1542 0
1 -1543 0
1 -1544 0
1 -1545 0
1 -1546 0
1 -1547 0
1 -1548 0
1 -1549 0
1 -1550 0
1 -1551 0
1 -1552 0
1 -1553 0
1 -1554 0
1 -1555 0
1 -1556 0
1 -1557 0
1 -1558 0
1 -1559 0
1 -1560 0
1 -1561 0
1 -1562 0
1 -1563 0
1 -1564 0
1 -1565 0
1 -1566 0
1 -1567 0
1 -1568 0
1 -1569 0
1 -1570 0
49 1 0
49 2 0
49 3 0
49 4 0
49 5 0
49 6 0
49 7 0
49 8 0
49 9 0
49 10 0
49 11 0
49 12 0
49 13 0
49 14 0
49 15 16 17 18 19 20 21 22 23 24 25 0
49 -1183 1182 0
49 -1184 1183 0
49 -1185 1184 0
49 -1186 1185 0
49 -1187 1186 0
49 -1188 1187 0
49 -1189 1188 0
49 -1190 1189 0
49 -1191 1190 0
49 -1192 1191 0
49 1182 15 0
49 -15 -1182 0
49 -1182 1183 16 0
49 1182 -16 0
49 -16 -1183 0
49 -1183 1184 17 0
49 1183 -17 0
49 -17 -1184 0
49 -1184 1185 18 0
49 1184 -18 0
49 -18 -1185 0
49 -1185 1186 19 0
49 1185 -19 0
49 -19 -1186 0
49 -1186 1187 20 0
49 1186 -20 0
49 -20 -1187 0
49 -1187 1188 21 0
49 1187 -21 0
49 -21 -1188 0
49 -1188 1189 22 0
49 1188 -22 0
49 -22 -1189 0
49 -1189 1190 23 0
49 1189 -23 0
49 -23 -1190 0
49 -1190 1191 24 0
49 1190 -24 0
49 -24 -1191 0
49 -1191 1192 25 0
49 1191 -25 0
49 -25 -1192 0
49 -1192 1181 0
49 -1181 1192 0
49 26 27 28 29 30 31 32 33 34 35 36 0
49 -1195 1194 0
49 -1196 1195 0
49 -1197 1196 0
49 -1198 1197 0
49 -1199 1198 0
49 -1200 1199 0
49 -1201 1200 0
49 -1202 1201 0
49 -1203 1202 0
49 -1204 1203 0
49 1194 26 0
49 -26 -1194 0
49 -1194 1195 27 0
49 1194 -27 0
49 -27 -1195 0
49 -1195 1196 28 0
49 1195 -28 0
49 -28 -1196 0
49 -1196 1197 29 0
49 1196 -29 0
49 -29 -1197 0
49 -1197 1198 30 0
49 1197 -30 0
49 -30 -1198 0
49 -1198 1199 31 0
49 1198 -31 0
49 -31 -1199 0
49 -1199 1200 32 0
49 1199 -32 0
49 -32 -1200 0
49 -1200 1201 33 0
49 1200 -33 0
49 -33 -1201 0
49 -1201 1202 34 0
49 1201 -34 0
49 -34 -1202 0
49 -1202 1203 35 0
49 1202 -35 0
49 -35 -1203 0
49 -1203 1204 36 0
49 1203 -36 0
49 -36 -1204 0
49 -1204 1193 0
49 -1193 1204 0
49 37 38 39 40 0
49 -1207 1206 0
49 -1208 1207 0
49 -1209 1208 0
49 1206 37 0
49 -37 -1206 0
49 -1206 1207 38 0
49 1206 -38 0
49 -38 -1207 0
49 -1207 1208 39 0
49 1207 -39 0
49 -39 -1208 0
49 -1208 1209 40 0
49 1208 -40 0
49 -40 -1209 0
49 -1209 1205 0
49 -1205 1209 0
49 41 42 43 44 0
49 -1212 1211 0
49 -1213 1212 0
49 -1214 1213 0
49 1211 41 0
49 -41 -1211 0
49 -1211 1212 42 0
49 1211 -42 0
49 -42 -1212 0
49 -1212 1213 43 0
49 1212 -43 0
49 -43 -1213 0
49 -1213 1214 44 0
49 1213 -44 0
49 -44 -1214 0
49 -1214 1210 0
49 -1210 1214 0
49 45 0
49 46 0
49 47 0
49 48 0
49 49 0
49 50 0
49 51 0
49 52 0
49 53 0
49 54 0
49 55 0
49 56 0
49 57 0
49 58 0
49 59 60 61 62 63 64 65 66 67 68 69 70 0
49 -1217 1216 0
49 -1218 1217 0
49 -1219 1218 0
49 -1220 1219 0
49 -1221 1220 0
49 -1222 1221 0
49 -1223 1222 0
49 -1224 1223 0
49 -1225 1224 0
49 -1226 1225 0
49 -1227 1226 0
49 1216 59 0
49 -59 -1216 0
49 -1216 1217 60 0
49 1216 -60 0
49 -60 -1217 0
49 -1217 1218 61 0
49 1217 -61 0
49 -61 -1218 0
49 -1218 1219 62 0
49 1218 -62 0
49 -62 -1219 0
49 -1219 1220 63 0
49 1219 -63 0
49 -63 -1220 0
49 -1220 1221 64 0
49 1220 -64 0
49 -64 -1221 0
49 -1221 1222 65 0
49 1221 -65 0
49 -65 -1222 0
49 -1222 1223 66 0
49 1222 -66 0
49 -66 -1223 0
49 -1223 1224 67 0
49 1223 -67 0
49 -67 -1224 0
49 -1224 1225 68 0
49 1224 -68 0
49 -68 -1225 0
49 -1225 1226 69 0
49 1225 -69 0
49 -69 -1226 0
49 -1226 1227 70 0
49 1226 -70 0
49 -70 -1227 0
49 -1227 1215 0
49 -1215 1227 0
49 71 72 73 74 75 76 77 78 79 80 81 82 0
49 -1230 1229 0
49 -1231 1230 0
49 -1232 1231 0
49 -1233 1232 0
49 -1234 1233 0
49 -1235 1234 0
49 -1236 1235 0
49 -1237 1236 0
49 -1238 1237 0
49 -1239 1238 0
49 -1240 1239 0
49 1229 71 0
49 -71 -1229 0
49 -1229 1230 72 0
49 1229 -72 0
49 -72 -1230 0
49 -1230 1231 73 0
49 1230 -73 0
49 -73 -1231 0
49 -1231 1232 74 0
49 1231 -74 0
49 -74 -1232 0
49 -1232 1233 75 0
49 1232 -75 0
49 -75 -1233 0
49 -1233 1234 76 0
49 1233 -76 0
49 -76 -1234 0
49 -1234 1235 77 0
49 1234 -77 0
49 -77 -1235 0
49 -1235 1236 78 0
49 1235 -78 0
49 -78 -1236 0
49 -1236 1237 79 0
49 1236 -79 0
49 -79 -1237 0
49 -1237 1238 80 0
49 1237 -80 0
49 -80 -1238 0
49 -1238 1239 81 0
49 1238 -81 0
49 -81 -1239 0
49 -1239 1240 82 0
49 1239 -82 0
49 -82 -1240 0
49 -1240 1228 0
49 -1228 1240 0
49 83 0
49 84 0
49 85 0
49 86 0
49 87 0
49 88 0
49 89 0
49 90 0
49 91 0
49 92 0
49 93 0
49 94 0
49 95 0
49 96 0
49 97 0
49 98 0
49 99 0
49 100 0
49 101 0
49 102 0
49 103 0
49 104 0
49 105 0
49 106 0
49 107 0
49 108 0
49 109 0
49 110 0
49 111 0
49 112 0
49 113 0
49 114 0
49 115 0
49 116 0
49 117 0
49 118 0
49 119 0
49 120 0
49 121 122 123 124 125 0
49 -1243 1242 0
49 -1244 1243 0
49 -1245 1244 0
49 -1246 1245 0
49 1242 121 0
49 -121 -1242 0
49 -1242 1243 122 0
49 1242 -122 0
49 -122 -1243 0
49 -1243 1244 123 0
49 1243 -123 0
49 -123 -1244 0
49 -1244 1245 124 0
49 1244 -124 0
49 -124 -1245 0
49 -1245 1246 125 0
49 1245 -125 0
49 -125 -1246 0
49 -1246 1241 0
49 -1241 1246 0
49 126 127 128 129 130 0
49 -1249 1248 0
49 -1250 1249 0
49 -1251 1250 0
49 -1252 1251 0
49 1248 126 0
49 -126 -1248 0
49 -1248 1249 127 0
49 1248 -127 0
49 -127 -1249 0
49 -1249 1250 128 0
49 1249 -128 0
49 -128 -1250 0
49 -1250 1251 129 0
49 1250 -129 0
49 -129 -1251 0
49 -1251 1252 130 0
49 1251 -130 0
49 -130 -1252 0
49 -1252 1247 0
49 -1247 1252 0
49 131 0
49 132 0
49 133 0
49 134 0
49 135 136 137 138 0
49 -1255 1254 0
49 -1256 1255 0
49 -1257 1256 0
49 1254 135 0
49 -135 -1254 0
49 -1254 1255 136 0
49 1254 -136 0
49 -136 -1255 0
49 -1255 1256 137 0
49 1255 -137 0
49 -137 -1256 0
49 -1256 1257 138 0
49 1256 -138 0
49 -138 -1257 0
49 -1257 1253 0
49 -1253 1257 0
49 139 140 141 142 0
49 -1260 1259 0
49 -1261 1260 0
49 -1262 1261 0
49 1259 139 0
49 -139 -1259 0
49 -1259 1260 140 0
49 1259 -140 0
49 -140 -1260 0
49 -1260 1261 141 0
49 1260 -141 0
49 -141 -1261 0
49 -1261 1262 142 0
49 1261 -142 0
49 -142 -1262 0
49 -1262 1258 0
49 -1258 1262 0
49 143 0
49 144 0
49 145 0
49 146 0
49 147 0
49 148 0
49 149 0
49 150 0
49 151 0
49 152 0
49 153 154 155 0
49 -1265 1264 0
49 -1266 1265 0
49 1264 153 0
49 -153 -1264 0
49 -1264 1265 154 0
49 1264 -154 0
49 -154 -1265 0
49 -1265 1266 155 0
49 1265 -155 0
49 -155 -1266 0
49 -1266 1263 0
49 -1263 1266 0
49 156 157 158 0
49 -1269 1268 0
49 -1270 1269 0
49 1268 156 0
49 -156 -1268 0
49 -1268 1269 157 0
49 1268 -157 0
49 -157 -1269 0
49 -1269 1270 158 0
49 1269 -158 0
49 -158 -1270 0
49 -1270 1267 0
49 -1267 1270 0
49 159 0
49 160 0
49 161 162 163 164 165 166 167 0
49 -1273 1272 0
49 -1274 1273 0
49 -1275 1274 0
49 -1276 1275 0
49 -1277 1276 0
49 -1278 1277 0
49 1272 161 0
49 -161 -1272 0
49 -1272 1273 162 0
49 1272 -162 0
49 -162 -1273 0
49 -1273 1274 163 0
49 1273 -163 0
49 -163 -1274 0
49 -1274 1275 164 0
49 1274 -164 0
49 -164 -1275 0
49 -1275 1276 165 0
49 1275 -165 0
49 -165 -1276 0
49 -1276 1277 166 0
49 1276 -166 0
49 -166 -1277 0
49 -1277 1278 167 0
49 1277 -167 0
49 -167 -1278 0
49 -1278 1271 0
49 -1271 1278 0
49 168 169 170 171 172 173 174 0
49 -1281 1280 0
49 -1282 1281 0
49 -1283 1282 0
49 -1284 1283 0
49 -1285 1284 0
49 -1286 1285 0
49 1280 168 0
49 -168 -1280 0
49 -1280 1281 169 0
49 1280 -169 0
49 -169 -1281 0
49 -1281 1282 170 0
49 1281 -170 0
49 -170 -1282 0
49 -1282 1283 171 0
49 1282 -171 0
49 -171 -1283 0
49 -1283 1284 172 0
49 1283 -172 0
49 -172 -1284 0
49 -1284 1285 173 0
49 1284 -173 0
49 -173 -1285 0
49 -1285 1286 174 0
49 1285 -174 0
49 -174 -1286 0
49 -1286 1279 0
49 -1279 1286 0
49 175 0
49 176 0
49 177 0
49 178 0
49 179 0
49 180 0
49 181 0
49 182 0
49 183 0
49 184 0
49 185 0
49 186 0
49 187 0
49 188 0
49 189 0
49 190 0
49 191 0
49 192 0
49 193 0
49 194 0
49 195 0
49 196 0
49 197 0
49 198 0
49 199 0
49 200 0
49 201 0
49 202 0
49 203 0
49 204 0
49 205 0
49 206 0
49 207 208 0
49 -207 -208 0
49 209 210 0
49 -209 -210 0
49 211 0
49 212 0
49 213 0
49 214 0
49 215 0
49 216 0
49 217 218 219 220 221 0
49 -1289 1288 0
49 -1290 1289 0
49 -1291 1290 0
49 -1292 1291 0
49 1288 217 0
49 -217 -1288 0
49 -1288 1289 218 0
49 1288 -218 0
49 -218 -1289 0
49 -1289 1290 219 0
49 1289 -219 0
49 -219 -1290 0
49 -1290 1291 220 0
49 1290 -220 0
49 -220 -1291 0
49 -1291 1292 221 0
49 1291 -221 0
49 -221 -1292 0
49 -1292 1287 0
49 -1287 1292 0
49 222 223 224 225 226 0
49 -1295 1294 0
49 -1296 1295 0
49 -1297 1296 0
49 -1298 1297 0
49 1294 222 0
49 -222 -1294 0
49 -1294 1295 223 0
49 1294 -223 0
49 -223 -1295 0
49 -1295 1296 224 0
49 1295 -224 0
49 -224 -1296 0
49 -1296 1297 225 0
49 1296 -225 0
49 -225 -1297 0
49 -1297 1298 226 0
49 1297 -226 0
49 -226 -1298 0
49 -1298 1293 0
49 -1293 1298 0
49 227 0
49 228 0
49 229 0
49 230 0
49 231 0
49 232 0
49 233 0
49 234 0
49 235 0
49 236 0
49 237 0
49 238 0
49 239 0
49 240 0
49 241 0
49 242 0
49 243 0
49 244 0
49 245 0
49 246 0
49 247 0
49 248 0
49 249 0
49 250 0
49 251 0
49 252 0
49 253 254 255 256 257 258 259 0
49 -1301 1300 0
49 -1302 1301 0
49 -1303 1302 0
49 -1304 1303 0
49 -1305 1304 0
49 -1306 1305 0
49 1300 253 0
49 -253 -1300 0
49 -1300 1301 254 0
49 1300 -254 0
49 -254 -1301 0
49 -1301 1302 255 0
49 1301 -255 0
49 -255 -1302 0
49 -1302 1303 256 0
49 1302 -256 0
49 -256 -1303 0
49 -1303 1304 257 0
49 1303 -257 0
49 -257 -1304 0
49 -1304 1305 258 0
49 1304 -258 0
49 -258 -1305 0
49 -1305 1306 259 0
49 1305 -259 0
49 -259 -1306 0
49 -1306 1299 0
49 -1299 1306 0
49 260 261 262 263 264 265 266 0
49 -1309 1308 0
49 -1310 1309 0
49 -1311 1310 0
49 -1312 1311 0
49 -1313 1312 0
49 -1314 1313 0
49 1308 260 0
49 -260 -1308 0
49 -1308 1309 261 0
49 1308 -261 0
49 -261 -1309 0
49 -1309 1310 262 0
49 1309 -262 0
49 -262 -1310 0
49 -1310 1311 263 0
49 1310 -263 0
49 -263 -1311 0
49 -1311 1312 264 0
49 1311 -264 0
49 -264 -1312 0
49 -1312 1313 265 0
49 1312 -265 0
49 -265 -1313 0
49 -1313 1314 266 0
49 1313 -266 0
49 -266 -1314 0
49 -1314 1307 0
49 -1307 1314 0
49 267 0
49 268 0
49 269 0
49 270 0
49 271 0
49 272 0
49 273 0
49 274 0
49 275 0
49 276 0
49 277 0
49 278 0
49 279 0
49 280 0
49 281 0
49 282 0
49 283 0
49 284 0
49 285 0
49 286 0
49 287 0
49 288 0
49 289 0
49 290 0
49 291 0
49 292 0
49 293 294 0
49 -293 -294 0
49 295 296 0
49 -295 -296 0
49 297 0
49 298 0
49 299 0
49 300 0
49 301 0
49 302 0
49 303 0
49 304 0
49 305 0
49 306 0
49 307 0
49 308 0
49 309 0
49 310 0
49 311 0
49 312 0
49 313 0
49 314 0
49 315 0
49 316 0
49 317 0
49 318 0
49 319 0
49 320 0
49 321 0
49 322 0
49 323 0
49 324 0
49 325 326 0
49 -325 -326 0
49 327 328 0
49 -327 -328 0
49 329 0
49 330 0
49 331 0
49 332 0
49 333 0
49 334 0
49 335 0
49 336 0
49 337 0
49 338 0
49 339 0
49 340 0
49 341 0
49 342 0
49 343 0
49 344 0
49 345 0
49 346 0
49 347 348 349 350 351 352 353 354 355 356 357 0
49 -1317 1316 0
49 -1318 1317 0
49 -1319 1318 0
49 -1320 1319 0
49 -1321 1320 0
49 -1322 1321 0
49 -1323 1322 0
49 -1324 1323 0
49 -1325 1324 0
49 -1326 1325 0
49 1316 347 0
49 -347 -1316 0
49 -1316 1317 348 0
49 1316 -348 0
49 -348 -1317 0
49 -1317 1318 349 0
49 1317 -349 0
49 -349 -1318 0
49 -1318 1319 350 0
49 1318 -350 0
49 -350 -1319 0
49 -1319 1320 351 0
49 1319 -351 0
49 -351 -1320 0
49 -1320 1321 352 0
49 1320 -352 0
49 -352 -1321 0
49 -1321 1322 353 0
49 1321 -353 0
49 -353 -1322 0
49 -1322 1323 354 0
49 1322 -354 0
49 -354 -1323 0
49 -1323 1324 355 0
49 1323 -355 0
49 -355 -1324 0
49 -1324 1325 356 0
49 1324 -356 0
49 -356 -1325 0
49 -1325 1326 357 0
49 1325 -357 0
49 -357 -1326 0
49 -1326 1315 0
49 -1315 1326 0
49 358 359 360 361 362 363 364 365 366 367 368 0
49 -1329 1328 0
49 -1330 1329 0
49 -1331 1330 0
49 -1332 1331 0
49 -1333 1332 0
49 -1334 1333 0
49 -1335 1334 0
49 -1336 1335 0
49 -1337 1336 0
49 -1338 1337 0
49 1328 358 0
49 -358 -1328 0
49 -1328 1329 359 0
49 1328 -359 0
49 -359 -1329 0
49 -1329 1330 360 0
49 1329 -360 0
49 -360 -1330 0
49 -1330 1331 361 0
49 1330 -361 0
49 -361 -1331 0
49 -1331 1332 362 0
49 1331 -362 0
49 -362 -1332 0
49 -1332 1333 363 0
49 1332 -363 0
49 -363 -1333 0
49 -1333 1334 364 0
49 1333 -364 0
49 -364 -1334 0
49 -1334 1335 365 0
49 1334 -365 0
49 -365 -1335 0
49 -1335 1336 366 0
49 1335 -366 0
49 -366 -1336 0
49 -1336 1337 367 0
49 1336 -367 0
49 -367 -1337 0
49 -1337 1338 368 0
49 1337 -368 0
49 -368 -1338 0
49 -1338 1327 0
49 -1327 1338 0
49 369 0
49 370 0
49 371 0
49 372 0
49 373 0
49 374 0
49 375 0
49 376 0
49 377 378 379 380 381 382 383 384 0
49 -1341 1340 0
49 -1342 1341 0
49 -1343 1342 0
49 -1344 1343 0
49 -1345 1344 0
49 -1346 1345 0
49 -1347 1346 0
49 1340 377 0
49 -377 -1340 0
49 -1340 1341 378 0
49 1340 -378 0
49 -378 -1341 0
49 -1341 1342 379 0
49 1341 -379 0
49 -379 -1342 0
49 -1342 1343 380 0
49 1342 -380 0
49 -380 -1343 0
49 -1343 1344 381 0
49 1343 -381 0
49 -381 -1344 0
49 -1344 1345 382 0
49 1344 -382 0
49 -382 -1345 0
49 -1345 1346 383 0
49 1345 -383 0
49 -383 -1346 0
49 -1346 1347 384 0
49 1346 -384 0
49 -384 -1347 0
49 -1347 1339 0
49 -1339 1347 0
49 385 386 387 388 389 390 391 392 0
49 -1350 1349 0
49 -1351 1350 0
49 -1352 1351 0
49 -1353 1352 0
49 -1354 1353 0
49 -1355 1354 0
49 -1356 1355 0
49 1349 385 0
49 -385 -1349 0
49 -1349 1350 386 0
49 1349 -386 0
49 -386 -1350 0
49 -1350 1351 387 0
49 1350 -387 0
49 -387 -1351 0
49 -1351 1352 388 0
49 1351 -388 0
49 -388 -1352 0
49 -1352 1353 389 0
49 1352 -389 0
49 -389 -1353 0
49 -1353 1354 390 0
49 1353 -390 0
49 -390 -1354 0
49 -1354 1355 391 0
49 1354 -391 0
49 -391 -1355 0
49 -1355 1356 392 0
49 1355 -392 0
49 -392 -1356 0
49 -1356 1348 0
49 -1348 1356 0
49 393 0
49 394 0
49 395 0
49 396 0
49 397 398 399 0
49 -1359 1358 0
49 -1360 1359 0
49 1358 397 0
49 -397 -1358 0
49 -1358 1359 398 0
49 1358 -398 0
49 -398 -1359 0
49 -1359 1360 399 0
49 1359 -399 0
49 -399 -1360 0
49 -1360 1357 0
49 -1357 1360 0
49 400 401 402 0
49 -1363 1362 0
49 -1364 1363 0
49 1362 400 0
49 -400 -1362 0
49 -1362 1363 401 0
49 1362 -401 0
49 -401 -1363 0
49 -1363 1364 402 0
49 1363 -402 0
49 -402 -1364 0
49 -1364 1361 0
49 -1361 1364 0
49 403 0
49 404 0
49 405 0
49 406 0
49 407 0
49 408 0
49 409 0
49 410 0
49 411 0
49 412 0
49 413 0
49 414 0
49 415 0
49 416 0
49 417 418 419 420 0
49 -1367 1366 0
49 -1368 1367 0
49 -1369 1368 0
49 1366 417 0
49 -417 -1366 0
49 -1366 1367 418 0
49 1366 -418 0
49 -418 -1367 0
49 -1367 1368 419 0
49 1367 -419 0
49 -419 -1368 0
49 -1368 1369 420 0
49 1368 -420 0
49 -420 -1369 0
49 -1369 1365 0
49 -1365 1369 0
49 421 422 423 424 0
49 -1372 1371 0
49 -1373 1372 0
49 -1374 1373 0
49 1371 421 0
49 -421 -1371 0
49 -1371 1372 422 0
49 1371 -422 0
49 -422 -1372 0
49 -1372 1373 423 0
49 1372 -423 0
49 -423 -1373 0
49 -1373 1374 424 0
49 1373 -424 0
49 -424 -1374 0
49 -1374 1370 0
49 -1370 1374 0
49 425 0
49 426 0
49 427 0
49 428 0
49 429 430 431 432 433 434 435 0
49 -1377 1376 0
49 -1378 1377 0
49 -1379 1378 0
49 -1380 1379 0
49 -1381 1380 0
49 -1382 1381 0
49 1376 429 0
49 -429 -1376 0
49 -1376 1377 430 0
49 1376 -430 0
49 -430 -1377 0
49 -1377 1378 431 0
49 1377 -431 0
49 -431 -1378 0
49 -1378 1379 432 0
49 1378 -432 0
49 -432 -1379 0
49 -1379 1380 433 0
49 1379 -433 0
49 -433 -1380 0
49 -1380 1381 434 0
49 1380 -434 0
49 -434 -1381 0
49 -1381 1382 435 0
49 1381 -435 0
49 -435 -1382 0
49 -1382 1375 0
49 -1375 1382 0
49 436 437 438 439 440 441 442 0
49 -1385 1384 0
49 -1386 1385 0
49 -1387 1386 0
49 -1388 1387 0
49 -1389 1388 0
49 -1390 1389 0
49 1384 436 0
49 -436 -1384 0
49 -1384 1385 437 0
49 1384 -437 0
49 -437 -1385 0
49 -1385 1386 438 0
49 1385 -438 0
49 -438 -1386 0
49 -1386 1387 439 0
49 1386 -439 0
49 -439 -1387 0
49 -1387 1388 440 0
49 1387 -440 0
49 -440 -1388 0
49 -1388 1389 441 0
49 1388 -441 0
49 -441 -1389 0
49 -1389 1390 442 0
49 1389 -442 0
49 -442 -1390 0
49 -1390 1383 0
49 -1383 1390 0
49 443 0
49 444 0
49 445 0
49 446 0
49 447 448 449 0
49 -1393 1392 0
49 -1394 1393 0
49 1392 447 0
49 -447 -1392 0
49 -1392 1393 448 0
49 1392 -448 0
49 -448 -1393 0
49 -1393 1394 449 0
49 1393 -449 0
49 -449 -1394 0
49 -1394 1391 0
49 -1391 1394 0
49 450 451 452 0
49 -1397 1396 0
49 -1398 1397 0
49 1396 450 0
49 -450 -1396 0
49 -1396 1397 451 0
49 1396 -451 0
49 -451 -1397 0
49 -1397 1398 452 0
49 1397 -452 0
49 -452 -1398 0
49 -1398 1395 0
49 -1395 1398 0
49 453 454 0
49 -453 -454 0
49 455 456 0
49 -455 -456 0
49 457 0
49 458 0
49 459 0
49 460 0
49 461 0
49 462 0
49 463 0
49 464 0
49 465 0
49 466 0
49 467 0
49 468 0
49 469 0
49 470 0
49 471 0
49 472 0
49 473 0
49 474 0
49 475 0
49 476 0
49 477 478 0
49 -477 -478 0
49 479 480 0
49 -479 -480 0
49 481 0
49 482 0
49 483 0
49 484 0
49 485 0
49 486 0
49 487 0
49 488 0
49 489 0
49 490 0
49 491 0
49 492 0
49 493 0
49 494 0
49 495 496 497 498 499 500 0
49 -1401 1400 0
49 -1402 1401 0
49 -1403 1402 0
49 -1404 1403 0
49 -1405 1404 0
49 1400 495 0
49 -495 -1400 0
49 -1400 1401 496 0
49 1400 -496 0
49 -496 -1401 0
49 -1401 1402 497 0
49 1401 -497 0
49 -497 -1402 0
49 -1402 1403 498 0
49 1402 -498 0
49 -498 -1403 0
49 -1403 1404 499 0
49 1403 -499 0
49 -499 -1404 0
49 -1404 1405 500 0
49 1404 -500 0
49 -500 -1405 0
49 -1405 1399 0
49 -1399 1405 0
49 501 502 503 504 505 506 0
49 -1408 1407 0
49 -1409 1408 0
49 -1410 1409 0
49 -1411 1410 0
49 -1412 1411 0
49 1407 501 0
49 -501 -1407 0
49 -1407 1408 502 0
49 1407 -502 0
49 -502 -1408 0
49 -1408 1409 503 0
49 1408 -503 0
49 -503 -1409 0
49 -1409 1410 504 0
49 1409 -504 0
49 -504 -1410 0
49 -1410 1411 505 0
49 1410 -505 0
49 -505 -1411 0
49 -1411 1412 506 0
49 1411 -506 0
49 -506 -1412 0
49 -1412 1406 0
49 -1406 1412 0
49 507 0
49 508 0
49 509 0
49 510 0
49 511 0
49 512 0
49 513 0
49 514 0
49 515 0
49 516 0
49 517 0
49 518 0
49 519 0
49 520 0
49 521 0
49 522 0
49 523 524 525 526 527 528 529 0
49 -1415 1414 0
49 -1416 1415 0
49 -1417 1416 0
49 -1418 1417 0
49 -1419 1418 0
49 -1420 1419 0
49 1414 523 0
49 -523 -1414 0
49 -1414 1415 524 0
49 1414 -524 0
49 -524 -1415 0
49 -1415 1416 525 0
49 1415 -525 0
49 -525 -1416 0
49 -1416 1417 526 0
49 1416 -526 0
49 -526 -1417 0
49 -1417 1418 527 0
49 1417 -527 0
49 -527 -1418 0
49 -1418 1419 528 0
49 1418 -528 0
49 -528 -1419 0
49 -1419 1420 529 0
49 1419 -529 0
49 -529 -1420 0
49 -1420 1413 0
49 -1413 1420 0
49 530 531 532 533 534 535 536 0
49 -1423 1422 0
49 -1424 1423 0
49 -1425 1424 0
49 -1426 1425 0
49 -1427 1426 0
49 -1428 1427 0
49 1422 530 0
49 -530 -1422 0
49 -1422 1423 531 0
49 1422 -531 0
49 -531 -1423 0
49 -1423 1424 532 0
49 1423 -532 0
49 -532 -1424 0
49 -1424 1425 533 0
49 1424 -533 0
49 -533 -1425 0
49 -1425 1426 534 0
49 1425 -534 0
49 -534 -1426 0
49 -1426 1427 535 0
49 1426 -535 0
49 -535 -1427 0
49 -1427 1428 536 0
49 1427 -536 0
49 -536 -1428 0
49 -1428 1421 0
49 -1421 1428 0
49 537 0
49 538 0
49 539 0
49 540 0
49 541 0
49 542 0
49 543 0
49 544 0
49 545 0
49 546 0
49 547 0
49 548 0
49 549 0
49 550 0
49 551 552 0
49 -551 -552 0
49 553 554 0
49 -553 -554 0
49 555 0
49 556 0
49 557 0
49 558 0
49 559 0
49 560 0
49 561 0
49 562 0
49 563 0
49 564 0
49 565 0
49 566 0
49 567 0
49 568 0
49 569 0
49 570 0
49 571 0
49 572 0
49 573 0
49 574 0
49 575 0
49 576 0
49 577 0
49 578 0
49 579 0
49 580 0
49 581 0
49 582 0
49 583 0
49 584 0
49 585 0
49 586 0
49 587 0
49 588 0
49 589 0
49 590 0
49 591 0
49 592 0
49 593 0
49 594 0
49 595 0
49 596 0
49 597 598 0
49 -597 -598 0
49 599 600 0
49 -599 -600 0
49 601 0
49 602 0
49 603 0
49 604 0
49 605 0
49 606 0
49 607 0
49 608 0
49 609 0
49 610 0
49 611 612 613 614 615 616 0
49 -1431 1430 0
49 -1432 1431 0
49 -1433 1432 0
49 -1434 1433 0
49 -1435 1434 0
49 1430 611 0
49 -611 -1430 0
49 -1430 1431 612 0
49 1430 -612 0
49 -612 -1431 0
49 -1431 1432 613 0
49 1431 -613 0
49 -613 -1432 0
49 -1432 1433 614 0
49 1432 -614 0
49 -614 -1433 0
49 -1433 1434 615 0
49 1433 -615 0
49 -615 -1434 0
49 -1434 1435 616 0
49 1434 -616 0
49 -616 -1435 0
49 -1435 1429 0
49 -1429 1435 0
49 617 618 619 620 621 622 0
49 -1438 1437 0
49 -1439 1438 0
49 -1440 1439 0
49 -1441 1440 0
49 -1442 1441 0
49 1437 617 0
49 -617 -1437 0
49 -1437 1438 618 0
49 1437 -618 0
49 -618 -1438 0
49 -1438 1439 619 0
49 1438 -619 0
49 -619 -1439 0
49 -1439 1440 620 0
49 1439 -620 0
49 -620 -1440 0
49 -1440 1441 621 0
49 1440 -621 0
49 -621 -1441 0
49 -1441 1442 622 0
49 1441 -622 0
49 -622 -1442 0
49 -1442 1436 0
49 -1436 1442 0
49 623 0
49 624 0
49 625 0
49 626 0
49 627 0
49 628 0
49 629 0
49 630 0
49 631 0
49 632 0
49 633 0
49 634 0
49 635 0
49 636 0
49 637 0
49 638 0
49 639 0
49 640 0
49 641 642 0
49 -641 -642 0
49 643 644 0
49 -643 -644 0
49 645 0
49 646 0
49 647 0
49 648 0
49 649 0
49 650 0
49 651 0
49 652 0
49 653 0
49 654 0
49 655 0
49 656 0
49 657 0
49 658 0
49 659 0
49 660 0
49 661 0
49 662 0
49 663 0
49 664 0
49 665 0
49 666 0
49 667 0
49 668 0
49 669 670 0
49 -669 -670 0
49 671 672 0
49 -671 -672 0
49 673 0
49 674 0
49 675 0
49 676 0
49 677 0
49 678 0
49 679 0
49 680 0
49 681 0
49 682 0
49 683 0
49 684 0
49 685 0
49 686 0
49 687 0
49 688 0
49 689 0
49 690 0
49 691 0
49 692 0
49 693 0
49 694 0
49 695 0
49 696 0
49 697 0
49 698 0
49 699 0
49 700 0
49 701 0
49 702 0
49 703 0
49 704 0
49 705 0
49 706 0
49 707 0
49 708 0
49 709 0
49 710 0
49 711 0
49 712 0
49 713 0
49 714 0
49 715 0
49 716 0
49 717 0
49 718 0
49 719 0
49 720 0
49 721 722 723 0
49 -1445 1444 0
49 -1446 1445 0
49 1444 721 0
49 -721 -1444 0
49 -1444 1445 722 0
49 1444 -722 0
49 -722 -1445 0
49 -1445 1446 723 0
49 1445 -723 0
49 -723 -1446 0
49 -1446 1443 0
49 -1443 1446 0
49 724 725 726 0
49 -1449 1448 0
49 -1450 1449 0
49 1448 724 0
49 -724 -1448 0
49 -1448 1449 725 0
49 1448 -725 0
49 -725 -1449 0
49 -1449 1450 726 0
49 1449 -726 0
49 -726 -1450 0
49 -1450 1447 0
49 -1447 1450 0
49 727 0
49 728 0
49 729 0
49 730 0
49 731 0
49 732 0
49 733 0
49 734 0
49 735 0
49 736 0
49 737 0
49 738 0
49 739 0
49 740 0
49 741 0
49 742 0
49 743 0
49 744 0
49 745 746 747 0
49 -1453 1452 0
49 -1454 1453 0
49 1452 745 0
49 -745 -1452 0
49 -1452 1453 746 0
49 1452 -746 0
49 -746 -1453 0
49 -1453 1454 747 0
49 1453 -747 0
49 -747 -1454 0
49 -1454 1451 0
49 -1451 1454 0
49 748 749 750 0
49 -1457 1456 0
49 -1458 1457 0
49 1456 748 0
49 -748 -1456 0
49 -1456 1457 749 0
49 1456 -749 0
49 -749 -1457 0
49 -1457 1458 750 0
49 1457 -750 0
49 -750 -1458 0
49 -1458 1455 0
49 -1455 1458 0
49 751 0
49 752 0
49 753 0
49 754 0
49 755 0
49 756 0
49 757 0
49 758 0
49 759 0
49 760 0
49 761 0
49 762 0
49 763 0
49 764 0
49 765 0
49 766 0
49 767 0
49 768 0
49 769 0
49 770 0
49 771 0
49 772 0
49 773 0
49 774 0
49 775 0
49 776 0
49 777 0
49 778 0
49 779 0
49 780 0
49 781 0
49 782 0
49 783 0
49 784 0
49 785 0
49 786 0
49 787 0
49 788 0
49 789 0
49 790 0
49 791 0
49 792 0
49 793 0
49 794 0
49 795 0
49 796 0
49 797 0
49 798 0
49 799 0
49 800 0
49 801 0
49 802 0
49 803 0
49 804 0
49 805 0
49 806 0
49 807 0
49 808 0
49 809 0
49 810 0
49 811 0
49 812 0
49 813 0
49 814 0
49 815 0
49 816 0
49 817 0
49 818 0
49 819 0
49 820 0
49 821 0
49 822 0
49 823 0
49 824 0
49 825 0
49 826 0
49 827 828 829 830 831 832 0
49 -1461 1460 0
49 -1462 1461 0
49 -1463 1462 0
49 -1464 1463 0
49 -1465 1464 0
49 1460 827 0
49 -827 -1460 0
49 -1460 1461 828 0
49 1460 -828 0
49 -828 -1461 0
49 -1461 1462 829 0
49 1461 -829 0
49 -829 -1462 0
49 -1462 1463 830 0
49 1462 -830 0
49 -830 -1463 0
49 -1463 1464 831 0
49 1463 -831 0
49 -831 -1464 0
49 -1464 1465 832 0
49 1464 -832 0
49 -832 -1465 0
49 -1465 1459 0
49 -1459 1465 0
49 833 834 835 836 837 838 0
49 -1468 1467 0
49 -1469 1468 0
49 -1470 1469 0
49 -1471 1470 0
49 -1472 1471 0
49 1467 833 0
49 -833 -1467 0
49 -1467 1468 834 0
49 1467 -834 0
49 -834 -1468 0
49 -1468 1469 835 0
49 1468 -835 0
49 -835 -1469 0
49 -1469 1470 836 0
49 1469 -836 0
49 -836 -1470 0
49 -1470 1471 837 0
49 1470 -837 0
49 -837 -1471 0
49 -1471 1472 838 0
49 1471 -838 0
49 -838 -1472 0
49 -1472 1466 0
49 -1466 1472 0
49 839 0
49 840 0
49 841 0
49 842 0
49 843 0
49 844 0
49 845 0
49 846 0
49 847 0
49 848 0
49 849 0
49 850 0
49 851 0
49 852 0
49 853 0
49 854 0
49 855 0
49 856 0
49 857 0
49 858 0
49 859 0
49 860 0
49 861 0
49 862 0
49 863 0
49 864 0
49 865 0
49 866 0
49 867 0
49 868 0
49 869 870 871 0
49 -1475 1474 0
49 -1476 1475 0
49 1474 869 0
49 -869 -1474 0
49 -1474 1475 870 0
49 1474 -870 0
49 -870 -1475 0
49 -1475 1476 871 0
49 1475 -871 0
49 -871 -1476 0
49 -1476 1473 0
49 -1473 1476 0
49 872 873 874 0
49 -1479 1478 0
49 -1480 1479 0
49 1478 872 0
49 -872 -1478 0
49 -1478 1479 873 0
49 1478 -873 0
49 -873 -1479 0
49 -1479 1480 874 0
49 1479 -874 0
49 -874 -1480 0
49 -1480 1477 0
49 -1477 1480 0
49 875 0
49 876 0
49 877 0
49 878 0
49 879 0
49 880 0
49 881 0
49 882 0
49 883 0
49 884 0
49 885 0
49 886 0
49 887 0
49 888 0
49 889 0
49 890 0
49 891 0
49 892 0
49 893 0
49 894 0
49 895 0
49 896 0
49 897 0
49 898 0
49 899 0
49 900 0
49 901 902 0
49 -901 -902 0
49 903 904 0
49 -903 -904 0
49 905 0
49 906 0
49 907 0
49 908 0
49 909 0
49 910 0
49 911 0
49 912 0
49 913 0
49 914 0
49 915 0
49 916 0
49 917 0
49 918 0
49 919 0
49 920 0
49 921 0
49 922 0
49 923 0
49 924 0
49 925 926 927 0
49 -1483 1482 0
49 -1484 1483 0
49 1482 925 0
49 -925 -1482 0
49 -1482 1483 926 0
49 1482 -926 0
49 -926 -1483 0
49 -1483 1484 927 0
49 1483 -927 0
49 -927 -1484 0
49 -1484 1481 0
49 -1481 1484 0
49 928 929 930 0
49 -1487 1486 0
49 -1488 1487 0
49 1486 928 0
49 -928 -1486 0
49 -1486 1487 929 0
49 1486 -929 0
49 -929 -1487 0
49 -1487 1488 930 0
49 1487 -930 0
49 -930 -1488 0
49 -1488 1485 0
49 -1485 1488 0
49 931 0
49 932 0
49 933 0
49 934 0
49 935 0
49 936 0
49 937 0
49 938 0
49 939 0
49 940 0
49 941 0
49 942 0
49 943 0
49 944 0
49 945 0
49 946 0
49 947 0
49 948 0
49 949 0
49 950 0
49 951 0
49 952 0
49 953 0
49 954 0
49 955 0
49 956 0
49 957 0
49 958 0
49 959 0
49 960 0
49 961 0
49 962 0
49 963 0
49 964 0
49 965 0
49 966 0
49 967 0
49 968 0
49 969 0
49 970 0
49 971 0
49 972 0
49 973 0
49 974 0
49 975 0
49 976 0
49 977 0
49 978 0
49 979 0
49 980 0
49 981 0
49 982 0
49 983 0
49 984 0
49 985 0
49 986 0
49 987 0
49 988 0
49 989 0
49 990 0
49 991 0
49 992 0
49 993 994 995 996 0
49 -1491 1490 0
49 -1492 1491 0
49 -1493 1492 0
49 1490 993 0
49 -993 -1490 0
49 -1490 1491 994 0
49 1490 -994 0
49 -994 -1491 0
49 -1491 1492 995 0
49 1491 -995 0
49 -995 -1492 0
49 -1492 1493 996 0
49 1492 -996 0
49 -996 -1493 0
49 -1493 1489 0
49 -1489 1493 0
49 997 998 999 1000 0
49 -1496 1495 0
49 -1497 1496 0
49 -1498 1497 0
49 1495 997 0
49 -997 -1495 0
49 -1495 1496 998 0
49 1495 -998 0
49 -998 -1496 0
49 -1496 1497 999 0
49 1496 -999 0
49 -999 -1497 0
49 -1497 1498 1000 0
49 1497 -1000 0
49 -1000 -1498 0
49 -1498 1494 0
49 -1494 1498 0
49 1001 0
49 1002 0
49 1003 0
49 1004 0
49 1005 0
49 1006 0
49 1007 0
49 1008 0
49 1009 0
49 1010 0
49 1011 0
49 1012 0
49 1013 0
49 1014 0
49 1015 0
49 1016 0
49 1017 0
49 1018 0
49 1019 0
49 1020 0
49 1021 0
49 1022 0
49 1023 0
49 1024 0
49 1025 0
49 1026 0
49 1027 0
49 1028 0
49 1029 0
49 1030 0
49 1031 0
49 1032 0
49 1033 0
49 1034 0
49 1035 0
49 1036 0
49 1037 1038 0
49 -1037 -1038 0
49 1039 1040 0
49 -1039 -1040 0
49 1041 0
49 1042 0
49 1043 0
49 1044 0
49 1045 0
49 1046 0
49 1047 0
49 1048 0
49 1049 0
49 1050 0
49 1051 0
49 1052 0
49 1053 0
49 1054 0
49 1055 0
49 1056 0
49 1057 0
49 1058 0
49 1059 0
49 1060 0
49 1061 0
49 1062 0
49 1063 1064 1065 1066 1067 1068 1069 1070 1071 1072 1073 0
49 -1501 1500 0
49 -1502 1501 0
49 -1503 1502 0
49 -1504 1503 0
49 -1505 1504 0
49 -1506 1505 0
49 -1507 1506 0
49 -1508 1507 0
49 -1509 1508 0
49 -1510 1509 0
49 1500 1063 0
49 -1063 -1500 0
49 -1500 1501 1064 0
49 1500 -1064 0
49 -1064 -1501 0
49 -1501 1502 1065 0
49 1501 -1065 0
49 -1065 -1502 0
49 -1502 1503 1066 0
49 1502 -1066 0
49 -1066 -1503 0
49 -1503 1504 1067 0
49 1503 -1067 0
49 -1067 -1504 0
49 -1504 1505 1068 0
49 1504 -1068 0
49 -1068 -1505 0
49 -1505 1506 1069 0
49 1505 -1069 0
49 -1069 -1506 0
49 -1506 1507 1070 0
49 1506 -1070 0
49 -1070 -1507 0
49 -1507 1508 1071 0
49 1507 -1071 0
49 -1071 -1508 0
49 -1508 1509 1072 0
49 1508 -1072 0
49 -1072 -1509 0
49 -1509 1510 1073 0
49 1509 -1073 0
49 -1073 -1510 0
49 -1510 1499 0
49 -1499 1510 0
49 1074 1075 1076 1077 1078 1079 1080 1081 1082 1083 1084 0
49 -1513 1512 0
49 -1514 1513 0
49 -1515 1514 0
49 -1516 1515 0
49 -1517 1516 0
49 -1518 1517 0
49 -1519 1518 0
49 -1520 1519 0
49 -1521 1520 0
49 -1522 1521 0
49 1512 1074 0
49 -1074 -1512 0
49 -1512 1513 1075 0
49 1512 -1075 0
49 -1075 -1513 0
49 -1513 1514 1076 0
49 1513 -1076 0
49 -1076 -1514 0
49 -1514 1515 1077 0
49 1514 -1077 0
49 -1077 -1515 0
49 -1515 1516 1078 0
49 1515 -1078 0
49 -1078 -1516 0
49 -1516 1517 1079 0
49 1516 -1079 0
49 -1079 -1517 0
49 -1517 1518 1080 0
49 1517 -1080 0
49 -1080 -1518 0
49 -1518 1519 1081 0
49 1518 -1081 0
49 -1081 -1519 0
49 -1519 1520 1082 0
49 1519 -1082 0
49 -1082 -1520 0
49 -1520 1521 1083 0
49 1520 -1083 0
49 -1083 -1521 0
49 -1521 1522 1084 0
49 1521 -1084 0
49 -1084 -1522 0
49 -1522 1511 0
49 -1511 1522 0
49 1085 0
49 1086 0
49 1087 0
49 1088 0
49 1089 0
49 1090 0
49 1091 0
49 1092 0
49 1093 0
49 1094 0
49 1095 0
49 1096 0
49 1097 0
49 1098 0
49 1099 0
49 1100 0
49 1101 0
49 1102 0
49 1103 0
49 1104 0
49 1105 0
49 1106 0
49 1107 0
49 1108 0
49 1109 0
49 1110 0
49 1111 0
49 1112 0
49 1113 0
49 1114 0
49 1115 0
49 1116 0
49 1117 0
49 1118 0
49 1119 0
49 1120 0
49 1121 0
49 1122 0
49 1123 0
49 1124 0
49 1125 0
49 1126 0
49 1127 0
49 1128 0
49 1129 0
49 1130 0
49 1131 0
49 1132 0
49 1133 0
49 1134 0
49 1135 0
49 1136 0
49 1137 0
49 1138 0
49 1139 0
49 1140 0
49 1141 0
49 1142 0
49 1143 0
49 1144 0
49 1145 0
49 1146 0
49 1147 0
49 1148 0
49 1149 0
49 1150 0
49 1151 0
49 1152 0
49 1153 0
49 1154 0
49 1155 0
49 1156 0
49 1157 0
49 1158 0
49 1159 0
49 1160 0
49 1161 0
49 1162 0
49 1163 0
49 1164 0
49 1165 0
49 1166 0
49 1167 0
49 1168 0
49 1169 0
49 1170 0
49 1171 0
49 1172 0
49 1173 0
49 1174 0
49 1175 0
49 1176 0
49 1177 0
49 1178 0
49 1179 0
49 1180 0
49 -1 2 0
49 -3 4 0
49 -5 6 0
49 -7 8 0
49 -9 10 0
49 -11 12 0
49 -13 14 0
49 -15 26 0
49 -16 27 0
49 -17 28 0
49 -18 29 0
49 -19 30 0
49 -20 31 0
49 -21 32 0
49 -22 33 0
49 -23 34 0
49 -24 35 0
49 -25 36 0
49 -15 -358 0
49 -15 -359 0
49 -15 -360 0
49 -15 -361 0
49 -15 -362 0
49 -15 -363 0
49 -15 -364 0
49 -15 -365 0
49 -15 -366 0
49 -15 -367 0
49 -16 -368 0
49 -17 -368 0
49 -18 -368 0
49 -19 -368 0
49 -20 -368 0
49 -21 -368 0
49 -22 -368 0
49 -23 -368 0
49 -24 -368 0
49 -25 -368 0
49 -37 41 0
49 -38 42 0
49 -39 43 0
49 -40 44 0
49 -45 46 0
49 -47 48 0
49 -49 50 0
49 -51 52 0
49 -53 54 0
49 -55 56 0
49 -57 58 0
49 -59 82 0
49 -60 71 0
49 -61 72 0
49 -62 73 0
49 -63 74 0
49 -64 75 0
49 -65 76 0
49 -66 77 0
49 -67 78 0
49 -68 79 0
49 -69 80 0
49 -70 81 0
49 -83 84 0
49 -85 86 0
49 -87 88 0
49 -89 90 0
49 -91 92 0
49 -93 94 0
49 -95 96 0
49 -97 98 0
49 -99 100 0
49 -101 102 0
49 -103 104 0
49 -105 106 0
49 -107 108 0
49 -109 110 0
49 -111 112 0
49 -113 114 0
49 -115 116 0
49 -117 118 0
49 -119 120 0
49 -121 126 0
49 -122 127 0
49 -123 128 0
49 -124 129 0
49 -125 130 0
49 -131 132 0
49 -133 134 0
49 -135 139 0
49 -136 140 0
49 -137 141 0
49 -138 142 0
49 -143 144 0
49 -145 146 0
49 -147 148 0
49 -149 150 0
49 -151 152 0
49 -153 156 0
49 -154 157 0
49 -155 158 0
49 -159 160 0
49 -161 168 0
49 -162 169 0
49 -163 170 0
49 -164 171 0
49 -165 172 0
49 -166 173 0
49 -167 174 0
49 -175 176 0
49 -177 178 0
49 -179 180 0
49 -181 182 0
49 -183 184 0
49 -185 186 0
49 -187 188 0
49 -189 190 0
49 -191 192 0
49 -193 194 0
49 -195 196 0
49 -197 198 0
49 -199 200 0
49 -201 202 0
49 -203 204 0
49 -205 206 0
49 -207 209 0
49 -208 210 0
49 -211 212 0
49 -213 214 0
49 -215 216 0
49 -217 222 0
49 -218 223 0
49 -219 224 0
49 -220 225 0
49 -221 226 0
49 -227 228 0
49 -229 230 0
49 -231 232 0
49 -233 234 0
49 -235 236 0
49 -237 238 0
49 -239 240 0
49 -241 242 0
49 -243 244 0
49 -245 246 0
49 -247 248 0
49 -249 250 0
49 -251 252 0
49 -253 260 0
49 -254 261 0
49 -255 262 0
49 -256 263 0
49 -257 264 0
49 -258 265 0
49 -259 266 0
49 -267 268 0
49 -269 270 0
49 -271 272 0
49 -273 274 0
49 -275 276 0
49 -277 278 0
49 -279 280 0
49 -281 282 0
49 -283 284 0
49 -285 286 0
49 -287 288 0
49 -289 290 0
49 -291 292 0
49 -293 295 0
49 -294 296 0
49 -297 298 0
49 -299 300 0
49 -301 302 0
49 -303 304 0
49 -305 306 0
49 -307 308 0
49 -309 310 0
49 -311 312 0
49 -313 314 0
49 -315 316 0
49 -317 318 0
49 -319 320 0
49 -321 322 0
49 -323 324 0
49 -325 327 0
49 -326 328 0
49 -326 -455 0
49 -329 330 0
49 -331 332 0
49 -333 334 0
49 -335 336 0
49 -337 338 0
49 -339 340 0
49 -341 342 0
49 -343 344 0
49 -345 346 0
49 -347 358 0
49 -348 359 0
49 -349 360 0
49 -350 361 0
49 -351 362 0
49 -352 363 0
49 -353 364 0
49 -354 365 0
49 -355 366 0
49 -356 367 0
49 -357 368 0
49 -369 370 0
49 -371 372 0
49 -373 374 0
49 -375 376 0
49 -377 385 0
49 -378 386 0
49 -379 387 0
49 -380 388 0
49 -381 389 0
49 -382 390 0
49 -383 391 0
49 -384 392 0
49 -393 394 0
49 -395 396 0
49 -397 400 0
49 -398 401 0
49 -399 402 0
49 -398 -748 0
49 -399 -748 0
49 -399 -749 0
49 -400 -746 0
49 -400 -747 0
49 -401 -747 0
49 -403 404 0
49 -405 406 0
49 -407 408 0
49 -409 410 0
49 -411 412 0
49 -413 414 0
49 -415 416 0
49 -417 421 0
49 -418 422 0
49 -419 423 0
49 -420 424 0
49 -418 -721 0
49 -419 -721 0
49 -419 -722 0
49 -420 -722 0
49 -420 -723 0
49 -417 -725 0
49 -417 -726 0
49 -418 -726 0
49 -425 426 0
49 -427 428 0
49 -429 437 0
49 -430 438 0
49 -431 439 0
49 -432 440 0
49 -433 441 0
49 -434 442 0
49 -435 436 0
49 -443 444 0
49 -445 446 0
49 -447 450 0
49 -448 451 0
49 -449 452 0
49 -453 455 0
49 -454 456 0
49 -457 458 0
49 -459 460 0
49 -461 462 0
49 -463 464 0
49 -465 466 0
49 -467 468 0
49 -469 470 0
49 -471 472 0
49 -473 474 0
49 -475 476 0
49 -477 479 0
49 -478 480 0
49 -481 482 0
49 -483 484 0
49 -485 486 0
49 -487 488 0
49 -489 490 0
49 -491 492 0
49 -493 494 0
49 -495 501 0
49 -496 502 0
49 -497 503 0
49 -498 504 0
49 -499 505 0
49 -500 506 0
49 -507 508 0
49 -509 510 0
49 -511 512 0
49 -513 514 0
49 -515 516 0
49 -517 518 0
49 -519 520 0
49 -521 522 0
49 -523 530 0
49 -524 531 0
49 -525 532 0
49 -526 533 0
49 -527 534 0
49 -528 535 0
49 -529 536 0
49 -523 -873 0
49 -523 -874 0
49 -524 -873 0
49 -524 -874 0
49 -525 -873 0
49 -525 -874 0
49 -526 -873 0
49 -526 -874 0
49 -527 -873 0
49 -527 -874 0
49 -528 -874 0
49 -537 538 0
49 -539 540 0
49 -541 542 0
49 -543 544 0
49 -545 546 0
49 -547 548 0
49 -549 550 0
49 -551 554 0
49 -552 553 0
49 -555 556 0
49 -557 558 0
49 -559 560 0
49 -561 562 0
49 -563 564 0
49 -565 566 0
49 -567 568 0
49 -569 570 0
49 -571 572 0
49 -573 574 0
49 -575 576 0
49 -577 578 0
49 -579 580 0
49 -581 582 0
49 -583 584 0
49 -585 586 0
49 -587 588 0
49 -589 590 0
49 -591 592 0
49 -593 594 0
49 -595 596 0
49 -597 599 0
49 -598 600 0
49 -601 602 0
49 -603 604 0
49 -605 606 0
49 -607 608 0
49 -609 610 0
49 -611 617 0
49 -612 618 0
49 -613 619 0
49 -614 620 0
49 -615 621 0
49 -616 622 0
49 -618 -997 0
49 -619 -998 0
49 -620 -999 0
49 -621 -1000 0
49 -623 624 0
49 -625 626 0
49 -627 628 0
49 -629 630 0
49 -631 632 0
49 -633 634 0
49 -635 636 0
49 -637 638 0
49 -639 640 0
49 -641 643 0
49 -642 644 0
49 -645 646 0
49 -647 648 0
49 -649 650 0
49 -651 652 0
49 -653 654 0
49 -655 656 0
49 -657 658 0
49 -659 660 0
49 -661 662 0
49 -663 664 0
49 -665 666 0
49 -667 668 0
49 -669 671 0
49 -670 672 0
49 -673 674 0
49 -675 676 0
49 -677 678 0
49 -679 680 0
49 -681 682 0
49 -683 684 0
49 -685 686 0
49 -687 688 0
49 -689 690 0
49 -691 692 0
49 -693 694 0
49 -695 696 0
49 -697 698 0
49 -699 700 0
49 -701 702 0
49 -703 704 0
49 -705 706 0
49 -707 708 0
49 -709 710 0
49 -711 712 0
49 -713 714 0
49 -715 716 0
49 -717 718 0
49 -719 720 0
49 -721 724 0
49 -722 725 0
49 -723 726 0
49 -721 -994 0
49 -722 -995 0
49 -723 -996 0
49 -727 728 0
49 -729 730 0
49 -731 732 0
49 -733 734 0
49 -735 736 0
49 -737 738 0
49 -739 740 0
49 -741 742 0
49 -743 744 0
49 -745 748 0
49 -746 749 0
49 -747 750 0
49 -751 752 0
49 -753 754 0
49 -755 756 0
49 -757 758 0
49 -759 760 0
49 -761 762 0
49 -763 764 0
49 -765 766 0
49 -767 768 0
49 -769 770 0
49 -771 772 0
49 -773 774 0
49 -775 776 0
49 -777 778 0
49 -779 780 0
49 -781 782 0
49 -783 784 0
49 -785 786 0
49 -787 788 0
49 -789 790 0
49 -791 792 0
49 -793 794 0
49 -795 796 0
49 -797 798 0
49 -799 800 0
49 -801 802 0
49 -803 804 0
49 -805 806 0
49 -807 808 0
49 -809 810 0
49 -811 812 0
49 -813 814 0
49 -815 816 0
49 -817 818 0
49 -819 820 0
49 -821 822 0
49 -823 824 0
49 -825 826 0
49 -827 833 0
49 -828 834 0
49 -829 835 0
49 -830 836 0
49 -831 837 0
49 -832 838 0
49 -839 840 0
49 -841 842 0
49 -843 844 0
49 -845 846 0
49 -847 848 0
49 -849 850 0
49 -851 852 0
49 -853 854 0
49 -855 856 0
49 -857 858 0
49 -859 860 0
49 -861 862 0
49 -863 864 0
49 -865 866 0
49 -867 868 0
49 -869 872 0
49 -870 873 0
49 -871 874 0
49 -875 876 0
49 -877 878 0
49 -879 880 0
49 -881 882 0
49 -883 884 0
49 -885 886 0
49 -887 888 0
49 -889 890 0
49 -891 892 0
49 -893 894 0
49 -895 896 0
49 -897 898 0
49 -899 900 0
49 -901 903 0
49 -902 904 0
49 -905 906 0
49 -907 908 0
49 -909 910 0
49 -911 912 0
49 -913 914 0
49 -915 916 0
49 -917 918 0
49 -919 920 0
49 -921 922 0
49 -923 924 0
49 -925 928 0
49 -926 929 0
49 -927 930 0
49 -929 -1063 0
49 -930 -1063 0
49 -930 -1064 0
49 -931 932 0
49 -933 934 0
49 -935 936 0
49 -937 938 0
49 -939 940 0
49 -941 942 0
49 -943 944 0
49 -945 946 0
49 -947 948 0
49 -949 950 0
49 -951 952 0
49 -953 954 0
49 -955 956 0
49 -957 958 0
49 -959 960 0
49 -961 962 0
49 -963 964 0
49 -965 966 0
49 -967 968 0
49 -969 970 0
49 -971 972 0
49 -973 974 0
49 -975 976 0
49 -977 978 0
49 -979 980 0
49 -981 982 0
49 -983 984 0
49 -985 986 0
49 -987 988 0
49 -989 990 0
49 -991 992 0
49 -993 997 0
49 -994 998 0
49 -995 999 0
49 -996 1000 0
49 -1001 1002 0
49 -1003 1004 0
49 -1005 1006 0
49 -1007 1008 0
49 -1009 1010 0
49 -1011 1012 0
49 -1013 1014 0
49 -1015 1016 0
49 -1017 1018 0
49 -1019 1020 0
49 -1021 1022 0
49 -1023 1024 0
49 -1025 1026 0
49 -1027 1028 0
49 -1029 1030 0
49 -1031 1032 0
49 -1033 1034 0
49 -1035 1036 0
49 -1037 1039 0
49 -1038 1040 0
49 -1041 1042 0
49 -1043 1044 0
49 -1045 1046 0
49 -1047 1048 0
49 -1049 1050 0
49 -1051 1052 0
49 -1053 1054 0
49 -1055 1056 0
49 -1057 1058 0
49 -1059 1060 0
49 -1061 1062 0
49 -1063 1074 0
49 -1064 1075 0
49 -1065 1076 0
49 -1066 1077 0
49 -1067 1078 0
49 -1068 1079 0
49 -1069 1080 0
49 -1070 1081 0
49 -1071 1082 0
49 -1072 1083 0
49 -1073 1084 0
49 -1085 1086 0
49 -1087 1088 0
49 -1089 1090 0
49 -1091 1092 0
49 -1093 1094 0
49 -1095 1096 0
49 -1097 1098 0
49 -1099 1100 0
49 -1101 1102 0
49 -1103 1104 0
49 -1105 1106 0
49 -1107 1108 0
49 -1109 1110 0
49 -1111 1112 0
49 -1113 1114 0
49 -1115 1116 0
49 -1117 1118 0
49 -1119 1120 0
49 -1121 1122 0
49 -1123 1124 0
49 -1125 1126 0
49 -1127 1128 0
49 -1129 1130 0
49 -1131 1132 0
49 -1133 1134 0
49 -1135 1136 0
49 -1137 1138 0
49 -1139 1140 0
49 -1141 1142 0
49 -1143 1144 0
49 -1145 1146 0
49 -1147 1148 0
49 -1149 1150 0
49 -1151 1152 0
49 -1153 1154 0
49 -1155 1156 0
49 -1157 1158 0
49 -1159 1160 0
49 -1161 1162 0
49 -1163 1164 0
49 -1165 1166 0
49 -1167 1168 0
49 -1169 1170 0
49 -1171 1172 0
49 -1173 1174 0
49 -1175 1176 0
49 -1177 1178 0
49 -1179 1180 0
49 -1 1529 0
49 -2 1542 0
49 -3 1567 0
49 -4 1556 0
49 -5 1529 0
49 -6 1542 0
49 -7 1534 0
49 -8 1547 0
49 -9 1570 0
49 -10 1559 0
49 -11 1530 0
49 -12 1543 0
49 -13 1532 0
49 -14 1545 0
49 -15 1529 0
49 -16 1561 0
49 -17 1562 0
49 -18 1563 0
49 -19 1564 0
49 -20 1565 0
49 -21 1566 0
49 -22 1567 0
49 -23 1568 0
49 -24 1569 0
49 -25 1570 0
49 -26 1542 0
49 -27 1549 0
49 -28 1550 0
49 -29 1551 0
49 -30 1552 0
49 -31 1554 0
49 -32 1555 0
49 -33 1556 0
49 -34 1557 0
49 -35 1558 0
49 -36 1559 0
49 -37 1566 0
49 -38 1567 0
49 -39 1568 0
49 -40 1569 0
49 -41 1555 0
49 -42 1556 0
49 -43 1557 0
49 -44 1558 0
49 -45 1569 0
49 -46 1558 0
49 -47 1565 0
49 -48 1554 0
49 -49 1561 0
49 -50 1549 0
49 -51 1569 0
49 -52 1558 0
49 -53 1566 0
49 -54 1555 0
49 -55 1564 0
49 -56 1552 0
49 -57 1533 0
49 -58 1546 0
49 -59 1523 0
49 -60 1536 0
49 -61 1537 0
49 -62 1538 0
49 -63 1539 0
49 -64 1540 0
49 -65 1541 0
49 -66 1542 0
49 -67 1543 0
49 -68 1544 0
49 -69 1545 0
49 -70 1546 0
49 -71 1523 0
49 -72 1524 0
49 -73 1525 0
49 -74 1526 0
49 -75 1527 0
49 -76 1528 0
49 -77 1529 0
49 -78 1530 0
49 -79 1531 0
49 -80 1532 0
49 -81 1533 0
49 -82 1536 0
49 -83 1560 0
49 -84 1548 0
49 -85 1570 0
49 -86 1559 0
49 -87 1570 0
49 -88 1559 0
49 -89 1566 0
49 -90 1555 0
49 -91 1561 0
49 -92 1549 0
49 -93 1568 0
49 -94 1557 0
49 -95 1523 0
49 -96 1536 0
49 -97 1532 0
49 -98 1545 0
49 -99 1526 0
49 -100 1539 0
49 -101 1523 0
49 -102 1536 0
49 -103 1534 0
49 -104 1547 0
49 -105 1570 0
49 -106 1559 0
49 -107 1531 0
49 -108 1544 0
49 -109 1563 0
49 -110 1551 0
49 -111 1535 0
49 -112 1553 0
49 -113 1532 0
49 -114 1545 0
49 -115 1523 0
49 -116 1536 0
49 -117 1570 0
49 -118 1559 0
49 -119 1523 0
49 -120 1536 0
49 -121 1523 0
49 -122 1524 0
49 -123 1525 0
49 -124 1526 0
49 -125 1527 0
49 -126 1536 0
49 -127 1537 0
49 -128 1538 0
49 -129 1539 0
49 -130 1540 0
49 -131 1567 0
49 -132 1556 0
49 -133 1528 0
49 -134 1541 0
49 -135 1524 0
49 -136 1525 0
49 -137 1526 0
49 -138 1527 0
49 -139 1537 0
49 -140 1538 0
49 -141 1539 0
49 -142 1540 0
49 -143 1565 0
49 -144 1554 0
49 -145 1523 0
49 -146 1536 0
49 -147 1567 0
49 -148 1556 0
49 -149 1523 0
49 -150 1536 0
49 -151 1565 0
49 -152 1554 0
49 -153 1530 0
49 -154 1531 0
49 -155 1532 0
49 -156 1543 0
49 -157 1544 0
49 -158 1545 0
49 -159 1533 0
49 -160 1546 0
49 -161 1564 0
49 -162 1565 0
49 -163 1566 0
49 -164 1567 0
49 -165 1568 0
49 -166 1569 0
49 -167 1570 0
49 -168 1552 0
49 -169 1554 0
49 -170 1555 0
49 -171 1556 0
49 -172 1557 0
49 -173 1558 0
49 -174 1559 0
49 -175 1523 0
49 -176 1536 0
49 -177 1535 0
49 -178 1553 0
49 -179 1560 0
49 -180 1548 0
49 -181 1525 0
49 -182 1538 0
49 -183 1562 0
49 -184 1550 0
49 -185 1523 0
49 -186 1536 0
49 -187 1526 0
49 -188 1539 0
49 -189 1528 0
49 -190 1541 0
49 -191 1527 0
49 -192 1540 0
49 -193 1570 0
49 -194 1559 0
49 -195 1523 0
49 -196 1536 0
49 -197 1530 0
49 -198 1543 0
49 -199 1523 0
49 -200 1536 0
49 -201 1532 0
49 -202 1545 0
49 -203 1570 0
49 -204 1559 0
49 -205 1560 0
49 -206 1548 0
49 -207 1528 0
49 -208 1529 0
49 -209 1541 0
49 -210 1542 0
49 -211 1569 0
49 -212 1558 0
49 -213 1564 0
49 -214 1552 0
49 -215 1523 0
49 -216 1536 0
49 -217 1523 0
49 -218 1524 0
49 -219 1525 0
49 -220 1526 0
49 -221 1527 0
49 -222 1536 0
49 -223 1537 0
49 -224 1538 0
49 -225 1539 0
49 -226 1540 0
49 -227 1566 0
49 -228 1555 0
49 -229 1529 0
49 -230 1542 0
49 -231 1567 0
49 -232 1556 0
49 -233 1535 0
49 -234 1553 0
49 -235 1561 0
49 -236 1549 0
49 -237 1532 0
49 -238 1545 0
49 -239 1563 0
49 -240 1551 0
49 -241 1523 0
49 -242 1536 0
49 -243 1560 0
49 -244 1548 0
49 -245 1529 0
49 -246 1542 0
49 -247 1560 0
49 -248 1548 0
49 -249 1568 0
49 -250 1557 0
49 -251 1527 0
49 -252 1540 0
49 -253 1524 0
49 -254 1525 0
49 -255 1526 0
49 -256 1527 0
49 -257 1528 0
49 -258 1529 0
49 -259 1530 0
49 -260 1537 0
49 -261 1538 0
49 -262 1539 0
49 -263 1540 0
49 -264 1541 0
49 -265 1542 0
49 -266 1543 0
49 -267 1570 0
49 -268 1559 0
49 -269 1570 0
49 -270 1559 0
49 -271 1563 0
49 -272 1551 0
49 -273 1563 0
49 -274 1551 0
49 -275 1533 0
49 -276 1546 0
49 -277 1533 0
49 -278 1546 0
49 -279 1561 0
49 -280 1549 0
49 -281 1564 0
49 -282 1552 0
49 -283 1563 0
49 -284 1551 0
49 -285 1534 0
49 -286 1547 0
49 -287 1570 0
49 -288 1559 0
49 -289 1563 0
49 -290 1551 0
49 -291 1528 0
49 -292 1541 0
49 -293 1531 0
49 -294 1532 0
49 -295 1544 0
49 -296 1545 0
49 -297 1535 0
49 -298 1553 0
49 -299 1527 0
49 -300 1540 0
49 -301 1526 0
49 -302 1539 0
49 -303 1524 0
49 -304 1537 0
49 -305 1570 0
49 -306 1559 0
49 -307 1562 0
49 -308 1550 0
49 -309 1568 0
49 -310 1557 0
49 -311 1535 0
49 -312 1553 0
49 -313 1528 0
49 -314 1541 0
49 -315 1525 0
49 -316 1538 0
49 -317 1570 0
49 -318 1559 0
49 -319 1566 0
49 -320 1555 0
49 -321 1533 0
49 -322 1546 0
49 -323 1530 0
49 -324 1543 0
49 -325 1523 0
49 -326 1524 0
49 -327 1536 0
49 -328 1537 0
49 -329 1534 0
49 -330 1547 0
49 -331 1523 0
49 -332 1536 0
49 -333 1570 0
49 -334 1559 0
49 -335 1523 0
49 -336 1536 0
49 -337 1534 0
49 -338 1547 0
49 -339 1561 0
49 -340 1549 0
49 -341 1566 0
49 -342 1555 0
49 -343 1523 0
49 -344 1536 0
49 -345 1529 0
49 -346 1542 0
49 -347 1537 0
49 -348 1538 0
49 -349 1539 0
49 -350 1540 0
49 -351 1541 0
49 -352 1542 0
49 -353 1543 0
49 -354 1544 0
49 -355 1545 0
49 -356 1546 0
49 -357 1565 0
49 -358 1524 0
49 -359 1525 0
49 -360 1526 0
49 -361 1527 0
49 -362 1528 0
49 -363 1529 0
49 -364 1530 0
49 -365 1531 0
49 -366 1532 0
49 -367 1533 0
49 -368 1554 0
49 -369 1570 0
49 -370 1559 0
49 -371 1531 0
49 -372 1544 0
49 -373 1561 0
49 -374 1549 0
49 -375 1535 0
49 -376 1553 0
49 -377 1562 0
49 -378 1563 0
49 -379 1564 0
49 -380 1565 0
49 -381 1566 0
49 -382 1567 0
49 -383 1568 0
49 -384 1569 0
49 -385 1550 0
49 -386 1551 0
49 -387 1552 0
49 -388 1554 0
49 -389 1555 0
49 -390 1556 0
49 -391 1557 0
49 -392 1558 0
49 -393 1564 0
49 -394 1552 0
49 -395 1523 0
49 -396 1536 0
49 -397 1530 0
49 -398 1531 0
49 -399 1532 0
49 -400 1543 0
49 -401 1544 0
49 -402 1545 0
49 -403 1530 0
49 -404 1543 0
49 -405 1562 0
49 -406 1550 0
49 -407 1524 0
49 -408 1537 0
49 -409 1532 0
49 -410 1545 0
49 -411 1570 0
49 -412 1559 0
49 -413 1528 0
49 -414 1541 0
49 -415 1534 0
49 -416 1547 0
49 -417 1564 0
49 -418 1565 0
49 -419 1566 0
49 -420 1570 0
49 -421 1552 0
49 -422 1554 0
49 -423 1555 0
49 -424 1559 0
49 -425 1570 0
49 -426 1559 0
49 -427 1524 0
49 -428 1537 0
49 -429 1554 0
49 -430 1555 0
49 -431 1556 0
49 -432 1557 0
49 -433 1558 0
49 -434 1559 0
49 -435 1570 0
49 -436 1559 0
49 -437 1565 0
49 -438 1566 0
49 -439 1567 0
49 -440 1568 0
49 -441 1569 0
49 -442 1570 0
49 -443 1529 0
49 -444 1542 0
49 -445 1570 0
49 -446 1559 0
49 -447 1568 0
49 -448 1569 0
49 -449 1570 0
49 -450 1557 0
49 -451 1558 0
49 -452 1559 0
49 -453 1563 0
49 -454 1564 0
49 -455 1551 0
49 -456 1552 0
49 -457 1534 0
49 -458 1547 0
49 -459 1561 0
49 -460 1549 0
49 -461 1523 0
49 -462 1536 0
49 -463 1526 0
49 -464 1539 0
49 -465 1533 0
49 -466 1546 0
49 -467 1570 0
49 -468 1559 0
49 -469 1525 0
49 -470 1538 0
49 -471 1569 0
49 -472 1558 0
49 -473 1526 0
49 -474 1539 0
49 -475 1529 0
49 -476 1542 0
49 -477 1523 0
49 -478 1524 0
49 -479 1536 0
49 -480 1537 0
49 -481 1526 0
49 -482 1539 0
49 -483 1525 0
49 -484 1538 0
49 -485 1533 0
49 -486 1546 0
49 -487 1564 0
49 -488 1552 0
49 -489 1570 0
49 -490 1559 0
49 -491 1523 0
49 -492 1536 0
49 -493 1535 0
49 -494 1553 0
49 -495 1524 0
49 -496 1525 0
49 -497 1526 0
49 -498 1527 0
49 -499 1528 0
49 -500 1561 0
49 -501 1537 0
49 -502 1538 0
49 -503 1539 0
49 -504 1540 0
49 -505 1541 0
49 -506 1549 0
49 -507 1560 0
49 -508 1548 0
49 -509 1530 0
49 -510 1543 0
49 -511 1563 0
49 -512 1551 0
49 -513 1534 0
49 -514 1547 0
49 -515 1525 0
49 -516 1538 0
49 -517 1570 0
49 -518 1559 0
49 -519 1534 0
49 -520 1547 0
49 -521 1529 0
49 -522 1542 0
49 -523 1564 0
49 -524 1565 0
49 -525 1566 0
49 -526 1567 0
49 -527 1568 0
49 -528 1569 0
49 -529 1570 0
49 -530 1552 0
49 -531 1554 0
49 -532 1555 0
49 -533 1556 0
49 -534 1557 0
49 -535 1558 0
49 -536 1559 0
49 -537 1534 0
49 -538 1547 0
49 -539 1563 0
49 -540 1551 0
49 -541 1564 0
49 -542 1552 0
49 -543 1570 0
49 -544 1559 0
49 -545 1526 0
49 -546 1539 0
49 -547 1570 0
49 -548 1559 0
49 -549 1566 0
49 -550 1555 0
49 -551 1531 0
49 -552 1545 0
49 -553 1532 0
49 -554 1544 0
49 -555 1525 0
49 -556 1538 0
49 -557 1528 0
49 -558 1541 0
49 -559 1570 0
49 -560 1559 0
49 -561 1533 0
49 -562 1546 0
49 -563 1523 0
49 -564 1536 0
49 -565 1570 0
49 -566 1559 0
49 -567 1561 0
49 -568 1549 0
49 -569 1530 0
49 -570 1543 0
49 -571 1523 0
49 -572 1536 0
49 -573 1531 0
49 -574 1544 0
49 -575 1525 0
49 -576 1538 0
49 -577 1534 0
49 -578 1547 0
49 -579 1565 0
49 -580 1554 0
49 -581 1570 0
49 -582 1559 0
49 -583 1531 0
49 -584 1544 0
49 -585 1570 0
49 -586 1559 0
49 -587 1567 0
49 -588 1556 0
49 -589 1523 0
49 -590 1536 0
49 -591 1570 0
49 -592 1559 0
49 -593 1524 0
49 -594 1537 0
49 -595 1561 0
49 -596 1549 0
49 -597 1532 0
49 -598 1534 0
49 -599 1545 0
49 -600 1547 0
49 -601 1533 0
49 -602 1546 0
49 -603 1532 0
49 -604 1545 0
49 -605 1534 0
49 -606 1547 0
49 -607 1523 0
49 -608 1536 0
49 -609 1570 0
49 -610 1559 0
49 -611 1565 0
49 -612 1566 0
49 -613 1567 0
49 -614 1568 0
49 -615 1569 0
49 -616 1570 0
49 -617 1554 0
49 -618 1555 0
49 -619 1556 0
49 -620 1557 0
49 -621 1558 0
49 -622 1559 0
49 -623 1525 0
49 -624 1538 0
49 -625 1529 0
49 -626 1542 0
49 -627 1523 0
49 -628 1536 0
49 -629 1570 0
49 -630 1559 0
49 -631 1535 0
49 -632 1553 0
49 -633 1564 0
49 -634 1552 0
49 -635 1523 0
49 -636 1536 0
49 -637 1535 0
49 -638 1553 0
49 -639 1525 0
49 -640 1538 0
49 -641 1564 0
49 -642 1565 0
49 -643 1552 0
49 -644 1554 0
49 -645 1562 0
49 -646 1550 0
49 -647 1569 0
49 -648 1558 0
49 -649 1531 0
49 -650 1544 0
49 -651 1570 0
49 -652 1559 0
49 -653 1561 0
49 -654 1549 0
49 -655 1570 0
49 -656 1559 0
49 -657 1523 0
49 -658 1536 0
49 -659 1570 0
49 -660 1559 0
49 -661 1570 0
49 -662 1559 0
49 -663 1565 0
49 -664 1554 0
49 -665 1568 0
49 -666 1557 0
49 -667 1531 0
49 -668 1544 0
49 -669 1523 0
49 -670 1524 0
49 -671 1536 0
49 -672 1537 0
49 -673 1533 0
49 -674 1546 0
49 -675 1531 0
49 -676 1544 0
49 -677 1570 0
49 -678 1559 0
49 -679 1560 0
49 -680 1548 0
49 -681 1523 0
49 -682 1536 0
49 -683 1535 0
49 -684 1553 0
49 -685 1523 0
49 -686 1536 0
49 -687 1526 0
49 -688 1539 0
49 -689 1530 0
49 -690 1543 0
49 -691 1568 0
49 -692 1557 0
49 -693 1570 0
49 -694 1559 0
49 -695 1564 0
49 -696 1552 0
49 -697 1535 0
49 -698 1553 0
49 -699 1561 0
49 -700 1549 0
49 -701 1523 0
49 -702 1536 0
49 -703 1525 0
49 -704 1538 0
49 -705 1523 0
49 -706 1536 0
49 -707 1565 0
49 -708 1554 0
49 -709 1533 0
49 -710 1546 0
49 -711 1524 0
49 -712 1537 0
49 -713 1524 0
49 -714 1537 0
49 -715 1532 0
49 -716 1545 0
49 -717 1568 0
49 -718 1557 0
49 -719 1563 0
49 -720 1551 0
49 -721 1567 0
49 -722 1568 0
49 -723 1569 0
49 -724 1556 0
49 -725 1557 0
49 -726 1558 0
49 -727 1562 0
49 -728 1550 0
49 -729 1528 0
49 -730 1541 0
49 -731 1526 0
49 -732 1539 0
49 -733 1564 0
49 -734 1552 0
49 -735 1562 0
49 -736 1550 0
49 -737 1562 0
49 -738 1550 0
49 -739 1563 0
49 -740 1551 0
49 -741 1530 0
49 -742 1543 0
49 -743 1535 0
49 -744 1553 0
49 -745 1524 0
49 -746 1525 0
49 -747 1526 0
49 -748 1537 0
49 -749 1538 0
49 -750 1539 0
49 -751 1523 0
49 -752 1536 0
49 -753 1524 0
49 -754 1537 0
49 -755 1535 0
49 -756 1553 0
49 -757 1525 0
49 -758 1538 0
49 -759 1524 0
49 -760 1537 0
49 -761 1523 0
49 -762 1536 0
49 -763 1527 0
49 -764 1540 0
49 -765 1570 0
49 -766 1559 0
49 -767 1563 0
49 -768 1551 0
49 -769 1523 0
49 -770 1536 0
49 -771 1529 0
49 -772 1542 0
49 -773 1527 0
49 -774 1540 0
49 -775 1523 0
49 -776 1536 0
49 -777 1533 0
49 -778 1546 0
49 -779 1529 0
49 -780 1542 0
49 -781 1523 0
49 -782 1536 0
49 -783 1526 0
49 -784 1539 0
49 -785 1528 0
49 -786 1541 0
49 -787 1570 0
49 -788 1559 0
49 -789 1567 0
49 -790 1556 0
49 -791 1527 0
49 -792 1540 0
49 -793 1569 0
49 -794 1558 0
49 -795 1523 0
49 -796 1536 0
49 -797 1565 0
49 -798 1554 0
49 -799 1533 0
49 -800 1546 0
49 -801 1533 0
49 -802 1546 0
49 -803 1569 0
49 -804 1558 0
49 -805 1561 0
49 -806 1549 0
49 -807 1562 0
49 -808 1550 0
49 -809 1532 0
49 -810 1545 0
49 -811 1527 0
49 -812 1540 0
49 -813 1564 0
49 -814 1552 0
49 -815 1566 0
49 -816 1555 0
49 -817 1523 0
49 -818 1536 0
49 -819 1531 0
49 -820 1544 0
49 -821 1565 0
49 -822 1554 0
49 -823 1523 0
49 -824 1536 0
49 -825 1567 0
49 -826 1556 0
49 -827 1565 0
49 -828 1566 0
49 -829 1567 0
49 -830 1568 0
49 -831 1569 0
49 -832 1570 0
49 -833 1554 0
49 -834 1555 0
49 -835 1556 0
49 -836 1557 0
49 -837 1558 0
49 -838 1559 0
49 -839 1524 0
49 -840 1537 0
49 -841 1563 0
49 -842 1551 0
49 -843 1569 0
49 -844 1558 0
49 -845 1561 0
49 -846 1549 0
49 -847 1530 0
49 -848 1543 0
49 -849 1569 0
49 -850 1558 0
49 -851 1529 0
49 -852 1542 0
49 -853 1529 0
49 -854 1542 0
49 -855 1523 0
49 -856 1536 0
49 -857 1535 0
49 -858 1553 0
49 -859 1523 0
49 -860 1536 0
49 -861 1565 0
49 -862 1554 0
49 -863 1524 0
49 -864 1537 0
49 -865 1523 0
49 -866 1536 0
49 -867 1525 0
49 -868 1538 0
49 -869 1532 0
49 -870 1562 0
49 -871 1563 0
49 -872 1545 0
49 -873 1550 0
49 -874 1551 0
49 -875 1528 0
49 -876 1541 0
49 -877 1534 0
49 -878 1547 0
49 -879 1530 0
49 -880 1543 0
49 -881 1531 0
49 -882 1544 0
49 -883 1529 0
49 -884 1542 0
49 -885 1565 0
49 -886 1554 0
49 -887 1530 0
49 -888 1543 0
49 -889 1531 0
49 -890 1544 0
49 -891 1534 0
49 -892 1547 0
49 -893 1528 0
49 -894 1541 0
49 -895 1532 0
49 -896 1545 0
49 -897 1529 0
49 -898 1542 0
49 -899 1562 0
49 -900 1550 0
49 -901 1560 0
49 -902 1570 0
49 -903 1548 0
49 -904 1559 0
49 -905 1569 0
49 -906 1558 0
49 -907 1535 0
49 -908 1553 0
49 -909 1562 0
49 -910 1550 0
49 -911 1561 0
49 -912 1549 0
49 -913 1524 0
49 -914 1537 0
49 -915 1561 0
49 -916 1549 0
49 -917 1565 0
49 -918 1554 0
49 -919 1570 0
49 -920 1559 0
49 -921 1564 0
49 -922 1552 0
49 -923 1570 0
49 -924 1559 0
49 -925 1568 0
49 -926 1569 0
49 -927 1570 0
49 -928 1557 0
49 -929 1558 0
49 -930 1559 0
49 -931 1523 0
49 -932 1536 0
49 -933 1525 0
49 -934 1538 0
49 -935 1560 0
49 -936 1548 0
49 -937 1570 0
49 -938 1559 0
49 -939 1561 0
49 -940 1549 0
49 -941 1535 0
49 -942 1553 0
49 -943 1570 0
49 -944 1559 0
49 -945 1529 0
49 -946 1542 0
49 -947 1570 0
49 -948 1559 0
49 -949 1562 0
49 -950 1550 0
49 -951 1533 0
49 -952 1546 0
49 -953 1531 0
49 -954 1544 0
49 -955 1535 0
49 -956 1553 0
49 -957 1560 0
49 -958 1548 0
49 -959 1534 0
49 -960 1547 0
49 -961 1527 0
49 -962 1540 0
49 -963 1561 0
49 -964 1549 0
49 -965 1570 0
49 -966 1559 0
49 -967 1533 0
49 -968 1546 0
49 -969 1564 0
49 -970 1552 0
49 -971 1528 0
49 -972 1541 0
49 -973 1523 0
49 -974 1536 0
49 -975 1563 0
49 -976 1551 0
49 -977 1568 0
49 -978 1557 0
49 -979 1566 0
49 -980 1555 0
49 -981 1560 0
49 -982 1548 0
49 -983 1524 0
49 -984 1537 0
49 -985 1568 0
49 -986 1557 0
49 -987 1566 0
49 -988 1555 0
49 -989 1532 0
49 -990 1545 0
49 -991 1561 0
49 -992 1549 0
49 -993 1566 0
49 -994 1567 0
49 -995 1568 0
49 -996 1569 0
49 -997 1555 0
49 -998 1556 0
49 -999 1557 0
49 -1000 1558 0
49 -1001 1560 0
49 -1002 1548 0
49 -1003 1531 0
49 -1004 1544 0
49 -1005 1526 0
49 -1006 1539 0
49 -1007 1531 0
49 -1008 1544 0
49 -1009 1523 0
49 -1010 1536 0
49 -1011 1523 0
49 -1012 1536 0
49 -1013 1532 0
49 -1014 1545 0
49 -1015 1569 0
49 -1016 1558 0
49 -1017 1564 0
49 -1018 1552 0
49 -1019 1527 0
49 -1020 1540 0
49 -1021 1562 0
49 -1022 1550 0
49 -1023 1568 0
49 -1024 1557 0
49 -1025 1562 0
49 -1026 1550 0
49 -1027 1569 0
49 -1028 1558 0
49 -1029 1567 0
49 -1030 1556 0
49 -1031 1526 0
49 -1032 1539 0
49 -1033 1567 0
49 -1034 1556 0
49 -1035 1570 0
49 -1036 1559 0
49 -1037 1537 0
49 -1038 1562 0
49 -1039 1524 0
49 -1040 1550 0
49 -1041 1562 0
49 -1042 1550 0
49 -1043 1560 0
49 -1044 1548 0
49 -1045 1570 0
49 -1046 1559 0
49 -1047 1532 0
49 -1048 1545 0
49 -1049 1526 0
49 -1050 1539 0
49 -1051 1535 0
49 -1052 1553 0
49 -1053 1568 0
49 -1054 1557 0
49 -1055 1570 0
49 -1056 1559 0
49 -1057 1561 0
49 -1058 1549 0
49 -1059 1525 0
49 -1060 1538 0
49 -1061 1565 0
49 -1062 1554 0
49 -1063 1560 0
49 -1064 1561 0
49 -1065 1562 0
49 -1066 1563 0
49 -1067 1564 0
49 -1068 1565 0
49 -1069 1566 0
49 -1070 1567 0
49 -1071 1568 0
49 -1072 1569 0
49 -1073 1570 0
49 -1074 1548 0
49 -1075 1549 0
49 -1076 1550 0
49 -1077 1551 0
49 -1078 1552 0
49 -1079 1554 0
49 -1080 1555 0
49 -1081 1556 0
49 -1082 1557 0
49 -1083 1558 0
49 -1084 1559 0
49 -1085 1570 0
49 -1086 1559 0
49 -1087 1568 0
49 -1088 1557 0
49 -1089 1525 0
49 -1090 1538 0
49 -1091 1525 0
49 -1092 1538 0
49 -1093 1527 0
49 -1094 1540 0
49 -1095 1534 0
49 -1096 1547 0
49 -1097 1528 0
49 -1098 1541 0
49 -1099 1562 0
49 -1100 1550 0
49 -1101 1534 0
49 -1102 1547 0
49 -1103 1524 0
49 -1104 1537 0
49 -1105 1563 0
49 -1106 1551 0
49 -1107 1569 0
49 -1108 1558 0
49 -1109 1532 0
49 -1110 1545 0
49 -1111 1570 0
49 -1112 1559 0
49 -1113 1528 0
49 -1114 1541 0
49 -1115 1562 0
49 -1116 1550 0
49 -1117 1532 0
49 -1118 1545 0
49 -1119 1569 0
49 -1120 1558 0
49 -1121 1523 0
49 -1122 1536 0
49 -1123 1523 0
49 -1124 1536 0
49 -1125 1524 0
49 -1126 1537 0
49 -1127 1566 0
49 -1128 1555 0
49 -1129 1567 0
49 -1130 1556 0
49 -1131 1524 0
49 -1132 1537 0
49 -1133 1526 0
49 -1134 1539 0
49 -1135 1567 0
49 -1136 1556 0
49 -1137 1532 0
49 -1138 1545 0
49 -1139 1523 0
49 -1140 1536 0
49 -1141 1527 0
49 -1142 1540 0
49 -1143 1534 0
49 -1144 1547 0
49 -1145 1534 0
49 -1146 1547 0
49 -1147 1567 0
49 -1148 1556 0
49 -1149 1530 0
49 -1150 1543 0
49 -1151 1568 0
49 -1152 1557 0
49 -1153 1570 0
49 -1154 1559 0
49 -1155 1523 0
49 -1156 1536 0
49 -1157 1570 0
49 -1158 1559 0
49 -1159 1569 0
49 -1160 1558 0
49 -1161 1563 0
49 -1162 1551 0
49 -1163 1532 0
49 -1164 1545 0
49 -1165 1562 0
49 -1166 1550 0
49 -1167 1567 0
49 -1168 1556 0
49 -1169 1562 0
49 -1170 1550 0
49 -1171 1569 0
49 -1172 1558 0
49 -1173 1523 0
49 -1174 1536 0
49 -1175 1535 0
49 -1176 1553 0
49 -1177 1525 0
49 -1178 1538 0
49 -1179 1564 0
49 -1180 1552 0
