c Dataset: TUD916.4
c Encoding: DSE
c DecisionVars: 2886
c OrderVars: 0
c CardinalityAuxVars: 2564
c LabelVars: 48
c TotalVars: 5498
c OrderClauses: 0
c CardinalityClauses: 9962
c DistanceClauses: 6312
c LabelLinkClauses: 2886
c SoftClauses: 48
c HardClauses: 19160
c TotalClauses: 19208
p wcnf 5498 19208 49
1 -5451 0
1 -5452 0
1 -5453 0
1 -5454 0
1 -5455 0
1 -5456 0
1 -5457 0
1 -5458 0
1 -5459 0
1 -5460 0
1 -5461 0
1 -5462 0
1 -5463 0
1 -5464 0
1 -5465 0
1 -5466 0
1 -5467 0
1 -5468 0
1 -5469 0
1 -5470 0
1 -5471 0
1 -5472 0
1 -5473 0
1 -5474 0
1 -5475 0
1 -5476 0
1 -5477 0
1 -5478 0
1 -5479 0
1 -5480 0
1 -5481 0
1 -5482 0
1 -5483 0
1 -5484 0
1 -5485 0
1 -5486 0
1 -5487 0
1 -5488 0
1 -5489 0
1 -5490 0
1 -5491 0
1 -5492 0
1 -5493 0
1 -5494 0
1 -5495 0
1 -5496 0
1 -5497 0
1 -5498 0
49 1 0
49 2 0
49 3 0
49 4 0
49 5 6 7 8 9 10 11 0
49 -2889 2888 0
49 -2890 2889 0
49 -2891 2890 0
49 -2892 2891 0
49 -2893 2892 0
49 -2894 2893 0
49 2888 5 0
49 -5 -2888 0
49 -2888 2889 6 0
49 2888 -6 0
49 -6 -2889 0
49 -2889 2890 7 0
49 2889 -7 0
49 -7 -2890 0
49 -2890 2891 8 0
49 2890 -8 0
49 -8 -2891 0
49 -2891 2892 9 0
49 2891 -9 0
49 -9 -2892 0
49 -2892 2893 10 0
49 2892 -10 0
49 -10 -2893 0
49 -2893 2894 11 0
49 2893 -11 0
49 -11 -2894 0
49 -2894 2887 0
49 -2887 2894 0
49 12 13 14 15 16 17 18 0
49 -2897 2896 0
49 -2898 2897 0
49 -2899 2898 0
49 -2900 2899 0
49 -2901 2900 0
49 -2902 2901 0
49 2896 12 0
49 -12 -2896 0
49 -2896 2897 13 0
49 2896 -13 0
49 -13 -2897 0
49 -2897 2898 14 0
49 2897 -14 0
49 -14 -2898 0
49 -2898 2899 15 0
49 2898 -15 0
49 -15 -2899 0
49 -2899 2900 16 0
49 2899 -16 0
49 -16 -2900 0
49 -2900 2901 17 0
49 2900 -17 0
49 -17 -2901 0
49 -2901 2902 18 0
49 2901 -18 0
49 -18 -2902 0
49 -2902 2895 0
49 -2895 2902 0
49 19 0
49 20 0
49 21 0
49 22 0
49 23 0
49 24 0
49 25 0
49 26 0
49 27 0
49 28 0
49 29 0
49 30 0
49 31 32 33 34 35 0
49 -2905 2904 0
49 -2906 2905 0
49 -2907 2906 0
49 -2908 2907 0
49 2904 31 0
49 -31 -2904 0
49 -2904 2905 32 0
49 2904 -32 0
49 -32 -2905 0
49 -2905 2906 33 0
49 2905 -33 0
49 -33 -2906 0
49 -2906 2907 34 0
49 2906 -34 0
49 -34 -2907 0
49 -2907 2908 35 0
49 2907 -35 0
49 -35 -2908 0
49 -2908 2903 0
49 -2903 2908 0
49 36 37 38 39 40 0
49 -2911 2910 0
49 -2912 2911 0
49 -2913 2912 0
49 -2914 2913 0
49 2910 36 0
49 -36 -2910 0
49 -2910 2911 37 0
49 2910 -37 0
49 -37 -2911 0
49 -2911 2912 38 0
49 2911 -38 0
49 -38 -2912 0
49 -2912 2913 39 0
49 2912 -39 0
49 -39 -2913 0
49 -2913 2914 40 0
49 2913 -40 0
49 -40 -2914 0
49 -2914 2909 0
49 -2909 2914 0
49 41 0
49 42 0
49 43 44 45 46 47 48 49 50 51 52 53 0
49 -2917 2916 0
49 -2918 2917 0
49 -2919 2918 0
49 -2920 2919 0
49 -2921 2920 0
49 -2922 2921 0
49 -2923 2922 0
49 -2924 2923 0
49 -2925 2924 0
49 -2926 2925 0
49 2916 43 0
49 -43 -2916 0
49 -2916 2917 44 0
49 2916 -44 0
49 -44 -2917 0
49 -2917 2918 45 0
49 2917 -45 0
49 -45 -2918 0
49 -2918 2919 46 0
49 2918 -46 0
49 -46 -2919 0
49 -2919 2920 47 0
49 2919 -47 0
49 -47 -2920 0
49 -2920 2921 48 0
49 2920 -48 0
49 -48 -2921 0
49 -2921 2922 49 0
49 2921 -49 0
49 -49 -2922 0
49 -2922 2923 50 0
49 2922 -50 0
49 -50 -2923 0
49 -2923 2924 51 0
49 2923 -51 0
49 -51 -2924 0
49 -2924 2925 52 0
49 2924 -52 0
49 -52 -2925 0
49 -2925 2926 53 0
49 2925 -53 0
49 -53 -2926 0
49 -2926 2915 0
49 -2915 2926 0
49 54 55 56 57 58 59 60 61 62 63 64 0
49 -2929 2928 0
49 -2930 2929 0
49 -2931 2930 0
49 -2932 2931 0
49 -2933 2932 0
49 -2934 2933 0
49 -2935 2934 0
49 -2936 2935 0
49 -2937 2936 0
49 -2938 2937 0
49 2928 54 0
49 -54 -2928 0
49 -2928 2929 55 0
49 2928 -55 0
49 -55 -2929 0
49 -2929 2930 56 0
49 2929 -56 0
49 -56 -2930 0
49 -2930 2931 57 0
49 2930 -57 0
49 -57 -2931 0
49 -2931 2932 58 0
49 2931 -58 0
49 -58 -2932 0
49 -2932 2933 59 0
49 2932 -59 0
49 -59 -2933 0
49 -2933 2934 60 0
49 2933 -60 0
49 -60 -2934 0
49 -2934 2935 61 0
49 2934 -61 0
49 -61 -2935 0
49 -2935 2936 62 0
49 2935 -62 0
49 -62 -2936 0
49 -2936 2937 63 0
49 2936 -63 0
49 -63 -2937 0
49 -2937 2938 64 0
49 2937 -64 0
49 -64 -2938 0
49 -2938 2927 0
49 -2927 2938 0
49 65 66 67 68 69 70 71 72 0
49 -2941 2940 0
49 -2942 2941 0
49 -2943 2942 0
49 -2944 2943 0
49 -2945 2944 0
49 -2946 2945 0
49 -2947 2946 0
49 2940 65 0
49 -65 -2940 0
49 -2940 2941 66 0
49 2940 -66 0
49 -66 -2941 0
49 -2941 2942 67 0
49 2941 -67 0
49 -67 -2942 0
49 -2942 2943 68 0
49 2942 -68 0
49 -68 -2943 0
49 -2943 2944 69 0
49 2943 -69 0
49 -69 -2944 0
49 -2944 2945 70 0
49 2944 -70 0
49 -70 -2945 0
49 -2945 2946 71 0
49 2945 -71 0
49 -71 -2946 0
49 -2946 2947 72 0
49 2946 -72 0
49 -72 -2947 0
49 -2947 2939 0
49 -2939 2947 0
49 73 74 75 76 77 78 79 80 0
49 -2950 2949 0
49 -2951 2950 0
49 -2952 2951 0
49 -2953 2952 0
49 -2954 2953 0
49 -2955 2954 0
49 -2956 2955 0
49 2949 73 0
49 -73 -2949 0
49 -2949 2950 74 0
49 2949 -74 0
49 -74 -2950 0
49 -2950 2951 75 0
49 2950 -75 0
49 -75 -2951 0
49 -2951 2952 76 0
49 2951 -76 0
49 -76 -2952 0
49 -2952 2953 77 0
49 2952 -77 0
49 -77 -2953 0
49 -2953 2954 78 0
49 2953 -78 0
49 -78 -2954 0
49 -2954 2955 79 0
49 2954 -79 0
49 -79 -2955 0
49 -2955 2956 80 0
49 2955 -80 0
49 -80 -2956 0
49 -2956 2948 0
49 -2948 2956 0
49 81 82 83 84 0
49 -2959 2958 0
49 -2960 2959 0
49 -2961 2960 0
49 2958 81 0
49 -81 -2958 0
49 -2958 2959 82 0
49 2958 -82 0
49 -82 -2959 0
49 -2959 2960 83 0
49 2959 -83 0
49 -83 -2960 0
49 -2960 2961 84 0
49 2960 -84 0
49 -84 -2961 0
49 -2961 2957 0
49 -2957 2961 0
49 85 86 87 88 0
49 -2964 2963 0
49 -2965 2964 0
49 -2966 2965 0
49 2963 85 0
49 -85 -2963 0
49 -2963 2964 86 0
49 2963 -86 0
49 -86 -2964 0
49 -2964 2965 87 0
49 2964 -87 0
49 -87 -2965 0
49 -2965 2966 88 0
49 2965 -88 0
49 -88 -2966 0
49 -2966 2962 0
49 -2962 2966 0
49 89 0
49 90 0
49 91 0
49 92 0
49 93 94 95 96 97 98 99 100 0
49 -2969 2968 0
49 -2970 2969 0
49 -2971 2970 0
49 -2972 2971 0
49 -2973 2972 0
49 -2974 2973 0
49 -2975 2974 0
49 2968 93 0
49 -93 -2968 0
49 -2968 2969 94 0
49 2968 -94 0
49 -94 -2969 0
49 -2969 2970 95 0
49 2969 -95 0
49 -95 -2970 0
49 -2970 2971 96 0
49 2970 -96 0
49 -96 -2971 0
49 -2971 2972 97 0
49 2971 -97 0
49 -97 -2972 0
49 -2972 2973 98 0
49 2972 -98 0
49 -98 -2973 0
49 -2973 2974 99 0
49 2973 -99 0
49 -99 -2974 0
49 -2974 2975 100 0
49 2974 -100 0
49 -100 -2975 0
49 -2975 2967 0
49 -2967 2975 0
49 101 102 103 104 105 106 107 108 0
49 -2978 2977 0
49 -2979 2978 0
49 -2980 2979 0
49 -2981 2980 0
49 -2982 2981 0
49 -2983 2982 0
49 -2984 2983 0
49 2977 101 0
49 -101 -2977 0
49 -2977 2978 102 0
49 2977 -102 0
49 -102 -2978 0
49 -2978 2979 103 0
49 2978 -103 0
49 -103 -2979 0
49 -2979 2980 104 0
49 2979 -104 0
49 -104 -2980 0
49 -2980 2981 105 0
49 2980 -105 0
49 -105 -2981 0
49 -2981 2982 106 0
49 2981 -106 0
49 -106 -2982 0
49 -2982 2983 107 0
49 2982 -107 0
49 -107 -2983 0
49 -2983 2984 108 0
49 2983 -108 0
49 -108 -2984 0
49 -2984 2976 0
49 -2976 2984 0
49 109 110 0
49 -109 -110 0
49 111 112 0
49 -111 -112 0
49 113 0
49 114 0
49 115 0
49 116 0
49 117 0
49 118 0
49 119 120 121 122 123 0
49 -2987 2986 0
49 -2988 2987 0
49 -2989 2988 0
49 -2990 2989 0
49 2986 119 0
49 -119 -2986 0
49 -2986 2987 120 0
49 2986 -120 0
49 -120 -2987 0
49 -2987 2988 121 0
49 2987 -121 0
49 -121 -2988 0
49 -2988 2989 122 0
49 2988 -122 0
49 -122 -2989 0
49 -2989 2990 123 0
49 2989 -123 0
49 -123 -2990 0
49 -2990 2985 0
49 -2985 2990 0
49 124 125 126 127 128 0
49 -2993 2992 0
49 -2994 2993 0
49 -2995 2994 0
49 -2996 2995 0
49 2992 124 0
49 -124 -2992 0
49 -2992 2993 125 0
49 2992 -125 0
49 -125 -2993 0
49 -2993 2994 126 0
49 2993 -126 0
49 -126 -2994 0
49 -2994 2995 127 0
49 2994 -127 0
49 -127 -2995 0
49 -2995 2996 128 0
49 2995 -128 0
49 -128 -2996 0
49 -2996 2991 0
49 -2991 2996 0
49 129 0
49 130 0
49 131 0
49 132 0
49 133 134 135 136 137 138 139 140 0
49 -2999 2998 0
49 -3000 2999 0
49 -3001 3000 0
49 -3002 3001 0
49 -3003 3002 0
49 -3004 3003 0
49 -3005 3004 0
49 2998 133 0
49 -133 -2998 0
49 -2998 2999 134 0
49 2998 -134 0
49 -134 -2999 0
49 -2999 3000 135 0
49 2999 -135 0
49 -135 -3000 0
49 -3000 3001 136 0
49 3000 -136 0
49 -136 -3001 0
49 -3001 3002 137 0
49 3001 -137 0
49 -137 -3002 0
49 -3002 3003 138 0
49 3002 -138 0
49 -138 -3003 0
49 -3003 3004 139 0
49 3003 -139 0
49 -139 -3004 0
49 -3004 3005 140 0
49 3004 -140 0
49 -140 -3005 0
49 -3005 2997 0
49 -2997 3005 0
49 141 142 143 144 145 146 147 148 0
49 -3008 3007 0
49 -3009 3008 0
49 -3010 3009 0
49 -3011 3010 0
49 -3012 3011 0
49 -3013 3012 0
49 -3014 3013 0
49 3007 141 0
49 -141 -3007 0
49 -3007 3008 142 0
49 3007 -142 0
49 -142 -3008 0
49 -3008 3009 143 0
49 3008 -143 0
49 -143 -3009 0
49 -3009 3010 144 0
49 3009 -144 0
49 -144 -3010 0
49 -3010 3011 145 0
49 3010 -145 0
49 -145 -3011 0
49 -3011 3012 146 0
49 3011 -146 0
49 -146 -3012 0
49 -3012 3013 147 0
49 3012 -147 0
49 -147 -3013 0
49 -3013 3014 148 0
49 3013 -148 0
49 -148 -3014 0
49 -3014 3006 0
49 -3006 3014 0
49 149 150 151 152 0
49 -3017 3016 0
49 -3018 3017 0
49 -3019 3018 0
49 3016 149 0
49 -149 -3016 0
49 -3016 3017 150 0
49 3016 -150 0
49 -150 -3017 0
49 -3017 3018 151 0
49 3017 -151 0
49 -151 -3018 0
49 -3018 3019 152 0
49 3018 -152 0
49 -152 -3019 0
49 -3019 3015 0
49 -3015 3019 0
49 153 154 155 156 0
49 -3022 3021 0
49 -3023 3022 0
49 -3024 3023 0
49 3021 153 0
49 -153 -3021 0
49 -3021 3022 154 0
49 3021 -154 0
49 -154 -3022 0
49 -3022 3023 155 0
49 3022 -155 0
49 -155 -3023 0
49 -3023 3024 156 0
49 3023 -156 0
49 -156 -3024 0
49 -3024 3020 0
49 -3020 3024 0
49 157 158 159 160 161 162 163 0
49 -3027 3026 0
49 -3028 3027 0
49 -3029 3028 0
49 -3030 3029 0
49 -3031 3030 0
49 -3032 3031 0
49 3026 157 0
49 -157 -3026 0
49 -3026 3027 158 0
49 3026 -158 0
49 -158 -3027 0
49 -3027 3028 159 0
49 3027 -159 0
49 -159 -3028 0
49 -3028 3029 160 0
49 3028 -160 0
49 -160 -3029 0
49 -3029 3030 161 0
49 3029 -161 0
49 -161 -3030 0
49 -3030 3031 162 0
49 3030 -162 0
49 -162 -3031 0
49 -3031 3032 163 0
49 3031 -163 0
49 -163 -3032 0
49 -3032 3025 0
49 -3025 3032 0
49 164 165 166 167 168 169 170 0
49 -3035 3034 0
49 -3036 3035 0
49 -3037 3036 0
49 -3038 3037 0
49 -3039 3038 0
49 -3040 3039 0
49 3034 164 0
49 -164 -3034 0
49 -3034 3035 165 0
49 3034 -165 0
49 -165 -3035 0
49 -3035 3036 166 0
49 3035 -166 0
49 -166 -3036 0
49 -3036 3037 167 0
49 3036 -167 0
49 -167 -3037 0
49 -3037 3038 168 0
49 3037 -168 0
49 -168 -3038 0
49 -3038 3039 169 0
49 3038 -169 0
49 -169 -3039 0
49 -3039 3040 170 0
49 3039 -170 0
49 -170 -3040 0
49 -3040 3033 0
49 -3033 3040 0
49 171 172 173 174 175 176 0
49 -3043 3042 0
49 -3044 3043 0
49 -3045 3044 0
49 -3046 3045 0
49 -3047 3046 0
49 3042 171 0
49 -171 -3042 0
49 -3042 3043 172 0
49 3042 -172 0
49 -172 -3043 0
49 -3043 3044 173 0
49 3043 -173 0
49 -173 -3044 0
49 -3044 3045 174 0
49 3044 -174 0
49 -174 -3045 0
49 -3045 3046 175 0
49 3045 -175 0
49 -175 -3046 0
49 -3046 3047 176 0
49 3046 -176 0
49 -176 -3047 0
49 -3047 3041 0
49 -3041 3047 0
49 177 178 179 180 181 182 0
49 -3050 3049 0
49 -3051 3050 0
49 -3052 3051 0
49 -3053 3052 0
49 -3054 3053 0
49 3049 177 0
49 -177 -3049 0
49 -3049 3050 178 0
49 3049 -178 0
49 -178 -3050 0
49 -3050 3051 179 0
49 3050 -179 0
49 -179 -3051 0
49 -3051 3052 180 0
49 3051 -180 0
49 -180 -3052 0
49 -3052 3053 181 0
49 3052 -181 0
49 -181 -3053 0
49 -3053 3054 182 0
49 3053 -182 0
49 -182 -3054 0
49 -3054 3048 0
49 -3048 3054 0
49 183 184 185 186 187 188 189 190 191 192 193 0
49 -3057 3056 0
49 -3058 3057 0
49 -3059 3058 0
49 -3060 3059 0
49 -3061 3060 0
49 -3062 3061 0
49 -3063 3062 0
49 -3064 3063 0
49 -3065 3064 0
49 -3066 3065 0
49 3056 183 0
49 -183 -3056 0
49 -3056 3057 184 0
49 3056 -184 0
49 -184 -3057 0
49 -3057 3058 185 0
49 3057 -185 0
49 -185 -3058 0
49 -3058 3059 186 0
49 3058 -186 0
49 -186 -3059 0
49 -3059 3060 187 0
49 3059 -187 0
49 -187 -3060 0
49 -3060 3061 188 0
49 3060 -188 0
49 -188 -3061 0
49 -3061 3062 189 0
49 3061 -189 0
49 -189 -3062 0
49 -3062 3063 190 0
49 3062 -190 0
49 -190 -3063 0
49 -3063 3064 191 0
49 3063 -191 0
49 -191 -3064 0
49 -3064 3065 192 0
49 3064 -192 0
49 -192 -3065 0
49 -3065 3066 193 0
49 3065 -193 0
49 -193 -3066 0
49 -3066 3055 0
49 -3055 3066 0
49 194 195 196 197 198 199 200 201 202 203 204 0
49 -3069 3068 0
49 -3070 3069 0
49 -3071 3070 0
49 -3072 3071 0
49 -3073 3072 0
49 -3074 3073 0
49 -3075 3074 0
49 -3076 3075 0
49 -3077 3076 0
49 -3078 3077 0
49 3068 194 0
49 -194 -3068 0
49 -3068 3069 195 0
49 3068 -195 0
49 -195 -3069 0
49 -3069 3070 196 0
49 3069 -196 0
49 -196 -3070 0
49 -3070 3071 197 0
49 3070 -197 0
49 -197 -3071 0
49 -3071 3072 198 0
49 3071 -198 0
49 -198 -3072 0
49 -3072 3073 199 0
49 3072 -199 0
49 -199 -3073 0
49 -3073 3074 200 0
49 3073 -200 0
49 -200 -3074 0
49 -3074 3075 201 0
49 3074 -201 0
49 -201 -3075 0
49 -3075 3076 202 0
49 3075 -202 0
49 -202 -3076 0
49 -3076 3077 203 0
49 3076 -203 0
49 -203 -3077 0
49 -3077 3078 204 0
49 3077 -204 0
49 -204 -3078 0
49 -3078 3067 0
49 -3067 3078 0
49 205 0
49 206 0
49 207 0
49 208 0
49 209 210 211 212 213 214 215 216 217 218 219 0
49 -3081 3080 0
49 -3082 3081 0
49 -3083 3082 0
49 -3084 3083 0
49 -3085 3084 0
49 -3086 3085 0
49 -3087 3086 0
49 -3088 3087 0
49 -3089 3088 0
49 -3090 3089 0
49 3080 209 0
49 -209 -3080 0
49 -3080 3081 210 0
49 3080 -210 0
49 -210 -3081 0
49 -3081 3082 211 0
49 3081 -211 0
49 -211 -3082 0
49 -3082 3083 212 0
49 3082 -212 0
49 -212 -3083 0
49 -3083 3084 213 0
49 3083 -213 0
49 -213 -3084 0
49 -3084 3085 214 0
49 3084 -214 0
49 -214 -3085 0
49 -3085 3086 215 0
49 3085 -215 0
49 -215 -3086 0
49 -3086 3087 216 0
49 3086 -216 0
49 -216 -3087 0
49 -3087 3088 217 0
49 3087 -217 0
49 -217 -3088 0
49 -3088 3089 218 0
49 3088 -218 0
49 -218 -3089 0
49 -3089 3090 219 0
49 3089 -219 0
49 -219 -3090 0
49 -3090 3079 0
49 -3079 3090 0
49 220 221 222 223 224 225 226 227 228 229 230 0
49 -3093 3092 0
49 -3094 3093 0
49 -3095 3094 0
49 -3096 3095 0
49 -3097 3096 0
49 -3098 3097 0
49 -3099 3098 0
49 -3100 3099 0
49 -3101 3100 0
49 -3102 3101 0
49 3092 220 0
49 -220 -3092 0
49 -3092 3093 221 0
49 3092 -221 0
49 -221 -3093 0
49 -3093 3094 222 0
49 3093 -222 0
49 -222 -3094 0
49 -3094 3095 223 0
49 3094 -223 0
49 -223 -3095 0
49 -3095 3096 224 0
49 3095 -224 0
49 -224 -3096 0
49 -3096 3097 225 0
49 3096 -225 0
49 -225 -3097 0
49 -3097 3098 226 0
49 3097 -226 0
49 -226 -3098 0
49 -3098 3099 227 0
49 3098 -227 0
49 -227 -3099 0
49 -3099 3100 228 0
49 3099 -228 0
49 -228 -3100 0
49 -3100 3101 229 0
49 3100 -229 0
49 -229 -3101 0
49 -3101 3102 230 0
49 3101 -230 0
49 -230 -3102 0
49 -3102 3091 0
49 -3091 3102 0
49 231 232 233 234 235 236 237 238 0
49 -3105 3104 0
49 -3106 3105 0
49 -3107 3106 0
49 -3108 3107 0
49 -3109 3108 0
49 -3110 3109 0
49 -3111 3110 0
49 3104 231 0
49 -231 -3104 0
49 -3104 3105 232 0
49 3104 -232 0
49 -232 -3105 0
49 -3105 3106 233 0
49 3105 -233 0
49 -233 -3106 0
49 -3106 3107 234 0
49 3106 -234 0
49 -234 -3107 0
49 -3107 3108 235 0
49 3107 -235 0
49 -235 -3108 0
49 -3108 3109 236 0
49 3108 -236 0
49 -236 -3109 0
49 -3109 3110 237 0
49 3109 -237 0
49 -237 -3110 0
49 -3110 3111 238 0
49 3110 -238 0
49 -238 -3111 0
49 -3111 3103 0
49 -3103 3111 0
49 239 240 241 242 243 244 245 246 0
49 -3114 3113 0
49 -3115 3114 0
49 -3116 3115 0
49 -3117 3116 0
49 -3118 3117 0
49 -3119 3118 0
49 -3120 3119 0
49 3113 239 0
49 -239 -3113 0
49 -3113 3114 240 0
49 3113 -240 0
49 -240 -3114 0
49 -3114 3115 241 0
49 3114 -241 0
49 -241 -3115 0
49 -3115 3116 242 0
49 3115 -242 0
49 -242 -3116 0
49 -3116 3117 243 0
49 3116 -243 0
49 -243 -3117 0
49 -3117 3118 244 0
49 3117 -244 0
49 -244 -3118 0
49 -3118 3119 245 0
49 3118 -245 0
49 -245 -3119 0
49 -3119 3120 246 0
49 3119 -246 0
49 -246 -3120 0
49 -3120 3112 0
49 -3112 3120 0
49 247 0
49 248 0
49 249 0
49 250 0
49 251 0
49 252 0
49 253 0
49 254 0
49 255 0
49 256 0
49 257 0
49 258 0
49 259 260 261 262 263 264 265 266 0
49 -3123 3122 0
49 -3124 3123 0
49 -3125 3124 0
49 -3126 3125 0
49 -3127 3126 0
49 -3128 3127 0
49 -3129 3128 0
49 3122 259 0
49 -259 -3122 0
49 -3122 3123 260 0
49 3122 -260 0
49 -260 -3123 0
49 -3123 3124 261 0
49 3123 -261 0
49 -261 -3124 0
49 -3124 3125 262 0
49 3124 -262 0
49 -262 -3125 0
49 -3125 3126 263 0
49 3125 -263 0
49 -263 -3126 0
49 -3126 3127 264 0
49 3126 -264 0
49 -264 -3127 0
49 -3127 3128 265 0
49 3127 -265 0
49 -265 -3128 0
49 -3128 3129 266 0
49 3128 -266 0
49 -266 -3129 0
49 -3129 3121 0
49 -3121 3129 0
49 267 268 269 270 271 272 273 274 0
49 -3132 3131 0
49 -3133 3132 0
49 -3134 3133 0
49 -3135 3134 0
49 -3136 3135 0
49 -3137 3136 0
49 -3138 3137 0
49 3131 267 0
49 -267 -3131 0
49 -3131 3132 268 0
49 3131 -268 0
49 -268 -3132 0
49 -3132 3133 269 0
49 3132 -269 0
49 -269 -3133 0
49 -3133 3134 270 0
49 3133 -270 0
49 -270 -3134 0
49 -3134 3135 271 0
49 3134 -271 0
49 -271 -3135 0
49 -3135 3136 272 0
49 3135 -272 0
49 -272 -3136 0
49 -3136 3137 273 0
49 3136 -273 0
49 -273 -3137 0
49 -3137 3138 274 0
49 3137 -274 0
49 -274 -3138 0
49 -3138 3130 0
49 -3130 3138 0
49 275 0
49 276 0
49 277 0
49 278 0
49 279 280 281 282 283 284 285 0
49 -3141 3140 0
49 -3142 3141 0
49 -3143 3142 0
49 -3144 3143 0
49 -3145 3144 0
49 -3146 3145 0
49 3140 279 0
49 -279 -3140 0
49 -3140 3141 280 0
49 3140 -280 0
49 -280 -3141 0
49 -3141 3142 281 0
49 3141 -281 0
49 -281 -3142 0
49 -3142 3143 282 0
49 3142 -282 0
49 -282 -3143 0
49 -3143 3144 283 0
49 3143 -283 0
49 -283 -3144 0
49 -3144 3145 284 0
49 3144 -284 0
49 -284 -3145 0
49 -3145 3146 285 0
49 3145 -285 0
49 -285 -3146 0
49 -3146 3139 0
49 -3139 3146 0
49 286 287 288 289 290 291 292 0
49 -3149 3148 0
49 -3150 3149 0
49 -3151 3150 0
49 -3152 3151 0
49 -3153 3152 0
49 -3154 3153 0
49 3148 286 0
49 -286 -3148 0
49 -3148 3149 287 0
49 3148 -287 0
49 -287 -3149 0
49 -3149 3150 288 0
49 3149 -288 0
49 -288 -3150 0
49 -3150 3151 289 0
49 3150 -289 0
49 -289 -3151 0
49 -3151 3152 290 0
49 3151 -290 0
49 -290 -3152 0
49 -3152 3153 291 0
49 3152 -291 0
49 -291 -3153 0
49 -3153 3154 292 0
49 3153 -292 0
49 -292 -3154 0
49 -3154 3147 0
49 -3147 3154 0
49 293 0
49 294 0
49 295 0
49 296 0
49 297 298 299 300 301 302 303 0
49 -3157 3156 0
49 -3158 3157 0
49 -3159 3158 0
49 -3160 3159 0
49 -3161 3160 0
49 -3162 3161 0
49 3156 297 0
49 -297 -3156 0
49 -3156 3157 298 0
49 3156 -298 0
49 -298 -3157 0
49 -3157 3158 299 0
49 3157 -299 0
49 -299 -3158 0
49 -3158 3159 300 0
49 3158 -300 0
49 -300 -3159 0
49 -3159 3160 301 0
49 3159 -301 0
49 -301 -3160 0
49 -3160 3161 302 0
49 3160 -302 0
49 -302 -3161 0
49 -3161 3162 303 0
49 3161 -303 0
49 -303 -3162 0
49 -3162 3155 0
49 -3155 3162 0
49 304 305 306 307 308 309 310 0
49 -3165 3164 0
49 -3166 3165 0
49 -3167 3166 0
49 -3168 3167 0
49 -3169 3168 0
49 -3170 3169 0
49 3164 304 0
49 -304 -3164 0
49 -3164 3165 305 0
49 3164 -305 0
49 -305 -3165 0
49 -3165 3166 306 0
49 3165 -306 0
49 -306 -3166 0
49 -3166 3167 307 0
49 3166 -307 0
49 -307 -3167 0
49 -3167 3168 308 0
49 3167 -308 0
49 -308 -3168 0
49 -3168 3169 309 0
49 3168 -309 0
49 -309 -3169 0
49 -3169 3170 310 0
49 3169 -310 0
49 -310 -3170 0
49 -3170 3163 0
49 -3163 3170 0
49 311 0
49 312 0
49 313 0
49 314 0
49 315 0
49 316 0
49 317 0
49 318 0
49 319 0
49 320 0
49 321 322 323 324 325 326 327 328 0
49 -3173 3172 0
49 -3174 3173 0
49 -3175 3174 0
49 -3176 3175 0
49 -3177 3176 0
49 -3178 3177 0
49 -3179 3178 0
49 3172 321 0
49 -321 -3172 0
49 -3172 3173 322 0
49 3172 -322 0
49 -322 -3173 0
49 -3173 3174 323 0
49 3173 -323 0
49 -323 -3174 0
49 -3174 3175 324 0
49 3174 -324 0
49 -324 -3175 0
49 -3175 3176 325 0
49 3175 -325 0
49 -325 -3176 0
49 -3176 3177 326 0
49 3176 -326 0
49 -326 -3177 0
49 -3177 3178 327 0
49 3177 -327 0
49 -327 -3178 0
49 -3178 3179 328 0
49 3178 -328 0
49 -328 -3179 0
49 -3179 3171 0
49 -3171 3179 0
49 329 330 331 332 333 334 335 336 0
49 -3182 3181 0
49 -3183 3182 0
49 -3184 3183 0
49 -3185 3184 0
49 -3186 3185 0
49 -3187 3186 0
49 -3188 3187 0
49 3181 329 0
49 -329 -3181 0
49 -3181 3182 330 0
49 3181 -330 0
49 -330 -3182 0
49 -3182 3183 331 0
49 3182 -331 0
49 -331 -3183 0
49 -3183 3184 332 0
49 3183 -332 0
49 -332 -3184 0
49 -3184 3185 333 0
49 3184 -333 0
49 -333 -3185 0
49 -3185 3186 334 0
49 3185 -334 0
49 -334 -3186 0
49 -3186 3187 335 0
49 3186 -335 0
49 -335 -3187 0
49 -3187 3188 336 0
49 3187 -336 0
49 -336 -3188 0
49 -3188 3180 0
49 -3180 3188 0
49 337 0
49 338 0
49 339 340 341 342 343 344 345 346 0
49 -3191 3190 0
49 -3192 3191 0
49 -3193 3192 0
49 -3194 3193 0
49 -3195 3194 0
49 -3196 3195 0
49 -3197 3196 0
49 3190 339 0
49 -339 -3190 0
49 -3190 3191 340 0
49 3190 -340 0
49 -340 -3191 0
49 -3191 3192 341 0
49 3191 -341 0
49 -341 -3192 0
49 -3192 3193 342 0
49 3192 -342 0
49 -342 -3193 0
49 -3193 3194 343 0
49 3193 -343 0
49 -343 -3194 0
49 -3194 3195 344 0
49 3194 -344 0
49 -344 -3195 0
49 -3195 3196 345 0
49 3195 -345 0
49 -345 -3196 0
49 -3196 3197 346 0
49 3196 -346 0
49 -346 -3197 0
49 -3197 3189 0
49 -3189 3197 0
49 347 348 349 350 351 352 353 354 0
49 -3200 3199 0
49 -3201 3200 0
49 -3202 3201 0
49 -3203 3202 0
49 -3204 3203 0
49 -3205 3204 0
49 -3206 3205 0
49 3199 347 0
49 -347 -3199 0
49 -3199 3200 348 0
49 3199 -348 0
49 -348 -3200 0
49 -3200 3201 349 0
49 3200 -349 0
49 -349 -3201 0
49 -3201 3202 350 0
49 3201 -350 0
49 -350 -3202 0
49 -3202 3203 351 0
49 3202 -351 0
49 -351 -3203 0
49 -3203 3204 352 0
49 3203 -352 0
49 -352 -3204 0
49 -3204 3205 353 0
49 3204 -353 0
49 -353 -3205 0
49 -3205 3206 354 0
49 3205 -354 0
49 -354 -3206 0
49 -3206 3198 0
49 -3198 3206 0
49 355 0
49 356 0
49 357 358 359 360 361 362 363 364 0
49 -3209 3208 0
49 -3210 3209 0
49 -3211 3210 0
49 -3212 3211 0
49 -3213 3212 0
49 -3214 3213 0
49 -3215 3214 0
49 3208 357 0
49 -357 -3208 0
49 -3208 3209 358 0
49 3208 -358 0
49 -358 -3209 0
49 -3209 3210 359 0
49 3209 -359 0
49 -359 -3210 0
49 -3210 3211 360 0
49 3210 -360 0
49 -360 -3211 0
49 -3211 3212 361 0
49 3211 -361 0
49 -361 -3212 0
49 -3212 3213 362 0
49 3212 -362 0
49 -362 -3213 0
49 -3213 3214 363 0
49 3213 -363 0
49 -363 -3214 0
49 -3214 3215 364 0
49 3214 -364 0
49 -364 -3215 0
49 -3215 3207 0
49 -3207 3215 0
49 365 366 367 368 369 370 371 372 0
49 -3218 3217 0
49 -3219 3218 0
49 -3220 3219 0
49 -3221 3220 0
49 -3222 3221 0
49 -3223 3222 0
49 -3224 3223 0
49 3217 365 0
49 -365 -3217 0
49 -3217 3218 366 0
49 3217 -366 0
49 -366 -3218 0
49 -3218 3219 367 0
49 3218 -367 0
49 -367 -3219 0
49 -3219 3220 368 0
49 3219 -368 0
49 -368 -3220 0
49 -3220 3221 369 0
49 3220 -369 0
49 -369 -3221 0
49 -3221 3222 370 0
49 3221 -370 0
49 -370 -3222 0
49 -3222 3223 371 0
49 3222 -371 0
49 -371 -3223 0
49 -3223 3224 372 0
49 3223 -372 0
49 -372 -3224 0
49 -3224 3216 0
49 -3216 3224 0
49 373 0
49 374 0
49 375 0
49 376 0
49 377 378 379 0
49 -3227 3226 0
49 -3228 3227 0
49 3226 377 0
49 -377 -3226 0
49 -3226 3227 378 0
49 3226 -378 0
49 -378 -3227 0
49 -3227 3228 379 0
49 3227 -379 0
49 -379 -3228 0
49 -3228 3225 0
49 -3225 3228 0
49 380 381 382 0
49 -3231 3230 0
49 -3232 3231 0
49 3230 380 0
49 -380 -3230 0
49 -3230 3231 381 0
49 3230 -381 0
49 -381 -3231 0
49 -3231 3232 382 0
49 3231 -382 0
49 -382 -3232 0
49 -3232 3229 0
49 -3229 3232 0
49 383 384 0
49 -383 -384 0
49 385 386 0
49 -385 -386 0
49 387 0
49 388 0
49 389 0
49 390 0
49 391 0
49 392 0
49 393 394 395 396 0
49 -3235 3234 0
49 -3236 3235 0
49 -3237 3236 0
49 3234 393 0
49 -393 -3234 0
49 -3234 3235 394 0
49 3234 -394 0
49 -394 -3235 0
49 -3235 3236 395 0
49 3235 -395 0
49 -395 -3236 0
49 -3236 3237 396 0
49 3236 -396 0
49 -396 -3237 0
49 -3237 3233 0
49 -3233 3237 0
49 397 398 399 400 0
49 -3240 3239 0
49 -3241 3240 0
49 -3242 3241 0
49 3239 397 0
49 -397 -3239 0
49 -3239 3240 398 0
49 3239 -398 0
49 -398 -3240 0
49 -3240 3241 399 0
49 3240 -399 0
49 -399 -3241 0
49 -3241 3242 400 0
49 3241 -400 0
49 -400 -3242 0
49 -3242 3238 0
49 -3238 3242 0
49 401 0
49 402 0
49 403 404 405 406 407 408 409 410 0
49 -3245 3244 0
49 -3246 3245 0
49 -3247 3246 0
49 -3248 3247 0
49 -3249 3248 0
49 -3250 3249 0
49 -3251 3250 0
49 3244 403 0
49 -403 -3244 0
49 -3244 3245 404 0
49 3244 -404 0
49 -404 -3245 0
49 -3245 3246 405 0
49 3245 -405 0
49 -405 -3246 0
49 -3246 3247 406 0
49 3246 -406 0
49 -406 -3247 0
49 -3247 3248 407 0
49 3247 -407 0
49 -407 -3248 0
49 -3248 3249 408 0
49 3248 -408 0
49 -408 -3249 0
49 -3249 3250 409 0
49 3249 -409 0
49 -409 -3250 0
49 -3250 3251 410 0
49 3250 -410 0
49 -410 -3251 0
49 -3251 3243 0
49 -3243 3251 0
49 411 412 413 414 415 416 417 418 0
49 -3254 3253 0
49 -3255 3254 0
49 -3256 3255 0
49 -3257 3256 0
49 -3258 3257 0
49 -3259 3258 0
49 -3260 3259 0
49 3253 411 0
49 -411 -3253 0
49 -3253 3254 412 0
49 3253 -412 0
49 -412 -3254 0
49 -3254 3255 413 0
49 3254 -413 0
49 -413 -3255 0
49 -3255 3256 414 0
49 3255 -414 0
49 -414 -3256 0
49 -3256 3257 415 0
49 3256 -415 0
49 -415 -3257 0
49 -3257 3258 416 0
49 3257 -416 0
49 -416 -3258 0
49 -3258 3259 417 0
49 3258 -417 0
49 -417 -3259 0
49 -3259 3260 418 0
49 3259 -418 0
49 -418 -3260 0
49 -3260 3252 0
49 -3252 3260 0
49 419 0
49 420 0
49 421 422 423 424 425 426 427 428 0
49 -3263 3262 0
49 -3264 3263 0
49 -3265 3264 0
49 -3266 3265 0
49 -3267 3266 0
49 -3268 3267 0
49 -3269 3268 0
49 3262 421 0
49 -421 -3262 0
49 -3262 3263 422 0
49 3262 -422 0
49 -422 -3263 0
49 -3263 3264 423 0
49 3263 -423 0
49 -423 -3264 0
49 -3264 3265 424 0
49 3264 -424 0
49 -424 -3265 0
49 -3265 3266 425 0
49 3265 -425 0
49 -425 -3266 0
49 -3266 3267 426 0
49 3266 -426 0
49 -426 -3267 0
49 -3267 3268 427 0
49 3267 -427 0
49 -427 -3268 0
49 -3268 3269 428 0
49 3268 -428 0
49 -428 -3269 0
49 -3269 3261 0
49 -3261 3269 0
49 429 430 431 432 433 434 435 436 0
49 -3272 3271 0
49 -3273 3272 0
49 -3274 3273 0
49 -3275 3274 0
49 -3276 3275 0
49 -3277 3276 0
49 -3278 3277 0
49 3271 429 0
49 -429 -3271 0
49 -3271 3272 430 0
49 3271 -430 0
49 -430 -3272 0
49 -3272 3273 431 0
49 3272 -431 0
49 -431 -3273 0
49 -3273 3274 432 0
49 3273 -432 0
49 -432 -3274 0
49 -3274 3275 433 0
49 3274 -433 0
49 -433 -3275 0
49 -3275 3276 434 0
49 3275 -434 0
49 -434 -3276 0
49 -3276 3277 435 0
49 3276 -435 0
49 -435 -3277 0
49 -3277 3278 436 0
49 3277 -436 0
49 -436 -3278 0
49 -3278 3270 0
49 -3270 3278 0
49 437 0
49 438 0
49 439 0
49 440 0
49 441 442 443 0
49 -3281 3280 0
49 -3282 3281 0
49 3280 441 0
49 -441 -3280 0
49 -3280 3281 442 0
49 3280 -442 0
49 -442 -3281 0
49 -3281 3282 443 0
49 3281 -443 0
49 -443 -3282 0
49 -3282 3279 0
49 -3279 3282 0
49 444 445 446 0
49 -3285 3284 0
49 -3286 3285 0
49 3284 444 0
49 -444 -3284 0
49 -3284 3285 445 0
49 3284 -445 0
49 -445 -3285 0
49 -3285 3286 446 0
49 3285 -446 0
49 -446 -3286 0
49 -3286 3283 0
49 -3283 3286 0
49 447 0
49 448 0
49 449 450 451 0
49 -3289 3288 0
49 -3290 3289 0
49 3288 449 0
49 -449 -3288 0
49 -3288 3289 450 0
49 3288 -450 0
49 -450 -3289 0
49 -3289 3290 451 0
49 3289 -451 0
49 -451 -3290 0
49 -3290 3287 0
49 -3287 3290 0
49 452 453 454 0
49 -3293 3292 0
49 -3294 3293 0
49 3292 452 0
49 -452 -3292 0
49 -3292 3293 453 0
49 3292 -453 0
49 -453 -3293 0
49 -3293 3294 454 0
49 3293 -454 0
49 -454 -3294 0
49 -3294 3291 0
49 -3291 3294 0
49 455 456 0
49 -455 -456 0
49 457 458 0
49 -457 -458 0
49 459 460 461 462 463 464 465 466 0
49 -3297 3296 0
49 -3298 3297 0
49 -3299 3298 0
49 -3300 3299 0
49 -3301 3300 0
49 -3302 3301 0
49 -3303 3302 0
49 3296 459 0
49 -459 -3296 0
49 -3296 3297 460 0
49 3296 -460 0
49 -460 -3297 0
49 -3297 3298 461 0
49 3297 -461 0
49 -461 -3298 0
49 -3298 3299 462 0
49 3298 -462 0
49 -462 -3299 0
49 -3299 3300 463 0
49 3299 -463 0
49 -463 -3300 0
49 -3300 3301 464 0
49 3300 -464 0
49 -464 -3301 0
49 -3301 3302 465 0
49 3301 -465 0
49 -465 -3302 0
49 -3302 3303 466 0
49 3302 -466 0
49 -466 -3303 0
49 -3303 3295 0
49 -3295 3303 0
49 467 468 469 470 471 472 473 474 0
49 -3306 3305 0
49 -3307 3306 0
49 -3308 3307 0
49 -3309 3308 0
49 -3310 3309 0
49 -3311 3310 0
49 -3312 3311 0
49 3305 467 0
49 -467 -3305 0
49 -3305 3306 468 0
49 3305 -468 0
49 -468 -3306 0
49 -3306 3307 469 0
49 3306 -469 0
49 -469 -3307 0
49 -3307 3308 470 0
49 3307 -470 0
49 -470 -3308 0
49 -3308 3309 471 0
49 3308 -471 0
49 -471 -3309 0
49 -3309 3310 472 0
49 3309 -472 0
49 -472 -3310 0
49 -3310 3311 473 0
49 3310 -473 0
49 -473 -3311 0
49 -3311 3312 474 0
49 3311 -474 0
49 -474 -3312 0
49 -3312 3304 0
49 -3304 3312 0
49 475 0
49 476 0
49 477 478 479 480 0
49 -3315 3314 0
49 -3316 3315 0
49 -3317 3316 0
49 3314 477 0
49 -477 -3314 0
49 -3314 3315 478 0
49 3314 -478 0
49 -478 -3315 0
49 -3315 3316 479 0
49 3315 -479 0
49 -479 -3316 0
49 -3316 3317 480 0
49 3316 -480 0
49 -480 -3317 0
49 -3317 3313 0
49 -3313 3317 0
49 481 482 483 484 0
49 -3320 3319 0
49 -3321 3320 0
49 -3322 3321 0
49 3319 481 0
49 -481 -3319 0
49 -3319 3320 482 0
49 3319 -482 0
49 -482 -3320 0
49 -3320 3321 483 0
49 3320 -483 0
49 -483 -3321 0
49 -3321 3322 484 0
49 3321 -484 0
49 -484 -3322 0
49 -3322 3318 0
49 -3318 3322 0
49 485 486 487 488 489 490 491 492 0
49 -3325 3324 0
49 -3326 3325 0
49 -3327 3326 0
49 -3328 3327 0
49 -3329 3328 0
49 -3330 3329 0
49 -3331 3330 0
49 3324 485 0
49 -485 -3324 0
49 -3324 3325 486 0
49 3324 -486 0
49 -486 -3325 0
49 -3325 3326 487 0
49 3325 -487 0
49 -487 -3326 0
49 -3326 3327 488 0
49 3326 -488 0
49 -488 -3327 0
49 -3327 3328 489 0
49 3327 -489 0
49 -489 -3328 0
49 -3328 3329 490 0
49 3328 -490 0
49 -490 -3329 0
49 -3329 3330 491 0
49 3329 -491 0
49 -491 -3330 0
49 -3330 3331 492 0
49 3330 -492 0
49 -492 -3331 0
49 -3331 3323 0
49 -3323 3331 0
49 493 494 495 496 497 498 499 500 0
49 -3334 3333 0
49 -3335 3334 0
49 -3336 3335 0
49 -3337 3336 0
49 -3338 3337 0
49 -3339 3338 0
49 -3340 3339 0
49 3333 493 0
49 -493 -3333 0
49 -3333 3334 494 0
49 3333 -494 0
49 -494 -3334 0
49 -3334 3335 495 0
49 3334 -495 0
49 -495 -3335 0
49 -3335 3336 496 0
49 3335 -496 0
49 -496 -3336 0
49 -3336 3337 497 0
49 3336 -497 0
49 -497 -3337 0
49 -3337 3338 498 0
49 3337 -498 0
49 -498 -3338 0
49 -3338 3339 499 0
49 3338 -499 0
49 -499 -3339 0
49 -3339 3340 500 0
49 3339 -500 0
49 -500 -3340 0
49 -3340 3332 0
49 -3332 3340 0
49 501 502 503 504 505 506 507 508 509 510 511 0
49 -3343 3342 0
49 -3344 3343 0
49 -3345 3344 0
49 -3346 3345 0
49 -3347 3346 0
49 -3348 3347 0
49 -3349 3348 0
49 -3350 3349 0
49 -3351 3350 0
49 -3352 3351 0
49 3342 501 0
49 -501 -3342 0
49 -3342 3343 502 0
49 3342 -502 0
49 -502 -3343 0
49 -3343 3344 503 0
49 3343 -503 0
49 -503 -3344 0
49 -3344 3345 504 0
49 3344 -504 0
49 -504 -3345 0
49 -3345 3346 505 0
49 3345 -505 0
49 -505 -3346 0
49 -3346 3347 506 0
49 3346 -506 0
49 -506 -3347 0
49 -3347 3348 507 0
49 3347 -507 0
49 -507 -3348 0
49 -3348 3349 508 0
49 3348 -508 0
49 -508 -3349 0
49 -3349 3350 509 0
49 3349 -509 0
49 -509 -3350 0
49 -3350 3351 510 0
49 3350 -510 0
49 -510 -3351 0
49 -3351 3352 511 0
49 3351 -511 0
49 -511 -3352 0
49 -3352 3341 0
49 -3341 3352 0
49 512 513 514 515 516 517 518 519 520 521 522 0
49 -3355 3354 0
49 -3356 3355 0
49 -3357 3356 0
49 -3358 3357 0
49 -3359 3358 0
49 -3360 3359 0
49 -3361 3360 0
49 -3362 3361 0
49 -3363 3362 0
49 -3364 3363 0
49 3354 512 0
49 -512 -3354 0
49 -3354 3355 513 0
49 3354 -513 0
49 -513 -3355 0
49 -3355 3356 514 0
49 3355 -514 0
49 -514 -3356 0
49 -3356 3357 515 0
49 3356 -515 0
49 -515 -3357 0
49 -3357 3358 516 0
49 3357 -516 0
49 -516 -3358 0
49 -3358 3359 517 0
49 3358 -517 0
49 -517 -3359 0
49 -3359 3360 518 0
49 3359 -518 0
49 -518 -3360 0
49 -3360 3361 519 0
49 3360 -519 0
49 -519 -3361 0
49 -3361 3362 520 0
49 3361 -520 0
49 -520 -3362 0
49 -3362 3363 521 0
49 3362 -521 0
49 -521 -3363 0
49 -3363 3364 522 0
49 3363 -522 0
49 -522 -3364 0
49 -3364 3353 0
49 -3353 3364 0
49 523 524 525 526 527 528 529 0
49 -3367 3366 0
49 -3368 3367 0
49 -3369 3368 0
49 -3370 3369 0
49 -3371 3370 0
49 -3372 3371 0
49 3366 523 0
49 -523 -3366 0
49 -3366 3367 524 0
49 3366 -524 0
49 -524 -3367 0
49 -3367 3368 525 0
49 3367 -525 0
49 -525 -3368 0
49 -3368 3369 526 0
49 3368 -526 0
49 -526 -3369 0
49 -3369 3370 527 0
49 3369 -527 0
49 -527 -3370 0
49 -3370 3371 528 0
49 3370 -528 0
49 -528 -3371 0
49 -3371 3372 529 0
49 3371 -529 0
49 -529 -3372 0
49 -3372 3365 0
49 -3365 3372 0
49 530 531 532 533 534 535 536 0
49 -3375 3374 0
49 -3376 3375 0
49 -3377 3376 0
49 -3378 3377 0
49 -3379 3378 0
49 -3380 3379 0
49 3374 530 0
49 -530 -3374 0
49 -3374 3375 531 0
49 3374 -531 0
49 -531 -3375 0
49 -3375 3376 532 0
49 3375 -532 0
49 -532 -3376 0
49 -3376 3377 533 0
49 3376 -533 0
49 -533 -3377 0
49 -3377 3378 534 0
49 3377 -534 0
49 -534 -3378 0
49 -3378 3379 535 0
49 3378 -535 0
49 -535 -3379 0
49 -3379 3380 536 0
49 3379 -536 0
49 -536 -3380 0
49 -3380 3373 0
49 -3373 3380 0
49 537 0
49 538 0
49 539 540 541 542 543 0
49 -3383 3382 0
49 -3384 3383 0
49 -3385 3384 0
49 -3386 3385 0
49 3382 539 0
49 -539 -3382 0
49 -3382 3383 540 0
49 3382 -540 0
49 -540 -3383 0
49 -3383 3384 541 0
49 3383 -541 0
49 -541 -3384 0
49 -3384 3385 542 0
49 3384 -542 0
49 -542 -3385 0
49 -3385 3386 543 0
49 3385 -543 0
49 -543 -3386 0
49 -3386 3381 0
49 -3381 3386 0
49 544 545 546 547 548 0
49 -3389 3388 0
49 -3390 3389 0
49 -3391 3390 0
49 -3392 3391 0
49 3388 544 0
49 -544 -3388 0
49 -3388 3389 545 0
49 3388 -545 0
49 -545 -3389 0
49 -3389 3390 546 0
49 3389 -546 0
49 -546 -3390 0
49 -3390 3391 547 0
49 3390 -547 0
49 -547 -3391 0
49 -3391 3392 548 0
49 3391 -548 0
49 -548 -3392 0
49 -3392 3387 0
49 -3387 3392 0
49 549 550 551 552 553 554 555 556 0
49 -3395 3394 0
49 -3396 3395 0
49 -3397 3396 0
49 -3398 3397 0
49 -3399 3398 0
49 -3400 3399 0
49 -3401 3400 0
49 3394 549 0
49 -549 -3394 0
49 -3394 3395 550 0
49 3394 -550 0
49 -550 -3395 0
49 -3395 3396 551 0
49 3395 -551 0
49 -551 -3396 0
49 -3396 3397 552 0
49 3396 -552 0
49 -552 -3397 0
49 -3397 3398 553 0
49 3397 -553 0
49 -553 -3398 0
49 -3398 3399 554 0
49 3398 -554 0
49 -554 -3399 0
49 -3399 3400 555 0
49 3399 -555 0
49 -555 -3400 0
49 -3400 3401 556 0
49 3400 -556 0
49 -556 -3401 0
49 -3401 3393 0
49 -3393 3401 0
49 557 558 559 560 561 562 563 564 0
49 -3404 3403 0
49 -3405 3404 0
49 -3406 3405 0
49 -3407 3406 0
49 -3408 3407 0
49 -3409 3408 0
49 -3410 3409 0
49 3403 557 0
49 -557 -3403 0
49 -3403 3404 558 0
49 3403 -558 0
49 -558 -3404 0
49 -3404 3405 559 0
49 3404 -559 0
49 -559 -3405 0
49 -3405 3406 560 0
49 3405 -560 0
49 -560 -3406 0
49 -3406 3407 561 0
49 3406 -561 0
49 -561 -3407 0
49 -3407 3408 562 0
49 3407 -562 0
49 -562 -3408 0
49 -3408 3409 563 0
49 3408 -563 0
49 -563 -3409 0
49 -3409 3410 564 0
49 3409 -564 0
49 -564 -3410 0
49 -3410 3402 0
49 -3402 3410 0
49 565 566 567 568 569 570 571 572 0
49 -3413 3412 0
49 -3414 3413 0
49 -3415 3414 0
49 -3416 3415 0
49 -3417 3416 0
49 -3418 3417 0
49 -3419 3418 0
49 3412 565 0
49 -565 -3412 0
49 -3412 3413 566 0
49 3412 -566 0
49 -566 -3413 0
49 -3413 3414 567 0
49 3413 -567 0
49 -567 -3414 0
49 -3414 3415 568 0
49 3414 -568 0
49 -568 -3415 0
49 -3415 3416 569 0
49 3415 -569 0
49 -569 -3416 0
49 -3416 3417 570 0
49 3416 -570 0
49 -570 -3417 0
49 -3417 3418 571 0
49 3417 -571 0
49 -571 -3418 0
49 -3418 3419 572 0
49 3418 -572 0
49 -572 -3419 0
49 -3419 3411 0
49 -3411 3419 0
49 573 574 575 576 577 578 579 580 0
49 -3422 3421 0
49 -3423 3422 0
49 -3424 3423 0
49 -3425 3424 0
49 -3426 3425 0
49 -3427 3426 0
49 -3428 3427 0
49 3421 573 0
49 -573 -3421 0
49 -3421 3422 574 0
49 3421 -574 0
49 -574 -3422 0
49 -3422 3423 575 0
49 3422 -575 0
49 -575 -3423 0
49 -3423 3424 576 0
49 3423 -576 0
49 -576 -3424 0
49 -3424 3425 577 0
49 3424 -577 0
49 -577 -3425 0
49 -3425 3426 578 0
49 3425 -578 0
49 -578 -3426 0
49 -3426 3427 579 0
49 3426 -579 0
49 -579 -3427 0
49 -3427 3428 580 0
49 3427 -580 0
49 -580 -3428 0
49 -3428 3420 0
49 -3420 3428 0
49 581 582 583 584 0
49 -3431 3430 0
49 -3432 3431 0
49 -3433 3432 0
49 3430 581 0
49 -581 -3430 0
49 -3430 3431 582 0
49 3430 -582 0
49 -582 -3431 0
49 -3431 3432 583 0
49 3431 -583 0
49 -583 -3432 0
49 -3432 3433 584 0
49 3432 -584 0
49 -584 -3433 0
49 -3433 3429 0
49 -3429 3433 0
49 585 586 587 588 0
49 -3436 3435 0
49 -3437 3436 0
49 -3438 3437 0
49 3435 585 0
49 -585 -3435 0
49 -3435 3436 586 0
49 3435 -586 0
49 -586 -3436 0
49 -3436 3437 587 0
49 3436 -587 0
49 -587 -3437 0
49 -3437 3438 588 0
49 3437 -588 0
49 -588 -3438 0
49 -3438 3434 0
49 -3434 3438 0
49 589 0
49 590 0
49 591 0
49 592 0
49 593 0
49 594 0
49 595 596 597 598 599 600 601 602 603 604 0
49 -3441 3440 0
49 -3442 3441 0
49 -3443 3442 0
49 -3444 3443 0
49 -3445 3444 0
49 -3446 3445 0
49 -3447 3446 0
49 -3448 3447 0
49 -3449 3448 0
49 3440 595 0
49 -595 -3440 0
49 -3440 3441 596 0
49 3440 -596 0
49 -596 -3441 0
49 -3441 3442 597 0
49 3441 -597 0
49 -597 -3442 0
49 -3442 3443 598 0
49 3442 -598 0
49 -598 -3443 0
49 -3443 3444 599 0
49 3443 -599 0
49 -599 -3444 0
49 -3444 3445 600 0
49 3444 -600 0
49 -600 -3445 0
49 -3445 3446 601 0
49 3445 -601 0
49 -601 -3446 0
49 -3446 3447 602 0
49 3446 -602 0
49 -602 -3447 0
49 -3447 3448 603 0
49 3447 -603 0
49 -603 -3448 0
49 -3448 3449 604 0
49 3448 -604 0
49 -604 -3449 0
49 -3449 3439 0
49 -3439 3449 0
49 605 606 607 608 609 610 611 612 613 614 0
49 -3452 3451 0
49 -3453 3452 0
49 -3454 3453 0
49 -3455 3454 0
49 -3456 3455 0
49 -3457 3456 0
49 -3458 3457 0
49 -3459 3458 0
49 -3460 3459 0
49 3451 605 0
49 -605 -3451 0
49 -3451 3452 606 0
49 3451 -606 0
49 -606 -3452 0
49 -3452 3453 607 0
49 3452 -607 0
49 -607 -3453 0
49 -3453 3454 608 0
49 3453 -608 0
49 -608 -3454 0
49 -3454 3455 609 0
49 3454 -609 0
49 -609 -3455 0
49 -3455 3456 610 0
49 3455 -610 0
49 -610 -3456 0
49 -3456 3457 611 0
49 3456 -611 0
49 -611 -3457 0
49 -3457 3458 612 0
49 3457 -612 0
49 -612 -3458 0
49 -3458 3459 613 0
49 3458 -613 0
49 -613 -3459 0
49 -3459 3460 614 0
49 3459 -614 0
49 -614 -3460 0
49 -3460 3450 0
49 -3450 3460 0
49 615 616 0
49 -615 -616 0
49 617 618 0
49 -617 -618 0
49 619 620 621 0
49 -3463 3462 0
49 -3464 3463 0
49 3462 619 0
49 -619 -3462 0
49 -3462 3463 620 0
49 3462 -620 0
49 -620 -3463 0
49 -3463 3464 621 0
49 3463 -621 0
49 -621 -3464 0
49 -3464 3461 0
49 -3461 3464 0
49 622 623 624 0
49 -3467 3466 0
49 -3468 3467 0
49 3466 622 0
49 -622 -3466 0
49 -3466 3467 623 0
49 3466 -623 0
49 -623 -3467 0
49 -3467 3468 624 0
49 3467 -624 0
49 -624 -3468 0
49 -3468 3465 0
49 -3465 3468 0
49 625 0
49 626 0
49 627 0
49 628 0
49 629 0
49 630 0
49 631 0
49 632 0
49 633 0
49 634 0
49 635 0
49 636 0
49 637 0
49 638 0
49 639 0
49 640 0
49 641 0
49 642 0
49 643 0
49 644 0
49 645 646 647 648 649 650 651 652 0
49 -3471 3470 0
49 -3472 3471 0
49 -3473 3472 0
49 -3474 3473 0
49 -3475 3474 0
49 -3476 3475 0
49 -3477 3476 0
49 3470 645 0
49 -645 -3470 0
49 -3470 3471 646 0
49 3470 -646 0
49 -646 -3471 0
49 -3471 3472 647 0
49 3471 -647 0
49 -647 -3472 0
49 -3472 3473 648 0
49 3472 -648 0
49 -648 -3473 0
49 -3473 3474 649 0
49 3473 -649 0
49 -649 -3474 0
49 -3474 3475 650 0
49 3474 -650 0
49 -650 -3475 0
49 -3475 3476 651 0
49 3475 -651 0
49 -651 -3476 0
49 -3476 3477 652 0
49 3476 -652 0
49 -652 -3477 0
49 -3477 3469 0
49 -3469 3477 0
49 653 654 655 656 657 658 659 660 0
49 -3480 3479 0
49 -3481 3480 0
49 -3482 3481 0
49 -3483 3482 0
49 -3484 3483 0
49 -3485 3484 0
49 -3486 3485 0
49 3479 653 0
49 -653 -3479 0
49 -3479 3480 654 0
49 3479 -654 0
49 -654 -3480 0
49 -3480 3481 655 0
49 3480 -655 0
49 -655 -3481 0
49 -3481 3482 656 0
49 3481 -656 0
49 -656 -3482 0
49 -3482 3483 657 0
49 3482 -657 0
49 -657 -3483 0
49 -3483 3484 658 0
49 3483 -658 0
49 -658 -3484 0
49 -3484 3485 659 0
49 3484 -659 0
49 -659 -3485 0
49 -3485 3486 660 0
49 3485 -660 0
49 -660 -3486 0
49 -3486 3478 0
49 -3478 3486 0
49 661 662 663 664 0
49 -3489 3488 0
49 -3490 3489 0
49 -3491 3490 0
49 3488 661 0
49 -661 -3488 0
49 -3488 3489 662 0
49 3488 -662 0
49 -662 -3489 0
49 -3489 3490 663 0
49 3489 -663 0
49 -663 -3490 0
49 -3490 3491 664 0
49 3490 -664 0
49 -664 -3491 0
49 -3491 3487 0
49 -3487 3491 0
49 665 666 667 668 0
49 -3494 3493 0
49 -3495 3494 0
49 -3496 3495 0
49 3493 665 0
49 -665 -3493 0
49 -3493 3494 666 0
49 3493 -666 0
49 -666 -3494 0
49 -3494 3495 667 0
49 3494 -667 0
49 -667 -3495 0
49 -3495 3496 668 0
49 3495 -668 0
49 -668 -3496 0
49 -3496 3492 0
49 -3492 3496 0
49 669 0
49 670 0
49 671 672 673 0
49 -3499 3498 0
49 -3500 3499 0
49 3498 671 0
49 -671 -3498 0
49 -3498 3499 672 0
49 3498 -672 0
49 -672 -3499 0
49 -3499 3500 673 0
49 3499 -673 0
49 -673 -3500 0
49 -3500 3497 0
49 -3497 3500 0
49 674 675 676 0
49 -3503 3502 0
49 -3504 3503 0
49 3502 674 0
49 -674 -3502 0
49 -3502 3503 675 0
49 3502 -675 0
49 -675 -3503 0
49 -3503 3504 676 0
49 3503 -676 0
49 -676 -3504 0
49 -3504 3501 0
49 -3501 3504 0
49 677 0
49 678 0
49 679 0
49 680 0
49 681 682 683 684 0
49 -3507 3506 0
49 -3508 3507 0
49 -3509 3508 0
49 3506 681 0
49 -681 -3506 0
49 -3506 3507 682 0
49 3506 -682 0
49 -682 -3507 0
49 -3507 3508 683 0
49 3507 -683 0
49 -683 -3508 0
49 -3508 3509 684 0
49 3508 -684 0
49 -684 -3509 0
49 -3509 3505 0
49 -3505 3509 0
49 685 686 687 688 0
49 -3512 3511 0
49 -3513 3512 0
49 -3514 3513 0
49 3511 685 0
49 -685 -3511 0
49 -3511 3512 686 0
49 3511 -686 0
49 -686 -3512 0
49 -3512 3513 687 0
49 3512 -687 0
49 -687 -3513 0
49 -3513 3514 688 0
49 3513 -688 0
49 -688 -3514 0
49 -3514 3510 0
49 -3510 3514 0
49 689 690 691 692 693 694 695 696 0
49 -3517 3516 0
49 -3518 3517 0
49 -3519 3518 0
49 -3520 3519 0
49 -3521 3520 0
49 -3522 3521 0
49 -3523 3522 0
49 3516 689 0
49 -689 -3516 0
49 -3516 3517 690 0
49 3516 -690 0
49 -690 -3517 0
49 -3517 3518 691 0
49 3517 -691 0
49 -691 -3518 0
49 -3518 3519 692 0
49 3518 -692 0
49 -692 -3519 0
49 -3519 3520 693 0
49 3519 -693 0
49 -693 -3520 0
49 -3520 3521 694 0
49 3520 -694 0
49 -694 -3521 0
49 -3521 3522 695 0
49 3521 -695 0
49 -695 -3522 0
49 -3522 3523 696 0
49 3522 -696 0
49 -696 -3523 0
49 -3523 3515 0
49 -3515 3523 0
49 697 698 699 700 701 702 703 704 0
49 -3526 3525 0
49 -3527 3526 0
49 -3528 3527 0
49 -3529 3528 0
49 -3530 3529 0
49 -3531 3530 0
49 -3532 3531 0
49 3525 697 0
49 -697 -3525 0
49 -3525 3526 698 0
49 3525 -698 0
49 -698 -3526 0
49 -3526 3527 699 0
49 3526 -699 0
49 -699 -3527 0
49 -3527 3528 700 0
49 3527 -700 0
49 -700 -3528 0
49 -3528 3529 701 0
49 3528 -701 0
49 -701 -3529 0
49 -3529 3530 702 0
49 3529 -702 0
49 -702 -3530 0
49 -3530 3531 703 0
49 3530 -703 0
49 -703 -3531 0
49 -3531 3532 704 0
49 3531 -704 0
49 -704 -3532 0
49 -3532 3524 0
49 -3524 3532 0
49 705 0
49 706 0
49 707 0
49 708 0
49 709 0
49 710 0
49 711 0
49 712 0
49 713 0
49 714 0
49 715 0
49 716 0
49 717 0
49 718 0
49 719 0
49 720 0
49 721 0
49 722 0
49 723 724 725 726 0
49 -3535 3534 0
49 -3536 3535 0
49 -3537 3536 0
49 3534 723 0
49 -723 -3534 0
49 -3534 3535 724 0
49 3534 -724 0
49 -724 -3535 0
49 -3535 3536 725 0
49 3535 -725 0
49 -725 -3536 0
49 -3536 3537 726 0
49 3536 -726 0
49 -726 -3537 0
49 -3537 3533 0
49 -3533 3537 0
49 727 728 729 730 0
49 -3540 3539 0
49 -3541 3540 0
49 -3542 3541 0
49 3539 727 0
49 -727 -3539 0
49 -3539 3540 728 0
49 3539 -728 0
49 -728 -3540 0
49 -3540 3541 729 0
49 3540 -729 0
49 -729 -3541 0
49 -3541 3542 730 0
49 3541 -730 0
49 -730 -3542 0
49 -3542 3538 0
49 -3538 3542 0
49 731 732 733 734 735 736 0
49 -3545 3544 0
49 -3546 3545 0
49 -3547 3546 0
49 -3548 3547 0
49 -3549 3548 0
49 3544 731 0
49 -731 -3544 0
49 -3544 3545 732 0
49 3544 -732 0
49 -732 -3545 0
49 -3545 3546 733 0
49 3545 -733 0
49 -733 -3546 0
49 -3546 3547 734 0
49 3546 -734 0
49 -734 -3547 0
49 -3547 3548 735 0
49 3547 -735 0
49 -735 -3548 0
49 -3548 3549 736 0
49 3548 -736 0
49 -736 -3549 0
49 -3549 3543 0
49 -3543 3549 0
49 737 738 739 740 741 742 0
49 -3552 3551 0
49 -3553 3552 0
49 -3554 3553 0
49 -3555 3554 0
49 -3556 3555 0
49 3551 737 0
49 -737 -3551 0
49 -3551 3552 738 0
49 3551 -738 0
49 -738 -3552 0
49 -3552 3553 739 0
49 3552 -739 0
49 -739 -3553 0
49 -3553 3554 740 0
49 3553 -740 0
49 -740 -3554 0
49 -3554 3555 741 0
49 3554 -741 0
49 -741 -3555 0
49 -3555 3556 742 0
49 3555 -742 0
49 -742 -3556 0
49 -3556 3550 0
49 -3550 3556 0
49 743 744 745 746 747 748 749 750 751 752 0
49 -3559 3558 0
49 -3560 3559 0
49 -3561 3560 0
49 -3562 3561 0
49 -3563 3562 0
49 -3564 3563 0
49 -3565 3564 0
49 -3566 3565 0
49 -3567 3566 0
49 3558 743 0
49 -743 -3558 0
49 -3558 3559 744 0
49 3558 -744 0
49 -744 -3559 0
49 -3559 3560 745 0
49 3559 -745 0
49 -745 -3560 0
49 -3560 3561 746 0
49 3560 -746 0
49 -746 -3561 0
49 -3561 3562 747 0
49 3561 -747 0
49 -747 -3562 0
49 -3562 3563 748 0
49 3562 -748 0
49 -748 -3563 0
49 -3563 3564 749 0
49 3563 -749 0
49 -749 -3564 0
49 -3564 3565 750 0
49 3564 -750 0
49 -750 -3565 0
49 -3565 3566 751 0
49 3565 -751 0
49 -751 -3566 0
49 -3566 3567 752 0
49 3566 -752 0
49 -752 -3567 0
49 -3567 3557 0
49 -3557 3567 0
49 753 754 755 756 757 758 759 760 761 762 0
49 -3570 3569 0
49 -3571 3570 0
49 -3572 3571 0
49 -3573 3572 0
49 -3574 3573 0
49 -3575 3574 0
49 -3576 3575 0
49 -3577 3576 0
49 -3578 3577 0
49 3569 753 0
49 -753 -3569 0
49 -3569 3570 754 0
49 3569 -754 0
49 -754 -3570 0
49 -3570 3571 755 0
49 3570 -755 0
49 -755 -3571 0
49 -3571 3572 756 0
49 3571 -756 0
49 -756 -3572 0
49 -3572 3573 757 0
49 3572 -757 0
49 -757 -3573 0
49 -3573 3574 758 0
49 3573 -758 0
49 -758 -3574 0
49 -3574 3575 759 0
49 3574 -759 0
49 -759 -3575 0
49 -3575 3576 760 0
49 3575 -760 0
49 -760 -3576 0
49 -3576 3577 761 0
49 3576 -761 0
49 -761 -3577 0
49 -3577 3578 762 0
49 3577 -762 0
49 -762 -3578 0
49 -3578 3568 0
49 -3568 3578 0
49 763 764 765 766 0
49 -3581 3580 0
49 -3582 3581 0
49 -3583 3582 0
49 3580 763 0
49 -763 -3580 0
49 -3580 3581 764 0
49 3580 -764 0
49 -764 -3581 0
49 -3581 3582 765 0
49 3581 -765 0
49 -765 -3582 0
49 -3582 3583 766 0
49 3582 -766 0
49 -766 -3583 0
49 -3583 3579 0
49 -3579 3583 0
49 767 768 769 770 0
49 -3586 3585 0
49 -3587 3586 0
49 -3588 3587 0
49 3585 767 0
49 -767 -3585 0
49 -3585 3586 768 0
49 3585 -768 0
49 -768 -3586 0
49 -3586 3587 769 0
49 3586 -769 0
49 -769 -3587 0
49 -3587 3588 770 0
49 3587 -770 0
49 -770 -3588 0
49 -3588 3584 0
49 -3584 3588 0
49 771 772 773 774 775 776 777 778 0
49 -3591 3590 0
49 -3592 3591 0
49 -3593 3592 0
49 -3594 3593 0
49 -3595 3594 0
49 -3596 3595 0
49 -3597 3596 0
49 3590 771 0
49 -771 -3590 0
49 -3590 3591 772 0
49 3590 -772 0
49 -772 -3591 0
49 -3591 3592 773 0
49 3591 -773 0
49 -773 -3592 0
49 -3592 3593 774 0
49 3592 -774 0
49 -774 -3593 0
49 -3593 3594 775 0
49 3593 -775 0
49 -775 -3594 0
49 -3594 3595 776 0
49 3594 -776 0
49 -776 -3595 0
49 -3595 3596 777 0
49 3595 -777 0
49 -777 -3596 0
49 -3596 3597 778 0
49 3596 -778 0
49 -778 -3597 0
49 -3597 3589 0
49 -3589 3597 0
49 779 780 781 782 783 784 785 786 0
49 -3600 3599 0
49 -3601 3600 0
49 -3602 3601 0
49 -3603 3602 0
49 -3604 3603 0
49 -3605 3604 0
49 -3606 3605 0
49 3599 779 0
49 -779 -3599 0
49 -3599 3600 780 0
49 3599 -780 0
49 -780 -3600 0
49 -3600 3601 781 0
49 3600 -781 0
49 -781 -3601 0
49 -3601 3602 782 0
49 3601 -782 0
49 -782 -3602 0
49 -3602 3603 783 0
49 3602 -783 0
49 -783 -3603 0
49 -3603 3604 784 0
49 3603 -784 0
49 -784 -3604 0
49 -3604 3605 785 0
49 3604 -785 0
49 -785 -3605 0
49 -3605 3606 786 0
49 3605 -786 0
49 -786 -3606 0
49 -3606 3598 0
49 -3598 3606 0
49 787 0
49 788 0
49 789 0
49 790 0
49 791 792 793 794 795 796 797 798 0
49 -3609 3608 0
49 -3610 3609 0
49 -3611 3610 0
49 -3612 3611 0
49 -3613 3612 0
49 -3614 3613 0
49 -3615 3614 0
49 3608 791 0
49 -791 -3608 0
49 -3608 3609 792 0
49 3608 -792 0
49 -792 -3609 0
49 -3609 3610 793 0
49 3609 -793 0
49 -793 -3610 0
49 -3610 3611 794 0
49 3610 -794 0
49 -794 -3611 0
49 -3611 3612 795 0
49 3611 -795 0
49 -795 -3612 0
49 -3612 3613 796 0
49 3612 -796 0
49 -796 -3613 0
49 -3613 3614 797 0
49 3613 -797 0
49 -797 -3614 0
49 -3614 3615 798 0
49 3614 -798 0
49 -798 -3615 0
49 -3615 3607 0
49 -3607 3615 0
49 799 800 801 802 803 804 805 806 0
49 -3618 3617 0
49 -3619 3618 0
49 -3620 3619 0
49 -3621 3620 0
49 -3622 3621 0
49 -3623 3622 0
49 -3624 3623 0
49 3617 799 0
49 -799 -3617 0
49 -3617 3618 800 0
49 3617 -800 0
49 -800 -3618 0
49 -3618 3619 801 0
49 3618 -801 0
49 -801 -3619 0
49 -3619 3620 802 0
49 3619 -802 0
49 -802 -3620 0
49 -3620 3621 803 0
49 3620 -803 0
49 -803 -3621 0
49 -3621 3622 804 0
49 3621 -804 0
49 -804 -3622 0
49 -3622 3623 805 0
49 3622 -805 0
49 -805 -3623 0
49 -3623 3624 806 0
49 3623 -806 0
49 -806 -3624 0
49 -3624 3616 0
49 -3616 3624 0
49 807 0
49 808 0
49 809 0
49 810 0
49 811 0
49 812 0
49 813 0
49 814 0
49 815 0
49 816 0
49 817 818 819 0
49 -3627 3626 0
49 -3628 3627 0
49 3626 817 0
49 -817 -3626 0
49 -3626 3627 818 0
49 3626 -818 0
49 -818 -3627 0
49 -3627 3628 819 0
49 3627 -819 0
49 -819 -3628 0
49 -3628 3625 0
49 -3625 3628 0
49 820 821 822 0
49 -3631 3630 0
49 -3632 3631 0
49 3630 820 0
49 -820 -3630 0
49 -3630 3631 821 0
49 3630 -821 0
49 -821 -3631 0
49 -3631 3632 822 0
49 3631 -822 0
49 -822 -3632 0
49 -3632 3629 0
49 -3629 3632 0
49 823 0
49 824 0
49 825 0
49 826 0
49 827 0
49 828 0
49 829 830 831 832 833 834 835 836 837 838 839 840 841 842 843 0
49 -3635 3634 0
49 -3636 3635 0
49 -3637 3636 0
49 -3638 3637 0
49 -3639 3638 0
49 -3640 3639 0
49 -3641 3640 0
49 -3642 3641 0
49 -3643 3642 0
49 -3644 3643 0
49 -3645 3644 0
49 -3646 3645 0
49 -3647 3646 0
49 -3648 3647 0
49 3634 829 0
49 -829 -3634 0
49 -3634 3635 830 0
49 3634 -830 0
49 -830 -3635 0
49 -3635 3636 831 0
49 3635 -831 0
49 -831 -3636 0
49 -3636 3637 832 0
49 3636 -832 0
49 -832 -3637 0
49 -3637 3638 833 0
49 3637 -833 0
49 -833 -3638 0
49 -3638 3639 834 0
49 3638 -834 0
49 -834 -3639 0
49 -3639 3640 835 0
49 3639 -835 0
49 -835 -3640 0
49 -3640 3641 836 0
49 3640 -836 0
49 -836 -3641 0
49 -3641 3642 837 0
49 3641 -837 0
49 -837 -3642 0
49 -3642 3643 838 0
49 3642 -838 0
49 -838 -3643 0
49 -3643 3644 839 0
49 3643 -839 0
49 -839 -3644 0
49 -3644 3645 840 0
49 3644 -840 0
49 -840 -3645 0
49 -3645 3646 841 0
49 3645 -841 0
49 -841 -3646 0
49 -3646 3647 842 0
49 3646 -842 0
49 -842 -3647 0
49 -3647 3648 843 0
49 3647 -843 0
49 -843 -3648 0
49 -3648 3633 0
49 -3633 3648 0
49 844 845 846 847 848 849 850 851 852 853 854 855 856 857 858 0
49 -3651 3650 0
49 -3652 3651 0
49 -3653 3652 0
49 -3654 3653 0
49 -3655 3654 0
49 -3656 3655 0
49 -3657 3656 0
49 -3658 3657 0
49 -3659 3658 0
49 -3660 3659 0
49 -3661 3660 0
49 -3662 3661 0
49 -3663 3662 0
49 -3664 3663 0
49 3650 844 0
49 -844 -3650 0
49 -3650 3651 845 0
49 3650 -845 0
49 -845 -3651 0
49 -3651 3652 846 0
49 3651 -846 0
49 -846 -3652 0
49 -3652 3653 847 0
49 3652 -847 0
49 -847 -3653 0
49 -3653 3654 848 0
49 3653 -848 0
49 -848 -3654 0
49 -3654 3655 849 0
49 3654 -849 0
49 -849 -3655 0
49 -3655 3656 850 0
49 3655 -850 0
49 -850 -3656 0
49 -3656 3657 851 0
49 3656 -851 0
49 -851 -3657 0
49 -3657 3658 852 0
49 3657 -852 0
49 -852 -3658 0
49 -3658 3659 853 0
49 3658 -853 0
49 -853 -3659 0
49 -3659 3660 854 0
49 3659 -854 0
49 -854 -3660 0
49 -3660 3661 855 0
49 3660 -855 0
49 -855 -3661 0
49 -3661 3662 856 0
49 3661 -856 0
49 -856 -3662 0
49 -3662 3663 857 0
49 3662 -857 0
49 -857 -3663 0
49 -3663 3664 858 0
49 3663 -858 0
49 -858 -3664 0
49 -3664 3649 0
49 -3649 3664 0
49 859 860 861 862 863 0
49 -3667 3666 0
49 -3668 3667 0
49 -3669 3668 0
49 -3670 3669 0
49 3666 859 0
49 -859 -3666 0
49 -3666 3667 860 0
49 3666 -860 0
49 -860 -3667 0
49 -3667 3668 861 0
49 3667 -861 0
49 -861 -3668 0
49 -3668 3669 862 0
49 3668 -862 0
49 -862 -3669 0
49 -3669 3670 863 0
49 3669 -863 0
49 -863 -3670 0
49 -3670 3665 0
49 -3665 3670 0
49 864 865 866 867 868 0
49 -3673 3672 0
49 -3674 3673 0
49 -3675 3674 0
49 -3676 3675 0
49 3672 864 0
49 -864 -3672 0
49 -3672 3673 865 0
49 3672 -865 0
49 -865 -3673 0
49 -3673 3674 866 0
49 3673 -866 0
49 -866 -3674 0
49 -3674 3675 867 0
49 3674 -867 0
49 -867 -3675 0
49 -3675 3676 868 0
49 3675 -868 0
49 -868 -3676 0
49 -3676 3671 0
49 -3671 3676 0
49 869 0
49 870 0
49 871 0
49 872 0
49 873 0
49 874 0
49 875 876 877 878 879 880 881 882 883 884 885 886 887 888 889 890 891 892 893 894 895 896 897 898 899 900 901 902 0
49 -3679 3678 0
49 -3680 3679 0
49 -3681 3680 0
49 -3682 3681 0
49 -3683 3682 0
49 -3684 3683 0
49 -3685 3684 0
49 -3686 3685 0
49 -3687 3686 0
49 -3688 3687 0
49 -3689 3688 0
49 -3690 3689 0
49 -3691 3690 0
49 -3692 3691 0
49 -3693 3692 0
49 -3694 3693 0
49 -3695 3694 0
49 -3696 3695 0
49 -3697 3696 0
49 -3698 3697 0
49 -3699 3698 0
49 -3700 3699 0
49 -3701 3700 0
49 -3702 3701 0
49 -3703 3702 0
49 -3704 3703 0
49 -3705 3704 0
49 3678 875 0
49 -875 -3678 0
49 -3678 3679 876 0
49 3678 -876 0
49 -876 -3679 0
49 -3679 3680 877 0
49 3679 -877 0
49 -877 -3680 0
49 -3680 3681 878 0
49 3680 -878 0
49 -878 -3681 0
49 -3681 3682 879 0
49 3681 -879 0
49 -879 -3682 0
49 -3682 3683 880 0
49 3682 -880 0
49 -880 -3683 0
49 -3683 3684 881 0
49 3683 -881 0
49 -881 -3684 0
49 -3684 3685 882 0
49 3684 -882 0
49 -882 -3685 0
49 -3685 3686 883 0
49 3685 -883 0
49 -883 -3686 0
49 -3686 3687 884 0
49 3686 -884 0
49 -884 -3687 0
49 -3687 3688 885 0
49 3687 -885 0
49 -885 -3688 0
49 -3688 3689 886 0
49 3688 -886 0
49 -886 -3689 0
49 -3689 3690 887 0
49 3689 -887 0
49 -887 -3690 0
49 -3690 3691 888 0
49 3690 -888 0
49 -888 -3691 0
49 -3691 3692 889 0
49 3691 -889 0
49 -889 -3692 0
49 -3692 3693 890 0
49 3692 -890 0
49 -890 -3693 0
49 -3693 3694 891 0
49 3693 -891 0
49 -891 -3694 0
49 -3694 3695 892 0
49 3694 -892 0
49 -892 -3695 0
49 -3695 3696 893 0
49 3695 -893 0
49 -893 -3696 0
49 -3696 3697 894 0
49 3696 -894 0
49 -894 -3697 0
49 -3697 3698 895 0
49 3697 -895 0
49 -895 -3698 0
49 -3698 3699 896 0
49 3698 -896 0
49 -896 -3699 0
49 -3699 3700 897 0
49 3699 -897 0
49 -897 -3700 0
49 -3700 3701 898 0
49 3700 -898 0
49 -898 -3701 0
49 -3701 3702 899 0
49 3701 -899 0
49 -899 -3702 0
49 -3702 3703 900 0
49 3702 -900 0
49 -900 -3703 0
49 -3703 3704 901 0
49 3703 -901 0
49 -901 -3704 0
49 -3704 3705 902 0
49 3704 -902 0
49 -902 -3705 0
49 -3705 3677 0
49 -3677 3705 0
49 903 904 905 906 907 908 909 910 911 912 913 914 915 916 917 918 919 920 921 922 923 924 925 926 927 928 929 930 0
49 -3708 3707 0
49 -3709 3708 0
49 -3710 3709 0
49 -3711 3710 0
49 -3712 3711 0
49 -3713 3712 0
49 -3714 3713 0
49 -3715 3714 0
49 -3716 3715 0
49 -3717 3716 0
49 -3718 3717 0
49 -3719 3718 0
49 -3720 3719 0
49 -3721 3720 0
49 -3722 3721 0
49 -3723 3722 0
49 -3724 3723 0
49 -3725 3724 0
49 -3726 3725 0
49 -3727 3726 0
49 -3728 3727 0
49 -3729 3728 0
49 -3730 3729 0
49 -3731 3730 0
49 -3732 3731 0
49 -3733 3732 0
49 -3734 3733 0
49 3707 903 0
49 -903 -3707 0
49 -3707 3708 904 0
49 3707 -904 0
49 -904 -3708 0
49 -3708 3709 905 0
49 3708 -905 0
49 -905 -3709 0
49 -3709 3710 906 0
49 3709 -906 0
49 -906 -3710 0
49 -3710 3711 907 0
49 3710 -907 0
49 -907 -3711 0
49 -3711 3712 908 0
49 3711 -908 0
49 -908 -3712 0
49 -3712 3713 909 0
49 3712 -909 0
49 -909 -3713 0
49 -3713 3714 910 0
49 3713 -910 0
49 -910 -3714 0
49 -3714 3715 911 0
49 3714 -911 0
49 -911 -3715 0
49 -3715 3716 912 0
49 3715 -912 0
49 -912 -3716 0
49 -3716 3717 913 0
49 3716 -913 0
49 -913 -3717 0
49 -3717 3718 914 0
49 3717 -914 0
49 -914 -3718 0
49 -3718 3719 915 0
49 3718 -915 0
49 -915 -3719 0
49 -3719 3720 916 0
49 3719 -916 0
49 -916 -3720 0
49 -3720 3721 917 0
49 3720 -917 0
49 -917 -3721 0
49 -3721 3722 918 0
49 3721 -918 0
49 -918 -3722 0
49 -3722 3723 919 0
49 3722 -919 0
49 -919 -3723 0
49 -3723 3724 920 0
49 3723 -920 0
49 -920 -3724 0
49 -3724 3725 921 0
49 3724 -921 0
49 -921 -3725 0
49 -3725 3726 922 0
49 3725 -922 0
49 -922 -3726 0
49 -3726 3727 923 0
49 3726 -923 0
49 -923 -3727 0
49 -3727 3728 924 0
49 3727 -924 0
49 -924 -3728 0
49 -3728 3729 925 0
49 3728 -925 0
49 -925 -3729 0
49 -3729 3730 926 0
49 3729 -926 0
49 -926 -3730 0
49 -3730 3731 927 0
49 3730 -927 0
49 -927 -3731 0
49 -3731 3732 928 0
49 3731 -928 0
49 -928 -3732 0
49 -3732 3733 929 0
49 3732 -929 0
49 -929 -3733 0
49 -3733 3734 930 0
49 3733 -930 0
49 -930 -3734 0
49 -3734 3706 0
49 -3706 3734 0
49 931 932 933 934 935 936 0
49 -3737 3736 0
49 -3738 3737 0
49 -3739 3738 0
49 -3740 3739 0
49 -3741 3740 0
49 3736 931 0
49 -931 -3736 0
49 -3736 3737 932 0
49 3736 -932 0
49 -932 -3737 0
49 -3737 3738 933 0
49 3737 -933 0
49 -933 -3738 0
49 -3738 3739 934 0
49 3738 -934 0
49 -934 -3739 0
49 -3739 3740 935 0
49 3739 -935 0
49 -935 -3740 0
49 -3740 3741 936 0
49 3740 -936 0
49 -936 -3741 0
49 -3741 3735 0
49 -3735 3741 0
49 937 938 939 940 941 942 0
49 -3744 3743 0
49 -3745 3744 0
49 -3746 3745 0
49 -3747 3746 0
49 -3748 3747 0
49 3743 937 0
49 -937 -3743 0
49 -3743 3744 938 0
49 3743 -938 0
49 -938 -3744 0
49 -3744 3745 939 0
49 3744 -939 0
49 -939 -3745 0
49 -3745 3746 940 0
49 3745 -940 0
49 -940 -3746 0
49 -3746 3747 941 0
49 3746 -941 0
49 -941 -3747 0
49 -3747 3748 942 0
49 3747 -942 0
49 -942 -3748 0
49 -3748 3742 0
49 -3742 3748 0
49 943 0
49 944 0
49 945 0
49 946 0
49 947 948 949 950 951 952 953 954 0
49 -3751 3750 0
49 -3752 3751 0
49 -3753 3752 0
49 -3754 3753 0
49 -3755 3754 0
49 -3756 3755 0
49 -3757 3756 0
49 3750 947 0
49 -947 -3750 0
49 -3750 3751 948 0
49 3750 -948 0
49 -948 -3751 0
49 -3751 3752 949 0
49 3751 -949 0
49 -949 -3752 0
49 -3752 3753 950 0
49 3752 -950 0
49 -950 -3753 0
49 -3753 3754 951 0
49 3753 -951 0
49 -951 -3754 0
49 -3754 3755 952 0
49 3754 -952 0
49 -952 -3755 0
49 -3755 3756 953 0
49 3755 -953 0
49 -953 -3756 0
49 -3756 3757 954 0
49 3756 -954 0
49 -954 -3757 0
49 -3757 3749 0
49 -3749 3757 0
49 955 956 957 958 959 960 961 962 0
49 -3760 3759 0
49 -3761 3760 0
49 -3762 3761 0
49 -3763 3762 0
49 -3764 3763 0
49 -3765 3764 0
49 -3766 3765 0
49 3759 955 0
49 -955 -3759 0
49 -3759 3760 956 0
49 3759 -956 0
49 -956 -3760 0
49 -3760 3761 957 0
49 3760 -957 0
49 -957 -3761 0
49 -3761 3762 958 0
49 3761 -958 0
49 -958 -3762 0
49 -3762 3763 959 0
49 3762 -959 0
49 -959 -3763 0
49 -3763 3764 960 0
49 3763 -960 0
49 -960 -3764 0
49 -3764 3765 961 0
49 3764 -961 0
49 -961 -3765 0
49 -3765 3766 962 0
49 3765 -962 0
49 -962 -3766 0
49 -3766 3758 0
49 -3758 3766 0
49 963 964 965 966 967 968 969 970 0
49 -3769 3768 0
49 -3770 3769 0
49 -3771 3770 0
49 -3772 3771 0
49 -3773 3772 0
49 -3774 3773 0
49 -3775 3774 0
49 3768 963 0
49 -963 -3768 0
49 -3768 3769 964 0
49 3768 -964 0
49 -964 -3769 0
49 -3769 3770 965 0
49 3769 -965 0
49 -965 -3770 0
49 -3770 3771 966 0
49 3770 -966 0
49 -966 -3771 0
49 -3771 3772 967 0
49 3771 -967 0
49 -967 -3772 0
49 -3772 3773 968 0
49 3772 -968 0
49 -968 -3773 0
49 -3773 3774 969 0
49 3773 -969 0
49 -969 -3774 0
49 -3774 3775 970 0
49 3774 -970 0
49 -970 -3775 0
49 -3775 3767 0
49 -3767 3775 0
49 971 972 973 974 975 976 977 978 0
49 -3778 3777 0
49 -3779 3778 0
49 -3780 3779 0
49 -3781 3780 0
49 -3782 3781 0
49 -3783 3782 0
49 -3784 3783 0
49 3777 971 0
49 -971 -3777 0
49 -3777 3778 972 0
49 3777 -972 0
49 -972 -3778 0
49 -3778 3779 973 0
49 3778 -973 0
49 -973 -3779 0
49 -3779 3780 974 0
49 3779 -974 0
49 -974 -3780 0
49 -3780 3781 975 0
49 3780 -975 0
49 -975 -3781 0
49 -3781 3782 976 0
49 3781 -976 0
49 -976 -3782 0
49 -3782 3783 977 0
49 3782 -977 0
49 -977 -3783 0
49 -3783 3784 978 0
49 3783 -978 0
49 -978 -3784 0
49 -3784 3776 0
49 -3776 3784 0
49 979 980 981 982 983 984 985 986 0
49 -3787 3786 0
49 -3788 3787 0
49 -3789 3788 0
49 -3790 3789 0
49 -3791 3790 0
49 -3792 3791 0
49 -3793 3792 0
49 3786 979 0
49 -979 -3786 0
49 -3786 3787 980 0
49 3786 -980 0
49 -980 -3787 0
49 -3787 3788 981 0
49 3787 -981 0
49 -981 -3788 0
49 -3788 3789 982 0
49 3788 -982 0
49 -982 -3789 0
49 -3789 3790 983 0
49 3789 -983 0
49 -983 -3790 0
49 -3790 3791 984 0
49 3790 -984 0
49 -984 -3791 0
49 -3791 3792 985 0
49 3791 -985 0
49 -985 -3792 0
49 -3792 3793 986 0
49 3792 -986 0
49 -986 -3793 0
49 -3793 3785 0
49 -3785 3793 0
49 987 988 989 990 991 992 993 994 0
49 -3796 3795 0
49 -3797 3796 0
49 -3798 3797 0
49 -3799 3798 0
49 -3800 3799 0
49 -3801 3800 0
49 -3802 3801 0
49 3795 987 0
49 -987 -3795 0
49 -3795 3796 988 0
49 3795 -988 0
49 -988 -3796 0
49 -3796 3797 989 0
49 3796 -989 0
49 -989 -3797 0
49 -3797 3798 990 0
49 3797 -990 0
49 -990 -3798 0
49 -3798 3799 991 0
49 3798 -991 0
49 -991 -3799 0
49 -3799 3800 992 0
49 3799 -992 0
49 -992 -3800 0
49 -3800 3801 993 0
49 3800 -993 0
49 -993 -3801 0
49 -3801 3802 994 0
49 3801 -994 0
49 -994 -3802 0
49 -3802 3794 0
49 -3794 3802 0
49 995 996 997 998 999 1000 1001 1002 0
49 -3805 3804 0
49 -3806 3805 0
49 -3807 3806 0
49 -3808 3807 0
49 -3809 3808 0
49 -3810 3809 0
49 -3811 3810 0
49 3804 995 0
49 -995 -3804 0
49 -3804 3805 996 0
49 3804 -996 0
49 -996 -3805 0
49 -3805 3806 997 0
49 3805 -997 0
49 -997 -3806 0
49 -3806 3807 998 0
49 3806 -998 0
49 -998 -3807 0
49 -3807 3808 999 0
49 3807 -999 0
49 -999 -3808 0
49 -3808 3809 1000 0
49 3808 -1000 0
49 -1000 -3809 0
49 -3809 3810 1001 0
49 3809 -1001 0
49 -1001 -3810 0
49 -3810 3811 1002 0
49 3810 -1002 0
49 -1002 -3811 0
49 -3811 3803 0
49 -3803 3811 0
49 1003 1004 1005 1006 1007 1008 1009 1010 0
49 -3814 3813 0
49 -3815 3814 0
49 -3816 3815 0
49 -3817 3816 0
49 -3818 3817 0
49 -3819 3818 0
49 -3820 3819 0
49 3813 1003 0
49 -1003 -3813 0
49 -3813 3814 1004 0
49 3813 -1004 0
49 -1004 -3814 0
49 -3814 3815 1005 0
49 3814 -1005 0
49 -1005 -3815 0
49 -3815 3816 1006 0
49 3815 -1006 0
49 -1006 -3816 0
49 -3816 3817 1007 0
49 3816 -1007 0
49 -1007 -3817 0
49 -3817 3818 1008 0
49 3817 -1008 0
49 -1008 -3818 0
49 -3818 3819 1009 0
49 3818 -1009 0
49 -1009 -3819 0
49 -3819 3820 1010 0
49 3819 -1010 0
49 -1010 -3820 0
49 -3820 3812 0
49 -3812 3820 0
49 1011 0
49 1012 0
49 1013 0
49 1014 0
49 1015 0
49 1016 0
49 1017 0
49 1018 0
49 1019 0
49 1020 0
49 1021 1022 1023 1024 1025 1026 1027 1028 0
49 -3823 3822 0
49 -3824 3823 0
49 -3825 3824 0
49 -3826 3825 0
49 -3827 3826 0
49 -3828 3827 0
49 -3829 3828 0
49 3822 1021 0
49 -1021 -3822 0
49 -3822 3823 1022 0
49 3822 -1022 0
49 -1022 -3823 0
49 -3823 3824 1023 0
49 3823 -1023 0
49 -1023 -3824 0
49 -3824 3825 1024 0
49 3824 -1024 0
49 -1024 -3825 0
49 -3825 3826 1025 0
49 3825 -1025 0
49 -1025 -3826 0
49 -3826 3827 1026 0
49 3826 -1026 0
49 -1026 -3827 0
49 -3827 3828 1027 0
49 3827 -1027 0
49 -1027 -3828 0
49 -3828 3829 1028 0
49 3828 -1028 0
49 -1028 -3829 0
49 -3829 3821 0
49 -3821 3829 0
49 1029 1030 1031 1032 1033 1034 1035 1036 0
49 -3832 3831 0
49 -3833 3832 0
49 -3834 3833 0
49 -3835 3834 0
49 -3836 3835 0
49 -3837 3836 0
49 -3838 3837 0
49 3831 1029 0
49 -1029 -3831 0
49 -3831 3832 1030 0
49 3831 -1030 0
49 -1030 -3832 0
49 -3832 3833 1031 0
49 3832 -1031 0
49 -1031 -3833 0
49 -3833 3834 1032 0
49 3833 -1032 0
49 -1032 -3834 0
49 -3834 3835 1033 0
49 3834 -1033 0
49 -1033 -3835 0
49 -3835 3836 1034 0
49 3835 -1034 0
49 -1034 -3836 0
49 -3836 3837 1035 0
49 3836 -1035 0
49 -1035 -3837 0
49 -3837 3838 1036 0
49 3837 -1036 0
49 -1036 -3838 0
49 -3838 3830 0
49 -3830 3838 0
49 1037 0
49 1038 0
49 1039 1040 1041 1042 1043 1044 1045 1046 0
49 -3841 3840 0
49 -3842 3841 0
49 -3843 3842 0
49 -3844 3843 0
49 -3845 3844 0
49 -3846 3845 0
49 -3847 3846 0
49 3840 1039 0
49 -1039 -3840 0
49 -3840 3841 1040 0
49 3840 -1040 0
49 -1040 -3841 0
49 -3841 3842 1041 0
49 3841 -1041 0
49 -1041 -3842 0
49 -3842 3843 1042 0
49 3842 -1042 0
49 -1042 -3843 0
49 -3843 3844 1043 0
49 3843 -1043 0
49 -1043 -3844 0
49 -3844 3845 1044 0
49 3844 -1044 0
49 -1044 -3845 0
49 -3845 3846 1045 0
49 3845 -1045 0
49 -1045 -3846 0
49 -3846 3847 1046 0
49 3846 -1046 0
49 -1046 -3847 0
49 -3847 3839 0
49 -3839 3847 0
49 1047 1048 1049 1050 1051 1052 1053 1054 0
49 -3850 3849 0
49 -3851 3850 0
49 -3852 3851 0
49 -3853 3852 0
49 -3854 3853 0
49 -3855 3854 0
49 -3856 3855 0
49 3849 1047 0
49 -1047 -3849 0
49 -3849 3850 1048 0
49 3849 -1048 0
49 -1048 -3850 0
49 -3850 3851 1049 0
49 3850 -1049 0
49 -1049 -3851 0
49 -3851 3852 1050 0
49 3851 -1050 0
49 -1050 -3852 0
49 -3852 3853 1051 0
49 3852 -1051 0
49 -1051 -3853 0
49 -3853 3854 1052 0
49 3853 -1052 0
49 -1052 -3854 0
49 -3854 3855 1053 0
49 3854 -1053 0
49 -1053 -3855 0
49 -3855 3856 1054 0
49 3855 -1054 0
49 -1054 -3856 0
49 -3856 3848 0
49 -3848 3856 0
49 1055 0
49 1056 0
49 1057 0
49 1058 0
49 1059 0
49 1060 0
49 1061 0
49 1062 0
49 1063 1064 1065 1066 1067 1068 1069 1070 0
49 -3859 3858 0
49 -3860 3859 0
49 -3861 3860 0
49 -3862 3861 0
49 -3863 3862 0
49 -3864 3863 0
49 -3865 3864 0
49 3858 1063 0
49 -1063 -3858 0
49 -3858 3859 1064 0
49 3858 -1064 0
49 -1064 -3859 0
49 -3859 3860 1065 0
49 3859 -1065 0
49 -1065 -3860 0
49 -3860 3861 1066 0
49 3860 -1066 0
49 -1066 -3861 0
49 -3861 3862 1067 0
49 3861 -1067 0
49 -1067 -3862 0
49 -3862 3863 1068 0
49 3862 -1068 0
49 -1068 -3863 0
49 -3863 3864 1069 0
49 3863 -1069 0
49 -1069 -3864 0
49 -3864 3865 1070 0
49 3864 -1070 0
49 -1070 -3865 0
49 -3865 3857 0
49 -3857 3865 0
49 1071 1072 1073 1074 1075 1076 1077 1078 0
49 -3868 3867 0
49 -3869 3868 0
49 -3870 3869 0
49 -3871 3870 0
49 -3872 3871 0
49 -3873 3872 0
49 -3874 3873 0
49 3867 1071 0
49 -1071 -3867 0
49 -3867 3868 1072 0
49 3867 -1072 0
49 -1072 -3868 0
49 -3868 3869 1073 0
49 3868 -1073 0
49 -1073 -3869 0
49 -3869 3870 1074 0
49 3869 -1074 0
49 -1074 -3870 0
49 -3870 3871 1075 0
49 3870 -1075 0
49 -1075 -3871 0
49 -3871 3872 1076 0
49 3871 -1076 0
49 -1076 -3872 0
49 -3872 3873 1077 0
49 3872 -1077 0
49 -1077 -3873 0
49 -3873 3874 1078 0
49 3873 -1078 0
49 -1078 -3874 0
49 -3874 3866 0
49 -3866 3874 0
49 1079 1080 1081 1082 1083 1084 1085 1086 0
49 -3877 3876 0
49 -3878 3877 0
49 -3879 3878 0
49 -3880 3879 0
49 -3881 3880 0
49 -3882 3881 0
49 -3883 3882 0
49 3876 1079 0
49 -1079 -3876 0
49 -3876 3877 1080 0
49 3876 -1080 0
49 -1080 -3877 0
49 -3877 3878 1081 0
49 3877 -1081 0
49 -1081 -3878 0
49 -3878 3879 1082 0
49 3878 -1082 0
49 -1082 -3879 0
49 -3879 3880 1083 0
49 3879 -1083 0
49 -1083 -3880 0
49 -3880 3881 1084 0
49 3880 -1084 0
49 -1084 -3881 0
49 -3881 3882 1085 0
49 3881 -1085 0
49 -1085 -3882 0
49 -3882 3883 1086 0
49 3882 -1086 0
49 -1086 -3883 0
49 -3883 3875 0
49 -3875 3883 0
49 1087 1088 1089 1090 1091 1092 1093 1094 0
49 -3886 3885 0
49 -3887 3886 0
49 -3888 3887 0
49 -3889 3888 0
49 -3890 3889 0
49 -3891 3890 0
49 -3892 3891 0
49 3885 1087 0
49 -1087 -3885 0
49 -3885 3886 1088 0
49 3885 -1088 0
49 -1088 -3886 0
49 -3886 3887 1089 0
49 3886 -1089 0
49 -1089 -3887 0
49 -3887 3888 1090 0
49 3887 -1090 0
49 -1090 -3888 0
49 -3888 3889 1091 0
49 3888 -1091 0
49 -1091 -3889 0
49 -3889 3890 1092 0
49 3889 -1092 0
49 -1092 -3890 0
49 -3890 3891 1093 0
49 3890 -1093 0
49 -1093 -3891 0
49 -3891 3892 1094 0
49 3891 -1094 0
49 -1094 -3892 0
49 -3892 3884 0
49 -3884 3892 0
49 1095 0
49 1096 0
49 1097 0
49 1098 0
49 1099 0
49 1100 0
49 1101 0
49 1102 0
49 1103 0
49 1104 0
49 1105 0
49 1106 0
49 1107 1108 1109 0
49 -3895 3894 0
49 -3896 3895 0
49 3894 1107 0
49 -1107 -3894 0
49 -3894 3895 1108 0
49 3894 -1108 0
49 -1108 -3895 0
49 -3895 3896 1109 0
49 3895 -1109 0
49 -1109 -3896 0
49 -3896 3893 0
49 -3893 3896 0
49 1110 1111 1112 0
49 -3899 3898 0
49 -3900 3899 0
49 3898 1110 0
49 -1110 -3898 0
49 -3898 3899 1111 0
49 3898 -1111 0
49 -1111 -3899 0
49 -3899 3900 1112 0
49 3899 -1112 0
49 -1112 -3900 0
49 -3900 3897 0
49 -3897 3900 0
49 1113 0
49 1114 0
49 1115 1116 1117 1118 1119 1120 1121 1122 0
49 -3903 3902 0
49 -3904 3903 0
49 -3905 3904 0
49 -3906 3905 0
49 -3907 3906 0
49 -3908 3907 0
49 -3909 3908 0
49 3902 1115 0
49 -1115 -3902 0
49 -3902 3903 1116 0
49 3902 -1116 0
49 -1116 -3903 0
49 -3903 3904 1117 0
49 3903 -1117 0
49 -1117 -3904 0
49 -3904 3905 1118 0
49 3904 -1118 0
49 -1118 -3905 0
49 -3905 3906 1119 0
49 3905 -1119 0
49 -1119 -3906 0
49 -3906 3907 1120 0
49 3906 -1120 0
49 -1120 -3907 0
49 -3907 3908 1121 0
49 3907 -1121 0
49 -1121 -3908 0
49 -3908 3909 1122 0
49 3908 -1122 0
49 -1122 -3909 0
49 -3909 3901 0
49 -3901 3909 0
49 1123 1124 1125 1126 1127 1128 1129 1130 0
49 -3912 3911 0
49 -3913 3912 0
49 -3914 3913 0
49 -3915 3914 0
49 -3916 3915 0
49 -3917 3916 0
49 -3918 3917 0
49 3911 1123 0
49 -1123 -3911 0
49 -3911 3912 1124 0
49 3911 -1124 0
49 -1124 -3912 0
49 -3912 3913 1125 0
49 3912 -1125 0
49 -1125 -3913 0
49 -3913 3914 1126 0
49 3913 -1126 0
49 -1126 -3914 0
49 -3914 3915 1127 0
49 3914 -1127 0
49 -1127 -3915 0
49 -3915 3916 1128 0
49 3915 -1128 0
49 -1128 -3916 0
49 -3916 3917 1129 0
49 3916 -1129 0
49 -1129 -3917 0
49 -3917 3918 1130 0
49 3917 -1130 0
49 -1130 -3918 0
49 -3918 3910 0
49 -3910 3918 0
49 1131 0
49 1132 0
49 1133 0
49 1134 0
49 1135 1136 1137 1138 1139 1140 1141 1142 0
49 -3921 3920 0
49 -3922 3921 0
49 -3923 3922 0
49 -3924 3923 0
49 -3925 3924 0
49 -3926 3925 0
49 -3927 3926 0
49 3920 1135 0
49 -1135 -3920 0
49 -3920 3921 1136 0
49 3920 -1136 0
49 -1136 -3921 0
49 -3921 3922 1137 0
49 3921 -1137 0
49 -1137 -3922 0
49 -3922 3923 1138 0
49 3922 -1138 0
49 -1138 -3923 0
49 -3923 3924 1139 0
49 3923 -1139 0
49 -1139 -3924 0
49 -3924 3925 1140 0
49 3924 -1140 0
49 -1140 -3925 0
49 -3925 3926 1141 0
49 3925 -1141 0
49 -1141 -3926 0
49 -3926 3927 1142 0
49 3926 -1142 0
49 -1142 -3927 0
49 -3927 3919 0
49 -3919 3927 0
49 1143 1144 1145 1146 1147 1148 1149 1150 0
49 -3930 3929 0
49 -3931 3930 0
49 -3932 3931 0
49 -3933 3932 0
49 -3934 3933 0
49 -3935 3934 0
49 -3936 3935 0
49 3929 1143 0
49 -1143 -3929 0
49 -3929 3930 1144 0
49 3929 -1144 0
49 -1144 -3930 0
49 -3930 3931 1145 0
49 3930 -1145 0
49 -1145 -3931 0
49 -3931 3932 1146 0
49 3931 -1146 0
49 -1146 -3932 0
49 -3932 3933 1147 0
49 3932 -1147 0
49 -1147 -3933 0
49 -3933 3934 1148 0
49 3933 -1148 0
49 -1148 -3934 0
49 -3934 3935 1149 0
49 3934 -1149 0
49 -1149 -3935 0
49 -3935 3936 1150 0
49 3935 -1150 0
49 -1150 -3936 0
49 -3936 3928 0
49 -3928 3936 0
49 1151 1152 1153 1154 0
49 -3939 3938 0
49 -3940 3939 0
49 -3941 3940 0
49 3938 1151 0
49 -1151 -3938 0
49 -3938 3939 1152 0
49 3938 -1152 0
49 -1152 -3939 0
49 -3939 3940 1153 0
49 3939 -1153 0
49 -1153 -3940 0
49 -3940 3941 1154 0
49 3940 -1154 0
49 -1154 -3941 0
49 -3941 3937 0
49 -3937 3941 0
49 1155 1156 1157 1158 0
49 -3944 3943 0
49 -3945 3944 0
49 -3946 3945 0
49 3943 1155 0
49 -1155 -3943 0
49 -3943 3944 1156 0
49 3943 -1156 0
49 -1156 -3944 0
49 -3944 3945 1157 0
49 3944 -1157 0
49 -1157 -3945 0
49 -3945 3946 1158 0
49 3945 -1158 0
49 -1158 -3946 0
49 -3946 3942 0
49 -3942 3946 0
49 1159 1160 1161 1162 1163 1164 1165 1166 1167 1168 1169 1170 1171 1172 0
49 -3949 3948 0
49 -3950 3949 0
49 -3951 3950 0
49 -3952 3951 0
49 -3953 3952 0
49 -3954 3953 0
49 -3955 3954 0
49 -3956 3955 0
49 -3957 3956 0
49 -3958 3957 0
49 -3959 3958 0
49 -3960 3959 0
49 -3961 3960 0
49 3948 1159 0
49 -1159 -3948 0
49 -3948 3949 1160 0
49 3948 -1160 0
49 -1160 -3949 0
49 -3949 3950 1161 0
49 3949 -1161 0
49 -1161 -3950 0
49 -3950 3951 1162 0
49 3950 -1162 0
49 -1162 -3951 0
49 -3951 3952 1163 0
49 3951 -1163 0
49 -1163 -3952 0
49 -3952 3953 1164 0
49 3952 -1164 0
49 -1164 -3953 0
49 -3953 3954 1165 0
49 3953 -1165 0
49 -1165 -3954 0
49 -3954 3955 1166 0
49 3954 -1166 0
49 -1166 -3955 0
49 -3955 3956 1167 0
49 3955 -1167 0
49 -1167 -3956 0
49 -3956 3957 1168 0
49 3956 -1168 0
49 -1168 -3957 0
49 -3957 3958 1169 0
49 3957 -1169 0
49 -1169 -3958 0
49 -3958 3959 1170 0
49 3958 -1170 0
49 -1170 -3959 0
49 -3959 3960 1171 0
49 3959 -1171 0
49 -1171 -3960 0
49 -3960 3961 1172 0
49 3960 -1172 0
49 -1172 -3961 0
49 -3961 3947 0
49 -3947 3961 0
49 1173 1174 1175 1176 1177 1178 1179 1180 1181 1182 1183 1184 1185 1186 0
49 -3964 3963 0
49 -3965 3964 0
49 -3966 3965 0
49 -3967 3966 0
49 -3968 3967 0
49 -3969 3968 0
49 -3970 3969 0
49 -3971 3970 0
49 -3972 3971 0
49 -3973 3972 0
49 -3974 3973 0
49 -3975 3974 0
49 -3976 3975 0
49 3963 1173 0
49 -1173 -3963 0
49 -3963 3964 1174 0
49 3963 -1174 0
49 -1174 -3964 0
49 -3964 3965 1175 0
49 3964 -1175 0
49 -1175 -3965 0
49 -3965 3966 1176 0
49 3965 -1176 0
49 -1176 -3966 0
49 -3966 3967 1177 0
49 3966 -1177 0
49 -1177 -3967 0
49 -3967 3968 1178 0
49 3967 -1178 0
49 -1178 -3968 0
49 -3968 3969 1179 0
49 3968 -1179 0
49 -1179 -3969 0
49 -3969 3970 1180 0
49 3969 -1180 0
49 -1180 -3970 0
49 -3970 3971 1181 0
49 3970 -1181 0
49 -1181 -3971 0
49 -3971 3972 1182 0
49 3971 -1182 0
49 -1182 -3972 0
49 -3972 3973 1183 0
49 3972 -1183 0
49 -1183 -3973 0
49 -3973 3974 1184 0
49 3973 -1184 0
49 -1184 -3974 0
49 -3974 3975 1185 0
49 3974 -1185 0
49 -1185 -3975 0
49 -3975 3976 1186 0
49 3975 -1186 0
49 -1186 -3976 0
49 -3976 3962 0
49 -3962 3976 0
49 1187 1188 1189 0
49 -3979 3978 0
49 -3980 3979 0
49 3978 1187 0
49 -1187 -3978 0
49 -3978 3979 1188 0
49 3978 -1188 0
49 -1188 -3979 0
49 -3979 3980 1189 0
49 3979 -1189 0
49 -1189 -3980 0
49 -3980 3977 0
49 -3977 3980 0
49 1190 1191 1192 0
49 -3983 3982 0
49 -3984 3983 0
49 3982 1190 0
49 -1190 -3982 0
49 -3982 3983 1191 0
49 3982 -1191 0
49 -1191 -3983 0
49 -3983 3984 1192 0
49 3983 -1192 0
49 -1192 -3984 0
49 -3984 3981 0
49 -3981 3984 0
49 1193 0
49 1194 0
49 1195 1196 1197 1198 1199 1200 0
49 -3987 3986 0
49 -3988 3987 0
49 -3989 3988 0
49 -3990 3989 0
49 -3991 3990 0
49 3986 1195 0
49 -1195 -3986 0
49 -3986 3987 1196 0
49 3986 -1196 0
49 -1196 -3987 0
49 -3987 3988 1197 0
49 3987 -1197 0
49 -1197 -3988 0
49 -3988 3989 1198 0
49 3988 -1198 0
49 -1198 -3989 0
49 -3989 3990 1199 0
49 3989 -1199 0
49 -1199 -3990 0
49 -3990 3991 1200 0
49 3990 -1200 0
49 -1200 -3991 0
49 -3991 3985 0
49 -3985 3991 0
49 1201 1202 1203 1204 1205 1206 0
49 -3994 3993 0
49 -3995 3994 0
49 -3996 3995 0
49 -3997 3996 0
49 -3998 3997 0
49 3993 1201 0
49 -1201 -3993 0
49 -3993 3994 1202 0
49 3993 -1202 0
49 -1202 -3994 0
49 -3994 3995 1203 0
49 3994 -1203 0
49 -1203 -3995 0
49 -3995 3996 1204 0
49 3995 -1204 0
49 -1204 -3996 0
49 -3996 3997 1205 0
49 3996 -1205 0
49 -1205 -3997 0
49 -3997 3998 1206 0
49 3997 -1206 0
49 -1206 -3998 0
49 -3998 3992 0
49 -3992 3998 0
49 1207 0
49 1208 0
49 1209 0
49 1210 0
49 1211 1212 1213 1214 1215 1216 1217 0
49 -4001 4000 0
49 -4002 4001 0
49 -4003 4002 0
49 -4004 4003 0
49 -4005 4004 0
49 -4006 4005 0
49 4000 1211 0
49 -1211 -4000 0
49 -4000 4001 1212 0
49 4000 -1212 0
49 -1212 -4001 0
49 -4001 4002 1213 0
49 4001 -1213 0
49 -1213 -4002 0
49 -4002 4003 1214 0
49 4002 -1214 0
49 -1214 -4003 0
49 -4003 4004 1215 0
49 4003 -1215 0
49 -1215 -4004 0
49 -4004 4005 1216 0
49 4004 -1216 0
49 -1216 -4005 0
49 -4005 4006 1217 0
49 4005 -1217 0
49 -1217 -4006 0
49 -4006 3999 0
49 -3999 4006 0
49 1218 1219 1220 1221 1222 1223 1224 0
49 -4009 4008 0
49 -4010 4009 0
49 -4011 4010 0
49 -4012 4011 0
49 -4013 4012 0
49 -4014 4013 0
49 4008 1218 0
49 -1218 -4008 0
49 -4008 4009 1219 0
49 4008 -1219 0
49 -1219 -4009 0
49 -4009 4010 1220 0
49 4009 -1220 0
49 -1220 -4010 0
49 -4010 4011 1221 0
49 4010 -1221 0
49 -1221 -4011 0
49 -4011 4012 1222 0
49 4011 -1222 0
49 -1222 -4012 0
49 -4012 4013 1223 0
49 4012 -1223 0
49 -1223 -4013 0
49 -4013 4014 1224 0
49 4013 -1224 0
49 -1224 -4014 0
49 -4014 4007 0
49 -4007 4014 0
49 1225 0
49 1226 0
49 1227 1228 0
49 -1227 -1228 0
49 1229 1230 0
49 -1229 -1230 0
49 1231 0
49 1232 0
49 1233 0
49 1234 0
49 1235 1236 1237 1238 1239 1240 1241 0
49 -4017 4016 0
49 -4018 4017 0
49 -4019 4018 0
49 -4020 4019 0
49 -4021 4020 0
49 -4022 4021 0
49 4016 1235 0
49 -1235 -4016 0
49 -4016 4017 1236 0
49 4016 -1236 0
49 -1236 -4017 0
49 -4017 4018 1237 0
49 4017 -1237 0
49 -1237 -4018 0
49 -4018 4019 1238 0
49 4018 -1238 0
49 -1238 -4019 0
49 -4019 4020 1239 0
49 4019 -1239 0
49 -1239 -4020 0
49 -4020 4021 1240 0
49 4020 -1240 0
49 -1240 -4021 0
49 -4021 4022 1241 0
49 4021 -1241 0
49 -1241 -4022 0
49 -4022 4015 0
49 -4015 4022 0
49 1242 1243 1244 1245 1246 1247 1248 0
49 -4025 4024 0
49 -4026 4025 0
49 -4027 4026 0
49 -4028 4027 0
49 -4029 4028 0
49 -4030 4029 0
49 4024 1242 0
49 -1242 -4024 0
49 -4024 4025 1243 0
49 4024 -1243 0
49 -1243 -4025 0
49 -4025 4026 1244 0
49 4025 -1244 0
49 -1244 -4026 0
49 -4026 4027 1245 0
49 4026 -1245 0
49 -1245 -4027 0
49 -4027 4028 1246 0
49 4027 -1246 0
49 -1246 -4028 0
49 -4028 4029 1247 0
49 4028 -1247 0
49 -1247 -4029 0
49 -4029 4030 1248 0
49 4029 -1248 0
49 -1248 -4030 0
49 -4030 4023 0
49 -4023 4030 0
49 1249 1250 1251 1252 0
49 -4033 4032 0
49 -4034 4033 0
49 -4035 4034 0
49 4032 1249 0
49 -1249 -4032 0
49 -4032 4033 1250 0
49 4032 -1250 0
49 -1250 -4033 0
49 -4033 4034 1251 0
49 4033 -1251 0
49 -1251 -4034 0
49 -4034 4035 1252 0
49 4034 -1252 0
49 -1252 -4035 0
49 -4035 4031 0
49 -4031 4035 0
49 1253 1254 1255 1256 0
49 -4038 4037 0
49 -4039 4038 0
49 -4040 4039 0
49 4037 1253 0
49 -1253 -4037 0
49 -4037 4038 1254 0
49 4037 -1254 0
49 -1254 -4038 0
49 -4038 4039 1255 0
49 4038 -1255 0
49 -1255 -4039 0
49 -4039 4040 1256 0
49 4039 -1256 0
49 -1256 -4040 0
49 -4040 4036 0
49 -4036 4040 0
49 1257 0
49 1258 0
49 1259 0
49 1260 0
49 1261 1262 1263 1264 1265 1266 1267 0
49 -4043 4042 0
49 -4044 4043 0
49 -4045 4044 0
49 -4046 4045 0
49 -4047 4046 0
49 -4048 4047 0
49 4042 1261 0
49 -1261 -4042 0
49 -4042 4043 1262 0
49 4042 -1262 0
49 -1262 -4043 0
49 -4043 4044 1263 0
49 4043 -1263 0
49 -1263 -4044 0
49 -4044 4045 1264 0
49 4044 -1264 0
49 -1264 -4045 0
49 -4045 4046 1265 0
49 4045 -1265 0
49 -1265 -4046 0
49 -4046 4047 1266 0
49 4046 -1266 0
49 -1266 -4047 0
49 -4047 4048 1267 0
49 4047 -1267 0
49 -1267 -4048 0
49 -4048 4041 0
49 -4041 4048 0
49 1268 1269 1270 1271 1272 1273 1274 0
49 -4051 4050 0
49 -4052 4051 0
49 -4053 4052 0
49 -4054 4053 0
49 -4055 4054 0
49 -4056 4055 0
49 4050 1268 0
49 -1268 -4050 0
49 -4050 4051 1269 0
49 4050 -1269 0
49 -1269 -4051 0
49 -4051 4052 1270 0
49 4051 -1270 0
49 -1270 -4052 0
49 -4052 4053 1271 0
49 4052 -1271 0
49 -1271 -4053 0
49 -4053 4054 1272 0
49 4053 -1272 0
49 -1272 -4054 0
49 -4054 4055 1273 0
49 4054 -1273 0
49 -1273 -4055 0
49 -4055 4056 1274 0
49 4055 -1274 0
49 -1274 -4056 0
49 -4056 4049 0
49 -4049 4056 0
49 1275 1276 1277 1278 1279 1280 1281 1282 0
49 -4059 4058 0
49 -4060 4059 0
49 -4061 4060 0
49 -4062 4061 0
49 -4063 4062 0
49 -4064 4063 0
49 -4065 4064 0
49 4058 1275 0
49 -1275 -4058 0
49 -4058 4059 1276 0
49 4058 -1276 0
49 -1276 -4059 0
49 -4059 4060 1277 0
49 4059 -1277 0
49 -1277 -4060 0
49 -4060 4061 1278 0
49 4060 -1278 0
49 -1278 -4061 0
49 -4061 4062 1279 0
49 4061 -1279 0
49 -1279 -4062 0
49 -4062 4063 1280 0
49 4062 -1280 0
49 -1280 -4063 0
49 -4063 4064 1281 0
49 4063 -1281 0
49 -1281 -4064 0
49 -4064 4065 1282 0
49 4064 -1282 0
49 -1282 -4065 0
49 -4065 4057 0
49 -4057 4065 0
49 1283 1284 1285 1286 1287 1288 1289 1290 0
49 -4068 4067 0
49 -4069 4068 0
49 -4070 4069 0
49 -4071 4070 0
49 -4072 4071 0
49 -4073 4072 0
49 -4074 4073 0
49 4067 1283 0
49 -1283 -4067 0
49 -4067 4068 1284 0
49 4067 -1284 0
49 -1284 -4068 0
49 -4068 4069 1285 0
49 4068 -1285 0
49 -1285 -4069 0
49 -4069 4070 1286 0
49 4069 -1286 0
49 -1286 -4070 0
49 -4070 4071 1287 0
49 4070 -1287 0
49 -1287 -4071 0
49 -4071 4072 1288 0
49 4071 -1288 0
49 -1288 -4072 0
49 -4072 4073 1289 0
49 4072 -1289 0
49 -1289 -4073 0
49 -4073 4074 1290 0
49 4073 -1290 0
49 -1290 -4074 0
49 -4074 4066 0
49 -4066 4074 0
49 1291 1292 1293 1294 1295 1296 0
49 -4077 4076 0
49 -4078 4077 0
49 -4079 4078 0
49 -4080 4079 0
49 -4081 4080 0
49 4076 1291 0
49 -1291 -4076 0
49 -4076 4077 1292 0
49 4076 -1292 0
49 -1292 -4077 0
49 -4077 4078 1293 0
49 4077 -1293 0
49 -1293 -4078 0
49 -4078 4079 1294 0
49 4078 -1294 0
49 -1294 -4079 0
49 -4079 4080 1295 0
49 4079 -1295 0
49 -1295 -4080 0
49 -4080 4081 1296 0
49 4080 -1296 0
49 -1296 -4081 0
49 -4081 4075 0
49 -4075 4081 0
49 1297 1298 1299 1300 1301 1302 0
49 -4084 4083 0
49 -4085 4084 0
49 -4086 4085 0
49 -4087 4086 0
49 -4088 4087 0
49 4083 1297 0
49 -1297 -4083 0
49 -4083 4084 1298 0
49 4083 -1298 0
49 -1298 -4084 0
49 -4084 4085 1299 0
49 4084 -1299 0
49 -1299 -4085 0
49 -4085 4086 1300 0
49 4085 -1300 0
49 -1300 -4086 0
49 -4086 4087 1301 0
49 4086 -1301 0
49 -1301 -4087 0
49 -4087 4088 1302 0
49 4087 -1302 0
49 -1302 -4088 0
49 -4088 4082 0
49 -4082 4088 0
49 1303 0
49 1304 0
49 1305 1306 1307 1308 0
49 -4091 4090 0
49 -4092 4091 0
49 -4093 4092 0
49 4090 1305 0
49 -1305 -4090 0
49 -4090 4091 1306 0
49 4090 -1306 0
49 -1306 -4091 0
49 -4091 4092 1307 0
49 4091 -1307 0
49 -1307 -4092 0
49 -4092 4093 1308 0
49 4092 -1308 0
49 -1308 -4093 0
49 -4093 4089 0
49 -4089 4093 0
49 1309 1310 1311 1312 0
49 -4096 4095 0
49 -4097 4096 0
49 -4098 4097 0
49 4095 1309 0
49 -1309 -4095 0
49 -4095 4096 1310 0
49 4095 -1310 0
49 -1310 -4096 0
49 -4096 4097 1311 0
49 4096 -1311 0
49 -1311 -4097 0
49 -4097 4098 1312 0
49 4097 -1312 0
49 -1312 -4098 0
49 -4098 4094 0
49 -4094 4098 0
49 1313 0
49 1314 0
49 1315 0
49 1316 0
49 1317 0
49 1318 0
49 1319 0
49 1320 0
49 1321 1322 1323 1324 1325 1326 0
49 -4101 4100 0
49 -4102 4101 0
49 -4103 4102 0
49 -4104 4103 0
49 -4105 4104 0
49 4100 1321 0
49 -1321 -4100 0
49 -4100 4101 1322 0
49 4100 -1322 0
49 -1322 -4101 0
49 -4101 4102 1323 0
49 4101 -1323 0
49 -1323 -4102 0
49 -4102 4103 1324 0
49 4102 -1324 0
49 -1324 -4103 0
49 -4103 4104 1325 0
49 4103 -1325 0
49 -1325 -4104 0
49 -4104 4105 1326 0
49 4104 -1326 0
49 -1326 -4105 0
49 -4105 4099 0
49 -4099 4105 0
49 1327 1328 1329 1330 1331 1332 0
49 -4108 4107 0
49 -4109 4108 0
49 -4110 4109 0
49 -4111 4110 0
49 -4112 4111 0
49 4107 1327 0
49 -1327 -4107 0
49 -4107 4108 1328 0
49 4107 -1328 0
49 -1328 -4108 0
49 -4108 4109 1329 0
49 4108 -1329 0
49 -1329 -4109 0
49 -4109 4110 1330 0
49 4109 -1330 0
49 -1330 -4110 0
49 -4110 4111 1331 0
49 4110 -1331 0
49 -1331 -4111 0
49 -4111 4112 1332 0
49 4111 -1332 0
49 -1332 -4112 0
49 -4112 4106 0
49 -4106 4112 0
49 1333 0
49 1334 0
49 1335 0
49 1336 0
49 1337 0
49 1338 0
49 1339 0
49 1340 0
49 1341 1342 1343 1344 1345 1346 1347 1348 0
49 -4115 4114 0
49 -4116 4115 0
49 -4117 4116 0
49 -4118 4117 0
49 -4119 4118 0
49 -4120 4119 0
49 -4121 4120 0
49 4114 1341 0
49 -1341 -4114 0
49 -4114 4115 1342 0
49 4114 -1342 0
49 -1342 -4115 0
49 -4115 4116 1343 0
49 4115 -1343 0
49 -1343 -4116 0
49 -4116 4117 1344 0
49 4116 -1344 0
49 -1344 -4117 0
49 -4117 4118 1345 0
49 4117 -1345 0
49 -1345 -4118 0
49 -4118 4119 1346 0
49 4118 -1346 0
49 -1346 -4119 0
49 -4119 4120 1347 0
49 4119 -1347 0
49 -1347 -4120 0
49 -4120 4121 1348 0
49 4120 -1348 0
49 -1348 -4121 0
49 -4121 4113 0
49 -4113 4121 0
49 1349 1350 1351 1352 1353 1354 1355 1356 0
49 -4124 4123 0
49 -4125 4124 0
49 -4126 4125 0
49 -4127 4126 0
49 -4128 4127 0
49 -4129 4128 0
49 -4130 4129 0
49 4123 1349 0
49 -1349 -4123 0
49 -4123 4124 1350 0
49 4123 -1350 0
49 -1350 -4124 0
49 -4124 4125 1351 0
49 4124 -1351 0
49 -1351 -4125 0
49 -4125 4126 1352 0
49 4125 -1352 0
49 -1352 -4126 0
49 -4126 4127 1353 0
49 4126 -1353 0
49 -1353 -4127 0
49 -4127 4128 1354 0
49 4127 -1354 0
49 -1354 -4128 0
49 -4128 4129 1355 0
49 4128 -1355 0
49 -1355 -4129 0
49 -4129 4130 1356 0
49 4129 -1356 0
49 -1356 -4130 0
49 -4130 4122 0
49 -4122 4130 0
49 1357 0
49 1358 0
49 1359 0
49 1360 0
49 1361 0
49 1362 0
49 1363 0
49 1364 0
49 1365 1366 1367 0
49 -4133 4132 0
49 -4134 4133 0
49 4132 1365 0
49 -1365 -4132 0
49 -4132 4133 1366 0
49 4132 -1366 0
49 -1366 -4133 0
49 -4133 4134 1367 0
49 4133 -1367 0
49 -1367 -4134 0
49 -4134 4131 0
49 -4131 4134 0
49 1368 1369 1370 0
49 -4137 4136 0
49 -4138 4137 0
49 4136 1368 0
49 -1368 -4136 0
49 -4136 4137 1369 0
49 4136 -1369 0
49 -1369 -4137 0
49 -4137 4138 1370 0
49 4137 -1370 0
49 -1370 -4138 0
49 -4138 4135 0
49 -4135 4138 0
49 1371 1372 1373 1374 1375 1376 1377 1378 1379 1380 1381 0
49 -4141 4140 0
49 -4142 4141 0
49 -4143 4142 0
49 -4144 4143 0
49 -4145 4144 0
49 -4146 4145 0
49 -4147 4146 0
49 -4148 4147 0
49 -4149 4148 0
49 -4150 4149 0
49 4140 1371 0
49 -1371 -4140 0
49 -4140 4141 1372 0
49 4140 -1372 0
49 -1372 -4141 0
49 -4141 4142 1373 0
49 4141 -1373 0
49 -1373 -4142 0
49 -4142 4143 1374 0
49 4142 -1374 0
49 -1374 -4143 0
49 -4143 4144 1375 0
49 4143 -1375 0
49 -1375 -4144 0
49 -4144 4145 1376 0
49 4144 -1376 0
49 -1376 -4145 0
49 -4145 4146 1377 0
49 4145 -1377 0
49 -1377 -4146 0
49 -4146 4147 1378 0
49 4146 -1378 0
49 -1378 -4147 0
49 -4147 4148 1379 0
49 4147 -1379 0
49 -1379 -4148 0
49 -4148 4149 1380 0
49 4148 -1380 0
49 -1380 -4149 0
49 -4149 4150 1381 0
49 4149 -1381 0
49 -1381 -4150 0
49 -4150 4139 0
49 -4139 4150 0
49 1382 1383 1384 1385 1386 1387 1388 1389 1390 1391 1392 0
49 -4153 4152 0
49 -4154 4153 0
49 -4155 4154 0
49 -4156 4155 0
49 -4157 4156 0
49 -4158 4157 0
49 -4159 4158 0
49 -4160 4159 0
49 -4161 4160 0
49 -4162 4161 0
49 4152 1382 0
49 -1382 -4152 0
49 -4152 4153 1383 0
49 4152 -1383 0
49 -1383 -4153 0
49 -4153 4154 1384 0
49 4153 -1384 0
49 -1384 -4154 0
49 -4154 4155 1385 0
49 4154 -1385 0
49 -1385 -4155 0
49 -4155 4156 1386 0
49 4155 -1386 0
49 -1386 -4156 0
49 -4156 4157 1387 0
49 4156 -1387 0
49 -1387 -4157 0
49 -4157 4158 1388 0
49 4157 -1388 0
49 -1388 -4158 0
49 -4158 4159 1389 0
49 4158 -1389 0
49 -1389 -4159 0
49 -4159 4160 1390 0
49 4159 -1390 0
49 -1390 -4160 0
49 -4160 4161 1391 0
49 4160 -1391 0
49 -1391 -4161 0
49 -4161 4162 1392 0
49 4161 -1392 0
49 -1392 -4162 0
49 -4162 4151 0
49 -4151 4162 0
49 1393 0
49 1394 0
49 1395 1396 1397 1398 1399 1400 1401 1402 1403 1404 1405 1406 1407 1408 0
49 -4165 4164 0
49 -4166 4165 0
49 -4167 4166 0
49 -4168 4167 0
49 -4169 4168 0
49 -4170 4169 0
49 -4171 4170 0
49 -4172 4171 0
49 -4173 4172 0
49 -4174 4173 0
49 -4175 4174 0
49 -4176 4175 0
49 -4177 4176 0
49 4164 1395 0
49 -1395 -4164 0
49 -4164 4165 1396 0
49 4164 -1396 0
49 -1396 -4165 0
49 -4165 4166 1397 0
49 4165 -1397 0
49 -1397 -4166 0
49 -4166 4167 1398 0
49 4166 -1398 0
49 -1398 -4167 0
49 -4167 4168 1399 0
49 4167 -1399 0
49 -1399 -4168 0
49 -4168 4169 1400 0
49 4168 -1400 0
49 -1400 -4169 0
49 -4169 4170 1401 0
49 4169 -1401 0
49 -1401 -4170 0
49 -4170 4171 1402 0
49 4170 -1402 0
49 -1402 -4171 0
49 -4171 4172 1403 0
49 4171 -1403 0
49 -1403 -4172 0
49 -4172 4173 1404 0
49 4172 -1404 0
49 -1404 -4173 0
49 -4173 4174 1405 0
49 4173 -1405 0
49 -1405 -4174 0
49 -4174 4175 1406 0
49 4174 -1406 0
49 -1406 -4175 0
49 -4175 4176 1407 0
49 4175 -1407 0
49 -1407 -4176 0
49 -4176 4177 1408 0
49 4176 -1408 0
49 -1408 -4177 0
49 -4177 4163 0
49 -4163 4177 0
49 1409 1410 1411 1412 1413 1414 1415 1416 1417 1418 1419 1420 1421 1422 0
49 -4180 4179 0
49 -4181 4180 0
49 -4182 4181 0
49 -4183 4182 0
49 -4184 4183 0
49 -4185 4184 0
49 -4186 4185 0
49 -4187 4186 0
49 -4188 4187 0
49 -4189 4188 0
49 -4190 4189 0
49 -4191 4190 0
49 -4192 4191 0
49 4179 1409 0
49 -1409 -4179 0
49 -4179 4180 1410 0
49 4179 -1410 0
49 -1410 -4180 0
49 -4180 4181 1411 0
49 4180 -1411 0
49 -1411 -4181 0
49 -4181 4182 1412 0
49 4181 -1412 0
49 -1412 -4182 0
49 -4182 4183 1413 0
49 4182 -1413 0
49 -1413 -4183 0
49 -4183 4184 1414 0
49 4183 -1414 0
49 -1414 -4184 0
49 -4184 4185 1415 0
49 4184 -1415 0
49 -1415 -4185 0
49 -4185 4186 1416 0
49 4185 -1416 0
49 -1416 -4186 0
49 -4186 4187 1417 0
49 4186 -1417 0
49 -1417 -4187 0
49 -4187 4188 1418 0
49 4187 -1418 0
49 -1418 -4188 0
49 -4188 4189 1419 0
49 4188 -1419 0
49 -1419 -4189 0
49 -4189 4190 1420 0
49 4189 -1420 0
49 -1420 -4190 0
49 -4190 4191 1421 0
49 4190 -1421 0
49 -1421 -4191 0
49 -4191 4192 1422 0
49 4191 -1422 0
49 -1422 -4192 0
49 -4192 4178 0
49 -4178 4192 0
49 1423 0
49 1424 0
49 1425 0
49 1426 0
49 1427 0
49 1428 0
49 1429 1430 1431 1432 1433 0
49 -4195 4194 0
49 -4196 4195 0
49 -4197 4196 0
49 -4198 4197 0
49 4194 1429 0
49 -1429 -4194 0
49 -4194 4195 1430 0
49 4194 -1430 0
49 -1430 -4195 0
49 -4195 4196 1431 0
49 4195 -1431 0
49 -1431 -4196 0
49 -4196 4197 1432 0
49 4196 -1432 0
49 -1432 -4197 0
49 -4197 4198 1433 0
49 4197 -1433 0
49 -1433 -4198 0
49 -4198 4193 0
49 -4193 4198 0
49 1434 1435 1436 1437 1438 0
49 -4201 4200 0
49 -4202 4201 0
49 -4203 4202 0
49 -4204 4203 0
49 4200 1434 0
49 -1434 -4200 0
49 -4200 4201 1435 0
49 4200 -1435 0
49 -1435 -4201 0
49 -4201 4202 1436 0
49 4201 -1436 0
49 -1436 -4202 0
49 -4202 4203 1437 0
49 4202 -1437 0
49 -1437 -4203 0
49 -4203 4204 1438 0
49 4203 -1438 0
49 -1438 -4204 0
49 -4204 4199 0
49 -4199 4204 0
49 1439 0
49 1440 0
49 1441 0
49 1442 0
49 1443 1444 1445 1446 1447 1448 0
49 -4207 4206 0
49 -4208 4207 0
49 -4209 4208 0
49 -4210 4209 0
49 -4211 4210 0
49 4206 1443 0
49 -1443 -4206 0
49 -4206 4207 1444 0
49 4206 -1444 0
49 -1444 -4207 0
49 -4207 4208 1445 0
49 4207 -1445 0
49 -1445 -4208 0
49 -4208 4209 1446 0
49 4208 -1446 0
49 -1446 -4209 0
49 -4209 4210 1447 0
49 4209 -1447 0
49 -1447 -4210 0
49 -4210 4211 1448 0
49 4210 -1448 0
49 -1448 -4211 0
49 -4211 4205 0
49 -4205 4211 0
49 1449 1450 1451 1452 1453 1454 0
49 -4214 4213 0
49 -4215 4214 0
49 -4216 4215 0
49 -4217 4216 0
49 -4218 4217 0
49 4213 1449 0
49 -1449 -4213 0
49 -4213 4214 1450 0
49 4213 -1450 0
49 -1450 -4214 0
49 -4214 4215 1451 0
49 4214 -1451 0
49 -1451 -4215 0
49 -4215 4216 1452 0
49 4215 -1452 0
49 -1452 -4216 0
49 -4216 4217 1453 0
49 4216 -1453 0
49 -1453 -4217 0
49 -4217 4218 1454 0
49 4217 -1454 0
49 -1454 -4218 0
49 -4218 4212 0
49 -4212 4218 0
49 1455 1456 1457 1458 1459 1460 1461 0
49 -4221 4220 0
49 -4222 4221 0
49 -4223 4222 0
49 -4224 4223 0
49 -4225 4224 0
49 -4226 4225 0
49 4220 1455 0
49 -1455 -4220 0
49 -4220 4221 1456 0
49 4220 -1456 0
49 -1456 -4221 0
49 -4221 4222 1457 0
49 4221 -1457 0
49 -1457 -4222 0
49 -4222 4223 1458 0
49 4222 -1458 0
49 -1458 -4223 0
49 -4223 4224 1459 0
49 4223 -1459 0
49 -1459 -4224 0
49 -4224 4225 1460 0
49 4224 -1460 0
49 -1460 -4225 0
49 -4225 4226 1461 0
49 4225 -1461 0
49 -1461 -4226 0
49 -4226 4219 0
49 -4219 4226 0
49 1462 1463 1464 1465 1466 1467 1468 0
49 -4229 4228 0
49 -4230 4229 0
49 -4231 4230 0
49 -4232 4231 0
49 -4233 4232 0
49 -4234 4233 0
49 4228 1462 0
49 -1462 -4228 0
49 -4228 4229 1463 0
49 4228 -1463 0
49 -1463 -4229 0
49 -4229 4230 1464 0
49 4229 -1464 0
49 -1464 -4230 0
49 -4230 4231 1465 0
49 4230 -1465 0
49 -1465 -4231 0
49 -4231 4232 1466 0
49 4231 -1466 0
49 -1466 -4232 0
49 -4232 4233 1467 0
49 4232 -1467 0
49 -1467 -4233 0
49 -4233 4234 1468 0
49 4233 -1468 0
49 -1468 -4234 0
49 -4234 4227 0
49 -4227 4234 0
49 1469 0
49 1470 0
49 1471 0
49 1472 0
49 1473 1474 1475 1476 1477 1478 1479 1480 0
49 -4237 4236 0
49 -4238 4237 0
49 -4239 4238 0
49 -4240 4239 0
49 -4241 4240 0
49 -4242 4241 0
49 -4243 4242 0
49 4236 1473 0
49 -1473 -4236 0
49 -4236 4237 1474 0
49 4236 -1474 0
49 -1474 -4237 0
49 -4237 4238 1475 0
49 4237 -1475 0
49 -1475 -4238 0
49 -4238 4239 1476 0
49 4238 -1476 0
49 -1476 -4239 0
49 -4239 4240 1477 0
49 4239 -1477 0
49 -1477 -4240 0
49 -4240 4241 1478 0
49 4240 -1478 0
49 -1478 -4241 0
49 -4241 4242 1479 0
49 4241 -1479 0
49 -1479 -4242 0
49 -4242 4243 1480 0
49 4242 -1480 0
49 -1480 -4243 0
49 -4243 4235 0
49 -4235 4243 0
49 1481 1482 1483 1484 1485 1486 1487 1488 0
49 -4246 4245 0
49 -4247 4246 0
49 -4248 4247 0
49 -4249 4248 0
49 -4250 4249 0
49 -4251 4250 0
49 -4252 4251 0
49 4245 1481 0
49 -1481 -4245 0
49 -4245 4246 1482 0
49 4245 -1482 0
49 -1482 -4246 0
49 -4246 4247 1483 0
49 4246 -1483 0
49 -1483 -4247 0
49 -4247 4248 1484 0
49 4247 -1484 0
49 -1484 -4248 0
49 -4248 4249 1485 0
49 4248 -1485 0
49 -1485 -4249 0
49 -4249 4250 1486 0
49 4249 -1486 0
49 -1486 -4250 0
49 -4250 4251 1487 0
49 4250 -1487 0
49 -1487 -4251 0
49 -4251 4252 1488 0
49 4251 -1488 0
49 -1488 -4252 0
49 -4252 4244 0
49 -4244 4252 0
49 1489 1490 1491 1492 1493 1494 1495 1496 0
49 -4255 4254 0
49 -4256 4255 0
49 -4257 4256 0
49 -4258 4257 0
49 -4259 4258 0
49 -4260 4259 0
49 -4261 4260 0
49 4254 1489 0
49 -1489 -4254 0
49 -4254 4255 1490 0
49 4254 -1490 0
49 -1490 -4255 0
49 -4255 4256 1491 0
49 4255 -1491 0
49 -1491 -4256 0
49 -4256 4257 1492 0
49 4256 -1492 0
49 -1492 -4257 0
49 -4257 4258 1493 0
49 4257 -1493 0
49 -1493 -4258 0
49 -4258 4259 1494 0
49 4258 -1494 0
49 -1494 -4259 0
49 -4259 4260 1495 0
49 4259 -1495 0
49 -1495 -4260 0
49 -4260 4261 1496 0
49 4260 -1496 0
49 -1496 -4261 0
49 -4261 4253 0
49 -4253 4261 0
49 1497 1498 1499 1500 1501 1502 1503 1504 0
49 -4264 4263 0
49 -4265 4264 0
49 -4266 4265 0
49 -4267 4266 0
49 -4268 4267 0
49 -4269 4268 0
49 -4270 4269 0
49 4263 1497 0
49 -1497 -4263 0
49 -4263 4264 1498 0
49 4263 -1498 0
49 -1498 -4264 0
49 -4264 4265 1499 0
49 4264 -1499 0
49 -1499 -4265 0
49 -4265 4266 1500 0
49 4265 -1500 0
49 -1500 -4266 0
49 -4266 4267 1501 0
49 4266 -1501 0
49 -1501 -4267 0
49 -4267 4268 1502 0
49 4267 -1502 0
49 -1502 -4268 0
49 -4268 4269 1503 0
49 4268 -1503 0
49 -1503 -4269 0
49 -4269 4270 1504 0
49 4269 -1504 0
49 -1504 -4270 0
49 -4270 4262 0
49 -4262 4270 0
49 1505 0
49 1506 0
49 1507 1508 1509 1510 1511 1512 1513 1514 1515 1516 0
49 -4273 4272 0
49 -4274 4273 0
49 -4275 4274 0
49 -4276 4275 0
49 -4277 4276 0
49 -4278 4277 0
49 -4279 4278 0
49 -4280 4279 0
49 -4281 4280 0
49 4272 1507 0
49 -1507 -4272 0
49 -4272 4273 1508 0
49 4272 -1508 0
49 -1508 -4273 0
49 -4273 4274 1509 0
49 4273 -1509 0
49 -1509 -4274 0
49 -4274 4275 1510 0
49 4274 -1510 0
49 -1510 -4275 0
49 -4275 4276 1511 0
49 4275 -1511 0
49 -1511 -4276 0
49 -4276 4277 1512 0
49 4276 -1512 0
49 -1512 -4277 0
49 -4277 4278 1513 0
49 4277 -1513 0
49 -1513 -4278 0
49 -4278 4279 1514 0
49 4278 -1514 0
49 -1514 -4279 0
49 -4279 4280 1515 0
49 4279 -1515 0
49 -1515 -4280 0
49 -4280 4281 1516 0
49 4280 -1516 0
49 -1516 -4281 0
49 -4281 4271 0
49 -4271 4281 0
49 1517 1518 1519 1520 1521 1522 1523 1524 1525 1526 0
49 -4284 4283 0
49 -4285 4284 0
49 -4286 4285 0
49 -4287 4286 0
49 -4288 4287 0
49 -4289 4288 0
49 -4290 4289 0
49 -4291 4290 0
49 -4292 4291 0
49 4283 1517 0
49 -1517 -4283 0
49 -4283 4284 1518 0
49 4283 -1518 0
49 -1518 -4284 0
49 -4284 4285 1519 0
49 4284 -1519 0
49 -1519 -4285 0
49 -4285 4286 1520 0
49 4285 -1520 0
49 -1520 -4286 0
49 -4286 4287 1521 0
49 4286 -1521 0
49 -1521 -4287 0
49 -4287 4288 1522 0
49 4287 -1522 0
49 -1522 -4288 0
49 -4288 4289 1523 0
49 4288 -1523 0
49 -1523 -4289 0
49 -4289 4290 1524 0
49 4289 -1524 0
49 -1524 -4290 0
49 -4290 4291 1525 0
49 4290 -1525 0
49 -1525 -4291 0
49 -4291 4292 1526 0
49 4291 -1526 0
49 -1526 -4292 0
49 -4292 4282 0
49 -4282 4292 0
49 1527 1528 1529 1530 1531 1532 1533 1534 1535 1536 1537 1538 1539 1540 1541 1542 1543 1544 1545 1546 0
49 -4295 4294 0
49 -4296 4295 0
49 -4297 4296 0
49 -4298 4297 0
49 -4299 4298 0
49 -4300 4299 0
49 -4301 4300 0
49 -4302 4301 0
49 -4303 4302 0
49 -4304 4303 0
49 -4305 4304 0
49 -4306 4305 0
49 -4307 4306 0
49 -4308 4307 0
49 -4309 4308 0
49 -4310 4309 0
49 -4311 4310 0
49 -4312 4311 0
49 -4313 4312 0
49 4294 1527 0
49 -1527 -4294 0
49 -4294 4295 1528 0
49 4294 -1528 0
49 -1528 -4295 0
49 -4295 4296 1529 0
49 4295 -1529 0
49 -1529 -4296 0
49 -4296 4297 1530 0
49 4296 -1530 0
49 -1530 -4297 0
49 -4297 4298 1531 0
49 4297 -1531 0
49 -1531 -4298 0
49 -4298 4299 1532 0
49 4298 -1532 0
49 -1532 -4299 0
49 -4299 4300 1533 0
49 4299 -1533 0
49 -1533 -4300 0
49 -4300 4301 1534 0
49 4300 -1534 0
49 -1534 -4301 0
49 -4301 4302 1535 0
49 4301 -1535 0
49 -1535 -4302 0
49 -4302 4303 1536 0
49 4302 -1536 0
49 -1536 -4303 0
49 -4303 4304 1537 0
49 4303 -1537 0
49 -1537 -4304 0
49 -4304 4305 1538 0
49 4304 -1538 0
49 -1538 -4305 0
49 -4305 4306 1539 0
49 4305 -1539 0
49 -1539 -4306 0
49 -4306 4307 1540 0
49 4306 -1540 0
49 -1540 -4307 0
49 -4307 4308 1541 0
49 4307 -1541 0
49 -1541 -4308 0
49 -4308 4309 1542 0
49 4308 -1542 0
49 -1542 -4309 0
49 -4309 4310 1543 0
49 4309 -1543 0
49 -1543 -4310 0
49 -4310 4311 1544 0
49 4310 -1544 0
49 -1544 -4311 0
49 -4311 4312 1545 0
49 4311 -1545 0
49 -1545 -4312 0
49 -4312 4313 1546 0
49 4312 -1546 0
49 -1546 -4313 0
49 -4313 4293 0
49 -4293 4313 0
49 1547 1548 1549 1550 1551 1552 1553 1554 1555 1556 1557 1558 1559 1560 1561 1562 1563 1564 1565 1566 0
49 -4316 4315 0
49 -4317 4316 0
49 -4318 4317 0
49 -4319 4318 0
49 -4320 4319 0
49 -4321 4320 0
49 -4322 4321 0
49 -4323 4322 0
49 -4324 4323 0
49 -4325 4324 0
49 -4326 4325 0
49 -4327 4326 0
49 -4328 4327 0
49 -4329 4328 0
49 -4330 4329 0
49 -4331 4330 0
49 -4332 4331 0
49 -4333 4332 0
49 -4334 4333 0
49 4315 1547 0
49 -1547 -4315 0
49 -4315 4316 1548 0
49 4315 -1548 0
49 -1548 -4316 0
49 -4316 4317 1549 0
49 4316 -1549 0
49 -1549 -4317 0
49 -4317 4318 1550 0
49 4317 -1550 0
49 -1550 -4318 0
49 -4318 4319 1551 0
49 4318 -1551 0
49 -1551 -4319 0
49 -4319 4320 1552 0
49 4319 -1552 0
49 -1552 -4320 0
49 -4320 4321 1553 0
49 4320 -1553 0
49 -1553 -4321 0
49 -4321 4322 1554 0
49 4321 -1554 0
49 -1554 -4322 0
49 -4322 4323 1555 0
49 4322 -1555 0
49 -1555 -4323 0
49 -4323 4324 1556 0
49 4323 -1556 0
49 -1556 -4324 0
49 -4324 4325 1557 0
49 4324 -1557 0
49 -1557 -4325 0
49 -4325 4326 1558 0
49 4325 -1558 0
49 -1558 -4326 0
49 -4326 4327 1559 0
49 4326 -1559 0
49 -1559 -4327 0
49 -4327 4328 1560 0
49 4327 -1560 0
49 -1560 -4328 0
49 -4328 4329 1561 0
49 4328 -1561 0
49 -1561 -4329 0
49 -4329 4330 1562 0
49 4329 -1562 0
49 -1562 -4330 0
49 -4330 4331 1563 0
49 4330 -1563 0
49 -1563 -4331 0
49 -4331 4332 1564 0
49 4331 -1564 0
49 -1564 -4332 0
49 -4332 4333 1565 0
49 4332 -1565 0
49 -1565 -4333 0
49 -4333 4334 1566 0
49 4333 -1566 0
49 -1566 -4334 0
49 -4334 4314 0
49 -4314 4334 0
49 1567 1568 1569 1570 1571 1572 1573 1574 0
49 -4337 4336 0
49 -4338 4337 0
49 -4339 4338 0
49 -4340 4339 0
49 -4341 4340 0
49 -4342 4341 0
49 -4343 4342 0
49 4336 1567 0
49 -1567 -4336 0
49 -4336 4337 1568 0
49 4336 -1568 0
49 -1568 -4337 0
49 -4337 4338 1569 0
49 4337 -1569 0
49 -1569 -4338 0
49 -4338 4339 1570 0
49 4338 -1570 0
49 -1570 -4339 0
49 -4339 4340 1571 0
49 4339 -1571 0
49 -1571 -4340 0
49 -4340 4341 1572 0
49 4340 -1572 0
49 -1572 -4341 0
49 -4341 4342 1573 0
49 4341 -1573 0
49 -1573 -4342 0
49 -4342 4343 1574 0
49 4342 -1574 0
49 -1574 -4343 0
49 -4343 4335 0
49 -4335 4343 0
49 1575 1576 1577 1578 1579 1580 1581 1582 0
49 -4346 4345 0
49 -4347 4346 0
49 -4348 4347 0
49 -4349 4348 0
49 -4350 4349 0
49 -4351 4350 0
49 -4352 4351 0
49 4345 1575 0
49 -1575 -4345 0
49 -4345 4346 1576 0
49 4345 -1576 0
49 -1576 -4346 0
49 -4346 4347 1577 0
49 4346 -1577 0
49 -1577 -4347 0
49 -4347 4348 1578 0
49 4347 -1578 0
49 -1578 -4348 0
49 -4348 4349 1579 0
49 4348 -1579 0
49 -1579 -4349 0
49 -4349 4350 1580 0
49 4349 -1580 0
49 -1580 -4350 0
49 -4350 4351 1581 0
49 4350 -1581 0
49 -1581 -4351 0
49 -4351 4352 1582 0
49 4351 -1582 0
49 -1582 -4352 0
49 -4352 4344 0
49 -4344 4352 0
49 1583 1584 1585 1586 1587 1588 1589 1590 0
49 -4355 4354 0
49 -4356 4355 0
49 -4357 4356 0
49 -4358 4357 0
49 -4359 4358 0
49 -4360 4359 0
49 -4361 4360 0
49 4354 1583 0
49 -1583 -4354 0
49 -4354 4355 1584 0
49 4354 -1584 0
49 -1584 -4355 0
49 -4355 4356 1585 0
49 4355 -1585 0
49 -1585 -4356 0
49 -4356 4357 1586 0
49 4356 -1586 0
49 -1586 -4357 0
49 -4357 4358 1587 0
49 4357 -1587 0
49 -1587 -4358 0
49 -4358 4359 1588 0
49 4358 -1588 0
49 -1588 -4359 0
49 -4359 4360 1589 0
49 4359 -1589 0
49 -1589 -4360 0
49 -4360 4361 1590 0
49 4360 -1590 0
49 -1590 -4361 0
49 -4361 4353 0
49 -4353 4361 0
49 1591 1592 1593 1594 1595 1596 1597 1598 0
49 -4364 4363 0
49 -4365 4364 0
49 -4366 4365 0
49 -4367 4366 0
49 -4368 4367 0
49 -4369 4368 0
49 -4370 4369 0
49 4363 1591 0
49 -1591 -4363 0
49 -4363 4364 1592 0
49 4363 -1592 0
49 -1592 -4364 0
49 -4364 4365 1593 0
49 4364 -1593 0
49 -1593 -4365 0
49 -4365 4366 1594 0
49 4365 -1594 0
49 -1594 -4366 0
49 -4366 4367 1595 0
49 4366 -1595 0
49 -1595 -4367 0
49 -4367 4368 1596 0
49 4367 -1596 0
49 -1596 -4368 0
49 -4368 4369 1597 0
49 4368 -1597 0
49 -1597 -4369 0
49 -4369 4370 1598 0
49 4369 -1598 0
49 -1598 -4370 0
49 -4370 4362 0
49 -4362 4370 0
49 1599 0
49 1600 0
49 1601 1602 1603 1604 1605 1606 0
49 -4373 4372 0
49 -4374 4373 0
49 -4375 4374 0
49 -4376 4375 0
49 -4377 4376 0
49 4372 1601 0
49 -1601 -4372 0
49 -4372 4373 1602 0
49 4372 -1602 0
49 -1602 -4373 0
49 -4373 4374 1603 0
49 4373 -1603 0
49 -1603 -4374 0
49 -4374 4375 1604 0
49 4374 -1604 0
49 -1604 -4375 0
49 -4375 4376 1605 0
49 4375 -1605 0
49 -1605 -4376 0
49 -4376 4377 1606 0
49 4376 -1606 0
49 -1606 -4377 0
49 -4377 4371 0
49 -4371 4377 0
49 1607 1608 1609 1610 1611 1612 0
49 -4380 4379 0
49 -4381 4380 0
49 -4382 4381 0
49 -4383 4382 0
49 -4384 4383 0
49 4379 1607 0
49 -1607 -4379 0
49 -4379 4380 1608 0
49 4379 -1608 0
49 -1608 -4380 0
49 -4380 4381 1609 0
49 4380 -1609 0
49 -1609 -4381 0
49 -4381 4382 1610 0
49 4381 -1610 0
49 -1610 -4382 0
49 -4382 4383 1611 0
49 4382 -1611 0
49 -1611 -4383 0
49 -4383 4384 1612 0
49 4383 -1612 0
49 -1612 -4384 0
49 -4384 4378 0
49 -4378 4384 0
49 1613 0
49 1614 0
49 1615 1616 1617 1618 1619 1620 1621 1622 0
49 -4387 4386 0
49 -4388 4387 0
49 -4389 4388 0
49 -4390 4389 0
49 -4391 4390 0
49 -4392 4391 0
49 -4393 4392 0
49 4386 1615 0
49 -1615 -4386 0
49 -4386 4387 1616 0
49 4386 -1616 0
49 -1616 -4387 0
49 -4387 4388 1617 0
49 4387 -1617 0
49 -1617 -4388 0
49 -4388 4389 1618 0
49 4388 -1618 0
49 -1618 -4389 0
49 -4389 4390 1619 0
49 4389 -1619 0
49 -1619 -4390 0
49 -4390 4391 1620 0
49 4390 -1620 0
49 -1620 -4391 0
49 -4391 4392 1621 0
49 4391 -1621 0
49 -1621 -4392 0
49 -4392 4393 1622 0
49 4392 -1622 0
49 -1622 -4393 0
49 -4393 4385 0
49 -4385 4393 0
49 1623 1624 1625 1626 1627 1628 1629 1630 0
49 -4396 4395 0
49 -4397 4396 0
49 -4398 4397 0
49 -4399 4398 0
49 -4400 4399 0
49 -4401 4400 0
49 -4402 4401 0
49 4395 1623 0
49 -1623 -4395 0
49 -4395 4396 1624 0
49 4395 -1624 0
49 -1624 -4396 0
49 -4396 4397 1625 0
49 4396 -1625 0
49 -1625 -4397 0
49 -4397 4398 1626 0
49 4397 -1626 0
49 -1626 -4398 0
49 -4398 4399 1627 0
49 4398 -1627 0
49 -1627 -4399 0
49 -4399 4400 1628 0
49 4399 -1628 0
49 -1628 -4400 0
49 -4400 4401 1629 0
49 4400 -1629 0
49 -1629 -4401 0
49 -4401 4402 1630 0
49 4401 -1630 0
49 -1630 -4402 0
49 -4402 4394 0
49 -4394 4402 0
49 1631 0
49 1632 0
49 1633 0
49 1634 0
49 1635 0
49 1636 0
49 1637 0
49 1638 0
49 1639 0
49 1640 0
49 1641 1642 1643 1644 1645 1646 0
49 -4405 4404 0
49 -4406 4405 0
49 -4407 4406 0
49 -4408 4407 0
49 -4409 4408 0
49 4404 1641 0
49 -1641 -4404 0
49 -4404 4405 1642 0
49 4404 -1642 0
49 -1642 -4405 0
49 -4405 4406 1643 0
49 4405 -1643 0
49 -1643 -4406 0
49 -4406 4407 1644 0
49 4406 -1644 0
49 -1644 -4407 0
49 -4407 4408 1645 0
49 4407 -1645 0
49 -1645 -4408 0
49 -4408 4409 1646 0
49 4408 -1646 0
49 -1646 -4409 0
49 -4409 4403 0
49 -4403 4409 0
49 1647 1648 1649 1650 1651 1652 0
49 -4412 4411 0
49 -4413 4412 0
49 -4414 4413 0
49 -4415 4414 0
49 -4416 4415 0
49 4411 1647 0
49 -1647 -4411 0
49 -4411 4412 1648 0
49 4411 -1648 0
49 -1648 -4412 0
49 -4412 4413 1649 0
49 4412 -1649 0
49 -1649 -4413 0
49 -4413 4414 1650 0
49 4413 -1650 0
49 -1650 -4414 0
49 -4414 4415 1651 0
49 4414 -1651 0
49 -1651 -4415 0
49 -4415 4416 1652 0
49 4415 -1652 0
49 -1652 -4416 0
49 -4416 4410 0
49 -4410 4416 0
49 1653 0
49 1654 0
49 1655 1656 1657 1658 1659 1660 1661 1662 0
49 -4419 4418 0
49 -4420 4419 0
49 -4421 4420 0
49 -4422 4421 0
49 -4423 4422 0
49 -4424 4423 0
49 -4425 4424 0
49 4418 1655 0
49 -1655 -4418 0
49 -4418 4419 1656 0
49 4418 -1656 0
49 -1656 -4419 0
49 -4419 4420 1657 0
49 4419 -1657 0
49 -1657 -4420 0
49 -4420 4421 1658 0
49 4420 -1658 0
49 -1658 -4421 0
49 -4421 4422 1659 0
49 4421 -1659 0
49 -1659 -4422 0
49 -4422 4423 1660 0
49 4422 -1660 0
49 -1660 -4423 0
49 -4423 4424 1661 0
49 4423 -1661 0
49 -1661 -4424 0
49 -4424 4425 1662 0
49 4424 -1662 0
49 -1662 -4425 0
49 -4425 4417 0
49 -4417 4425 0
49 1663 1664 1665 1666 1667 1668 1669 1670 0
49 -4428 4427 0
49 -4429 4428 0
49 -4430 4429 0
49 -4431 4430 0
49 -4432 4431 0
49 -4433 4432 0
49 -4434 4433 0
49 4427 1663 0
49 -1663 -4427 0
49 -4427 4428 1664 0
49 4427 -1664 0
49 -1664 -4428 0
49 -4428 4429 1665 0
49 4428 -1665 0
49 -1665 -4429 0
49 -4429 4430 1666 0
49 4429 -1666 0
49 -1666 -4430 0
49 -4430 4431 1667 0
49 4430 -1667 0
49 -1667 -4431 0
49 -4431 4432 1668 0
49 4431 -1668 0
49 -1668 -4432 0
49 -4432 4433 1669 0
49 4432 -1669 0
49 -1669 -4433 0
49 -4433 4434 1670 0
49 4433 -1670 0
49 -1670 -4434 0
49 -4434 4426 0
49 -4426 4434 0
49 1671 0
49 1672 0
49 1673 1674 0
49 -1673 -1674 0
49 1675 1676 0
49 -1675 -1676 0
49 1677 1678 1679 1680 1681 1682 1683 1684 0
49 -4437 4436 0
49 -4438 4437 0
49 -4439 4438 0
49 -4440 4439 0
49 -4441 4440 0
49 -4442 4441 0
49 -4443 4442 0
49 4436 1677 0
49 -1677 -4436 0
49 -4436 4437 1678 0
49 4436 -1678 0
49 -1678 -4437 0
49 -4437 4438 1679 0
49 4437 -1679 0
49 -1679 -4438 0
49 -4438 4439 1680 0
49 4438 -1680 0
49 -1680 -4439 0
49 -4439 4440 1681 0
49 4439 -1681 0
49 -1681 -4440 0
49 -4440 4441 1682 0
49 4440 -1682 0
49 -1682 -4441 0
49 -4441 4442 1683 0
49 4441 -1683 0
49 -1683 -4442 0
49 -4442 4443 1684 0
49 4442 -1684 0
49 -1684 -4443 0
49 -4443 4435 0
49 -4435 4443 0
49 1685 1686 1687 1688 1689 1690 1691 1692 0
49 -4446 4445 0
49 -4447 4446 0
49 -4448 4447 0
49 -4449 4448 0
49 -4450 4449 0
49 -4451 4450 0
49 -4452 4451 0
49 4445 1685 0
49 -1685 -4445 0
49 -4445 4446 1686 0
49 4445 -1686 0
49 -1686 -4446 0
49 -4446 4447 1687 0
49 4446 -1687 0
49 -1687 -4447 0
49 -4447 4448 1688 0
49 4447 -1688 0
49 -1688 -4448 0
49 -4448 4449 1689 0
49 4448 -1689 0
49 -1689 -4449 0
49 -4449 4450 1690 0
49 4449 -1690 0
49 -1690 -4450 0
49 -4450 4451 1691 0
49 4450 -1691 0
49 -1691 -4451 0
49 -4451 4452 1692 0
49 4451 -1692 0
49 -1692 -4452 0
49 -4452 4444 0
49 -4444 4452 0
49 1693 0
49 1694 0
49 1695 0
49 1696 0
49 1697 1698 0
49 -1697 -1698 0
49 1699 1700 0
49 -1699 -1700 0
49 1701 1702 1703 1704 1705 1706 1707 1708 0
49 -4455 4454 0
49 -4456 4455 0
49 -4457 4456 0
49 -4458 4457 0
49 -4459 4458 0
49 -4460 4459 0
49 -4461 4460 0
49 4454 1701 0
49 -1701 -4454 0
49 -4454 4455 1702 0
49 4454 -1702 0
49 -1702 -4455 0
49 -4455 4456 1703 0
49 4455 -1703 0
49 -1703 -4456 0
49 -4456 4457 1704 0
49 4456 -1704 0
49 -1704 -4457 0
49 -4457 4458 1705 0
49 4457 -1705 0
49 -1705 -4458 0
49 -4458 4459 1706 0
49 4458 -1706 0
49 -1706 -4459 0
49 -4459 4460 1707 0
49 4459 -1707 0
49 -1707 -4460 0
49 -4460 4461 1708 0
49 4460 -1708 0
49 -1708 -4461 0
49 -4461 4453 0
49 -4453 4461 0
49 1709 1710 1711 1712 1713 1714 1715 1716 0
49 -4464 4463 0
49 -4465 4464 0
49 -4466 4465 0
49 -4467 4466 0
49 -4468 4467 0
49 -4469 4468 0
49 -4470 4469 0
49 4463 1709 0
49 -1709 -4463 0
49 -4463 4464 1710 0
49 4463 -1710 0
49 -1710 -4464 0
49 -4464 4465 1711 0
49 4464 -1711 0
49 -1711 -4465 0
49 -4465 4466 1712 0
49 4465 -1712 0
49 -1712 -4466 0
49 -4466 4467 1713 0
49 4466 -1713 0
49 -1713 -4467 0
49 -4467 4468 1714 0
49 4467 -1714 0
49 -1714 -4468 0
49 -4468 4469 1715 0
49 4468 -1715 0
49 -1715 -4469 0
49 -4469 4470 1716 0
49 4469 -1716 0
49 -1716 -4470 0
49 -4470 4462 0
49 -4462 4470 0
49 1717 0
49 1718 0
49 1719 0
49 1720 0
49 1721 0
49 1722 0
49 1723 0
49 1724 0
49 1725 0
49 1726 0
49 1727 0
49 1728 0
49 1729 1730 1731 1732 1733 1734 1735 1736 0
49 -4473 4472 0
49 -4474 4473 0
49 -4475 4474 0
49 -4476 4475 0
49 -4477 4476 0
49 -4478 4477 0
49 -4479 4478 0
49 4472 1729 0
49 -1729 -4472 0
49 -4472 4473 1730 0
49 4472 -1730 0
49 -1730 -4473 0
49 -4473 4474 1731 0
49 4473 -1731 0
49 -1731 -4474 0
49 -4474 4475 1732 0
49 4474 -1732 0
49 -1732 -4475 0
49 -4475 4476 1733 0
49 4475 -1733 0
49 -1733 -4476 0
49 -4476 4477 1734 0
49 4476 -1734 0
49 -1734 -4477 0
49 -4477 4478 1735 0
49 4477 -1735 0
49 -1735 -4478 0
49 -4478 4479 1736 0
49 4478 -1736 0
49 -1736 -4479 0
49 -4479 4471 0
49 -4471 4479 0
49 1737 1738 1739 1740 1741 1742 1743 1744 0
49 -4482 4481 0
49 -4483 4482 0
49 -4484 4483 0
49 -4485 4484 0
49 -4486 4485 0
49 -4487 4486 0
49 -4488 4487 0
49 4481 1737 0
49 -1737 -4481 0
49 -4481 4482 1738 0
49 4481 -1738 0
49 -1738 -4482 0
49 -4482 4483 1739 0
49 4482 -1739 0
49 -1739 -4483 0
49 -4483 4484 1740 0
49 4483 -1740 0
49 -1740 -4484 0
49 -4484 4485 1741 0
49 4484 -1741 0
49 -1741 -4485 0
49 -4485 4486 1742 0
49 4485 -1742 0
49 -1742 -4486 0
49 -4486 4487 1743 0
49 4486 -1743 0
49 -1743 -4487 0
49 -4487 4488 1744 0
49 4487 -1744 0
49 -1744 -4488 0
49 -4488 4480 0
49 -4480 4488 0
49 1745 0
49 1746 0
49 1747 0
49 1748 0
49 1749 1750 1751 1752 1753 1754 1755 1756 0
49 -4491 4490 0
49 -4492 4491 0
49 -4493 4492 0
49 -4494 4493 0
49 -4495 4494 0
49 -4496 4495 0
49 -4497 4496 0
49 4490 1749 0
49 -1749 -4490 0
49 -4490 4491 1750 0
49 4490 -1750 0
49 -1750 -4491 0
49 -4491 4492 1751 0
49 4491 -1751 0
49 -1751 -4492 0
49 -4492 4493 1752 0
49 4492 -1752 0
49 -1752 -4493 0
49 -4493 4494 1753 0
49 4493 -1753 0
49 -1753 -4494 0
49 -4494 4495 1754 0
49 4494 -1754 0
49 -1754 -4495 0
49 -4495 4496 1755 0
49 4495 -1755 0
49 -1755 -4496 0
49 -4496 4497 1756 0
49 4496 -1756 0
49 -1756 -4497 0
49 -4497 4489 0
49 -4489 4497 0
49 1757 1758 1759 1760 1761 1762 1763 1764 0
49 -4500 4499 0
49 -4501 4500 0
49 -4502 4501 0
49 -4503 4502 0
49 -4504 4503 0
49 -4505 4504 0
49 -4506 4505 0
49 4499 1757 0
49 -1757 -4499 0
49 -4499 4500 1758 0
49 4499 -1758 0
49 -1758 -4500 0
49 -4500 4501 1759 0
49 4500 -1759 0
49 -1759 -4501 0
49 -4501 4502 1760 0
49 4501 -1760 0
49 -1760 -4502 0
49 -4502 4503 1761 0
49 4502 -1761 0
49 -1761 -4503 0
49 -4503 4504 1762 0
49 4503 -1762 0
49 -1762 -4504 0
49 -4504 4505 1763 0
49 4504 -1763 0
49 -1763 -4505 0
49 -4505 4506 1764 0
49 4505 -1764 0
49 -1764 -4506 0
49 -4506 4498 0
49 -4498 4506 0
49 1765 0
49 1766 0
49 1767 0
49 1768 0
49 1769 1770 0
49 -1769 -1770 0
49 1771 1772 0
49 -1771 -1772 0
49 1773 0
49 1774 0
49 1775 0
49 1776 0
49 1777 1778 1779 1780 1781 1782 1783 1784 1785 0
49 -4509 4508 0
49 -4510 4509 0
49 -4511 4510 0
49 -4512 4511 0
49 -4513 4512 0
49 -4514 4513 0
49 -4515 4514 0
49 -4516 4515 0
49 4508 1777 0
49 -1777 -4508 0
49 -4508 4509 1778 0
49 4508 -1778 0
49 -1778 -4509 0
49 -4509 4510 1779 0
49 4509 -1779 0
49 -1779 -4510 0
49 -4510 4511 1780 0
49 4510 -1780 0
49 -1780 -4511 0
49 -4511 4512 1781 0
49 4511 -1781 0
49 -1781 -4512 0
49 -4512 4513 1782 0
49 4512 -1782 0
49 -1782 -4513 0
49 -4513 4514 1783 0
49 4513 -1783 0
49 -1783 -4514 0
49 -4514 4515 1784 0
49 4514 -1784 0
49 -1784 -4515 0
49 -4515 4516 1785 0
49 4515 -1785 0
49 -1785 -4516 0
49 -4516 4507 0
49 -4507 4516 0
49 1786 1787 1788 1789 1790 1791 1792 1793 1794 0
49 -4519 4518 0
49 -4520 4519 0
49 -4521 4520 0
49 -4522 4521 0
49 -4523 4522 0
49 -4524 4523 0
49 -4525 4524 0
49 -4526 4525 0
49 4518 1786 0
49 -1786 -4518 0
49 -4518 4519 1787 0
49 4518 -1787 0
49 -1787 -4519 0
49 -4519 4520 1788 0
49 4519 -1788 0
49 -1788 -4520 0
49 -4520 4521 1789 0
49 4520 -1789 0
49 -1789 -4521 0
49 -4521 4522 1790 0
49 4521 -1790 0
49 -1790 -4522 0
49 -4522 4523 1791 0
49 4522 -1791 0
49 -1791 -4523 0
49 -4523 4524 1792 0
49 4523 -1792 0
49 -1792 -4524 0
49 -4524 4525 1793 0
49 4524 -1793 0
49 -1793 -4525 0
49 -4525 4526 1794 0
49 4525 -1794 0
49 -1794 -4526 0
49 -4526 4517 0
49 -4517 4526 0
49 1795 1796 1797 1798 1799 0
49 -4529 4528 0
49 -4530 4529 0
49 -4531 4530 0
49 -4532 4531 0
49 4528 1795 0
49 -1795 -4528 0
49 -4528 4529 1796 0
49 4528 -1796 0
49 -1796 -4529 0
49 -4529 4530 1797 0
49 4529 -1797 0
49 -1797 -4530 0
49 -4530 4531 1798 0
49 4530 -1798 0
49 -1798 -4531 0
49 -4531 4532 1799 0
49 4531 -1799 0
49 -1799 -4532 0
49 -4532 4527 0
49 -4527 4532 0
49 1800 1801 1802 1803 1804 0
49 -4535 4534 0
49 -4536 4535 0
49 -4537 4536 0
49 -4538 4537 0
49 4534 1800 0
49 -1800 -4534 0
49 -4534 4535 1801 0
49 4534 -1801 0
49 -1801 -4535 0
49 -4535 4536 1802 0
49 4535 -1802 0
49 -1802 -4536 0
49 -4536 4537 1803 0
49 4536 -1803 0
49 -1803 -4537 0
49 -4537 4538 1804 0
49 4537 -1804 0
49 -1804 -4538 0
49 -4538 4533 0
49 -4533 4538 0
49 1805 1806 0
49 -1805 -1806 0
49 1807 1808 0
49 -1807 -1808 0
49 1809 0
49 1810 0
49 1811 0
49 1812 0
49 1813 0
49 1814 0
49 1815 0
49 1816 0
49 1817 1818 1819 1820 1821 1822 1823 1824 1825 1826 1827 0
49 -4541 4540 0
49 -4542 4541 0
49 -4543 4542 0
49 -4544 4543 0
49 -4545 4544 0
49 -4546 4545 0
49 -4547 4546 0
49 -4548 4547 0
49 -4549 4548 0
49 -4550 4549 0
49 4540 1817 0
49 -1817 -4540 0
49 -4540 4541 1818 0
49 4540 -1818 0
49 -1818 -4541 0
49 -4541 4542 1819 0
49 4541 -1819 0
49 -1819 -4542 0
49 -4542 4543 1820 0
49 4542 -1820 0
49 -1820 -4543 0
49 -4543 4544 1821 0
49 4543 -1821 0
49 -1821 -4544 0
49 -4544 4545 1822 0
49 4544 -1822 0
49 -1822 -4545 0
49 -4545 4546 1823 0
49 4545 -1823 0
49 -1823 -4546 0
49 -4546 4547 1824 0
49 4546 -1824 0
49 -1824 -4547 0
49 -4547 4548 1825 0
49 4547 -1825 0
49 -1825 -4548 0
49 -4548 4549 1826 0
49 4548 -1826 0
49 -1826 -4549 0
49 -4549 4550 1827 0
49 4549 -1827 0
49 -1827 -4550 0
49 -4550 4539 0
49 -4539 4550 0
49 1828 1829 1830 1831 1832 1833 1834 1835 1836 1837 1838 0
49 -4553 4552 0
49 -4554 4553 0
49 -4555 4554 0
49 -4556 4555 0
49 -4557 4556 0
49 -4558 4557 0
49 -4559 4558 0
49 -4560 4559 0
49 -4561 4560 0
49 -4562 4561 0
49 4552 1828 0
49 -1828 -4552 0
49 -4552 4553 1829 0
49 4552 -1829 0
49 -1829 -4553 0
49 -4553 4554 1830 0
49 4553 -1830 0
49 -1830 -4554 0
49 -4554 4555 1831 0
49 4554 -1831 0
49 -1831 -4555 0
49 -4555 4556 1832 0
49 4555 -1832 0
49 -1832 -4556 0
49 -4556 4557 1833 0
49 4556 -1833 0
49 -1833 -4557 0
49 -4557 4558 1834 0
49 4557 -1834 0
49 -1834 -4558 0
49 -4558 4559 1835 0
49 4558 -1835 0
49 -1835 -4559 0
49 -4559 4560 1836 0
49 4559 -1836 0
49 -1836 -4560 0
49 -4560 4561 1837 0
49 4560 -1837 0
49 -1837 -4561 0
49 -4561 4562 1838 0
49 4561 -1838 0
49 -1838 -4562 0
49 -4562 4551 0
49 -4551 4562 0
49 1839 0
49 1840 0
49 1841 0
49 1842 0
49 1843 0
49 1844 0
49 1845 0
49 1846 0
49 1847 0
49 1848 0
49 1849 1850 1851 1852 1853 1854 1855 1856 0
49 -4565 4564 0
49 -4566 4565 0
49 -4567 4566 0
49 -4568 4567 0
49 -4569 4568 0
49 -4570 4569 0
49 -4571 4570 0
49 4564 1849 0
49 -1849 -4564 0
49 -4564 4565 1850 0
49 4564 -1850 0
49 -1850 -4565 0
49 -4565 4566 1851 0
49 4565 -1851 0
49 -1851 -4566 0
49 -4566 4567 1852 0
49 4566 -1852 0
49 -1852 -4567 0
49 -4567 4568 1853 0
49 4567 -1853 0
49 -1853 -4568 0
49 -4568 4569 1854 0
49 4568 -1854 0
49 -1854 -4569 0
49 -4569 4570 1855 0
49 4569 -1855 0
49 -1855 -4570 0
49 -4570 4571 1856 0
49 4570 -1856 0
49 -1856 -4571 0
49 -4571 4563 0
49 -4563 4571 0
49 1857 1858 1859 1860 1861 1862 1863 1864 0
49 -4574 4573 0
49 -4575 4574 0
49 -4576 4575 0
49 -4577 4576 0
49 -4578 4577 0
49 -4579 4578 0
49 -4580 4579 0
49 4573 1857 0
49 -1857 -4573 0
49 -4573 4574 1858 0
49 4573 -1858 0
49 -1858 -4574 0
49 -4574 4575 1859 0
49 4574 -1859 0
49 -1859 -4575 0
49 -4575 4576 1860 0
49 4575 -1860 0
49 -1860 -4576 0
49 -4576 4577 1861 0
49 4576 -1861 0
49 -1861 -4577 0
49 -4577 4578 1862 0
49 4577 -1862 0
49 -1862 -4578 0
49 -4578 4579 1863 0
49 4578 -1863 0
49 -1863 -4579 0
49 -4579 4580 1864 0
49 4579 -1864 0
49 -1864 -4580 0
49 -4580 4572 0
49 -4572 4580 0
49 1865 0
49 1866 0
49 1867 1868 1869 0
49 -4583 4582 0
49 -4584 4583 0
49 4582 1867 0
49 -1867 -4582 0
49 -4582 4583 1868 0
49 4582 -1868 0
49 -1868 -4583 0
49 -4583 4584 1869 0
49 4583 -1869 0
49 -1869 -4584 0
49 -4584 4581 0
49 -4581 4584 0
49 1870 1871 1872 0
49 -4587 4586 0
49 -4588 4587 0
49 4586 1870 0
49 -1870 -4586 0
49 -4586 4587 1871 0
49 4586 -1871 0
49 -1871 -4587 0
49 -4587 4588 1872 0
49 4587 -1872 0
49 -1872 -4588 0
49 -4588 4585 0
49 -4585 4588 0
49 1873 0
49 1874 0
49 1875 0
49 1876 0
49 1877 0
49 1878 0
49 1879 0
49 1880 0
49 1881 1882 1883 0
49 -4591 4590 0
49 -4592 4591 0
49 4590 1881 0
49 -1881 -4590 0
49 -4590 4591 1882 0
49 4590 -1882 0
49 -1882 -4591 0
49 -4591 4592 1883 0
49 4591 -1883 0
49 -1883 -4592 0
49 -4592 4589 0
49 -4589 4592 0
49 1884 1885 1886 0
49 -4595 4594 0
49 -4596 4595 0
49 4594 1884 0
49 -1884 -4594 0
49 -4594 4595 1885 0
49 4594 -1885 0
49 -1885 -4595 0
49 -4595 4596 1886 0
49 4595 -1886 0
49 -1886 -4596 0
49 -4596 4593 0
49 -4593 4596 0
49 1887 0
49 1888 0
49 1889 0
49 1890 0
49 1891 0
49 1892 0
49 1893 0
49 1894 0
49 1895 0
49 1896 0
49 1897 0
49 1898 0
49 1899 0
49 1900 0
49 1901 0
49 1902 0
49 1903 0
49 1904 0
49 1905 0
49 1906 0
49 1907 0
49 1908 0
49 1909 1910 1911 1912 1913 1914 1915 1916 1917 1918 1919 0
49 -4599 4598 0
49 -4600 4599 0
49 -4601 4600 0
49 -4602 4601 0
49 -4603 4602 0
49 -4604 4603 0
49 -4605 4604 0
49 -4606 4605 0
49 -4607 4606 0
49 -4608 4607 0
49 4598 1909 0
49 -1909 -4598 0
49 -4598 4599 1910 0
49 4598 -1910 0
49 -1910 -4599 0
49 -4599 4600 1911 0
49 4599 -1911 0
49 -1911 -4600 0
49 -4600 4601 1912 0
49 4600 -1912 0
49 -1912 -4601 0
49 -4601 4602 1913 0
49 4601 -1913 0
49 -1913 -4602 0
49 -4602 4603 1914 0
49 4602 -1914 0
49 -1914 -4603 0
49 -4603 4604 1915 0
49 4603 -1915 0
49 -1915 -4604 0
49 -4604 4605 1916 0
49 4604 -1916 0
49 -1916 -4605 0
49 -4605 4606 1917 0
49 4605 -1917 0
49 -1917 -4606 0
49 -4606 4607 1918 0
49 4606 -1918 0
49 -1918 -4607 0
49 -4607 4608 1919 0
49 4607 -1919 0
49 -1919 -4608 0
49 -4608 4597 0
49 -4597 4608 0
49 1920 1921 1922 1923 1924 1925 1926 1927 1928 1929 1930 0
49 -4611 4610 0
49 -4612 4611 0
49 -4613 4612 0
49 -4614 4613 0
49 -4615 4614 0
49 -4616 4615 0
49 -4617 4616 0
49 -4618 4617 0
49 -4619 4618 0
49 -4620 4619 0
49 4610 1920 0
49 -1920 -4610 0
49 -4610 4611 1921 0
49 4610 -1921 0
49 -1921 -4611 0
49 -4611 4612 1922 0
49 4611 -1922 0
49 -1922 -4612 0
49 -4612 4613 1923 0
49 4612 -1923 0
49 -1923 -4613 0
49 -4613 4614 1924 0
49 4613 -1924 0
49 -1924 -4614 0
49 -4614 4615 1925 0
49 4614 -1925 0
49 -1925 -4615 0
49 -4615 4616 1926 0
49 4615 -1926 0
49 -1926 -4616 0
49 -4616 4617 1927 0
49 4616 -1927 0
49 -1927 -4617 0
49 -4617 4618 1928 0
49 4617 -1928 0
49 -1928 -4618 0
49 -4618 4619 1929 0
49 4618 -1929 0
49 -1929 -4619 0
49 -4619 4620 1930 0
49 4619 -1930 0
49 -1930 -4620 0
49 -4620 4609 0
49 -4609 4620 0
49 1931 0
49 1932 0
49 1933 0
49 1934 0
49 1935 0
49 1936 0
49 1937 0
49 1938 0
49 1939 0
49 1940 0
49 1941 0
49 1942 0
49 1943 1944 1945 1946 1947 0
49 -4623 4622 0
49 -4624 4623 0
49 -4625 4624 0
49 -4626 4625 0
49 4622 1943 0
49 -1943 -4622 0
49 -4622 4623 1944 0
49 4622 -1944 0
49 -1944 -4623 0
49 -4623 4624 1945 0
49 4623 -1945 0
49 -1945 -4624 0
49 -4624 4625 1946 0
49 4624 -1946 0
49 -1946 -4625 0
49 -4625 4626 1947 0
49 4625 -1947 0
49 -1947 -4626 0
49 -4626 4621 0
49 -4621 4626 0
49 1948 1949 1950 1951 1952 0
49 -4629 4628 0
49 -4630 4629 0
49 -4631 4630 0
49 -4632 4631 0
49 4628 1948 0
49 -1948 -4628 0
49 -4628 4629 1949 0
49 4628 -1949 0
49 -1949 -4629 0
49 -4629 4630 1950 0
49 4629 -1950 0
49 -1950 -4630 0
49 -4630 4631 1951 0
49 4630 -1951 0
49 -1951 -4631 0
49 -4631 4632 1952 0
49 4631 -1952 0
49 -1952 -4632 0
49 -4632 4627 0
49 -4627 4632 0
49 1953 1954 1955 1956 1957 1958 1959 1960 0
49 -4635 4634 0
49 -4636 4635 0
49 -4637 4636 0
49 -4638 4637 0
49 -4639 4638 0
49 -4640 4639 0
49 -4641 4640 0
49 4634 1953 0
49 -1953 -4634 0
49 -4634 4635 1954 0
49 4634 -1954 0
49 -1954 -4635 0
49 -4635 4636 1955 0
49 4635 -1955 0
49 -1955 -4636 0
49 -4636 4637 1956 0
49 4636 -1956 0
49 -1956 -4637 0
49 -4637 4638 1957 0
49 4637 -1957 0
49 -1957 -4638 0
49 -4638 4639 1958 0
49 4638 -1958 0
49 -1958 -4639 0
49 -4639 4640 1959 0
49 4639 -1959 0
49 -1959 -4640 0
49 -4640 4641 1960 0
49 4640 -1960 0
49 -1960 -4641 0
49 -4641 4633 0
49 -4633 4641 0
49 1961 1962 1963 1964 1965 1966 1967 1968 0
49 -4644 4643 0
49 -4645 4644 0
49 -4646 4645 0
49 -4647 4646 0
49 -4648 4647 0
49 -4649 4648 0
49 -4650 4649 0
49 4643 1961 0
49 -1961 -4643 0
49 -4643 4644 1962 0
49 4643 -1962 0
49 -1962 -4644 0
49 -4644 4645 1963 0
49 4644 -1963 0
49 -1963 -4645 0
49 -4645 4646 1964 0
49 4645 -1964 0
49 -1964 -4646 0
49 -4646 4647 1965 0
49 4646 -1965 0
49 -1965 -4647 0
49 -4647 4648 1966 0
49 4647 -1966 0
49 -1966 -4648 0
49 -4648 4649 1967 0
49 4648 -1967 0
49 -1967 -4649 0
49 -4649 4650 1968 0
49 4649 -1968 0
49 -1968 -4650 0
49 -4650 4642 0
49 -4642 4650 0
49 1969 1970 1971 0
49 -4653 4652 0
49 -4654 4653 0
49 4652 1969 0
49 -1969 -4652 0
49 -4652 4653 1970 0
49 4652 -1970 0
49 -1970 -4653 0
49 -4653 4654 1971 0
49 4653 -1971 0
49 -1971 -4654 0
49 -4654 4651 0
49 -4651 4654 0
49 1972 1973 1974 0
49 -4657 4656 0
49 -4658 4657 0
49 4656 1972 0
49 -1972 -4656 0
49 -4656 4657 1973 0
49 4656 -1973 0
49 -1973 -4657 0
49 -4657 4658 1974 0
49 4657 -1974 0
49 -1974 -4658 0
49 -4658 4655 0
49 -4655 4658 0
49 1975 0
49 1976 0
49 1977 0
49 1978 0
49 1979 1980 1981 1982 1983 1984 1985 1986 0
49 -4661 4660 0
49 -4662 4661 0
49 -4663 4662 0
49 -4664 4663 0
49 -4665 4664 0
49 -4666 4665 0
49 -4667 4666 0
49 4660 1979 0
49 -1979 -4660 0
49 -4660 4661 1980 0
49 4660 -1980 0
49 -1980 -4661 0
49 -4661 4662 1981 0
49 4661 -1981 0
49 -1981 -4662 0
49 -4662 4663 1982 0
49 4662 -1982 0
49 -1982 -4663 0
49 -4663 4664 1983 0
49 4663 -1983 0
49 -1983 -4664 0
49 -4664 4665 1984 0
49 4664 -1984 0
49 -1984 -4665 0
49 -4665 4666 1985 0
49 4665 -1985 0
49 -1985 -4666 0
49 -4666 4667 1986 0
49 4666 -1986 0
49 -1986 -4667 0
49 -4667 4659 0
49 -4659 4667 0
49 1987 1988 1989 1990 1991 1992 1993 1994 0
49 -4670 4669 0
49 -4671 4670 0
49 -4672 4671 0
49 -4673 4672 0
49 -4674 4673 0
49 -4675 4674 0
49 -4676 4675 0
49 4669 1987 0
49 -1987 -4669 0
49 -4669 4670 1988 0
49 4669 -1988 0
49 -1988 -4670 0
49 -4670 4671 1989 0
49 4670 -1989 0
49 -1989 -4671 0
49 -4671 4672 1990 0
49 4671 -1990 0
49 -1990 -4672 0
49 -4672 4673 1991 0
49 4672 -1991 0
49 -1991 -4673 0
49 -4673 4674 1992 0
49 4673 -1992 0
49 -1992 -4674 0
49 -4674 4675 1993 0
49 4674 -1993 0
49 -1993 -4675 0
49 -4675 4676 1994 0
49 4675 -1994 0
49 -1994 -4676 0
49 -4676 4668 0
49 -4668 4676 0
49 1995 0
49 1996 0
49 1997 1998 1999 2000 2001 2002 2003 2004 2005 2006 2007 2008 2009 2010 0
49 -4679 4678 0
49 -4680 4679 0
49 -4681 4680 0
49 -4682 4681 0
49 -4683 4682 0
49 -4684 4683 0
49 -4685 4684 0
49 -4686 4685 0
49 -4687 4686 0
49 -4688 4687 0
49 -4689 4688 0
49 -4690 4689 0
49 -4691 4690 0
49 4678 1997 0
49 -1997 -4678 0
49 -4678 4679 1998 0
49 4678 -1998 0
49 -1998 -4679 0
49 -4679 4680 1999 0
49 4679 -1999 0
49 -1999 -4680 0
49 -4680 4681 2000 0
49 4680 -2000 0
49 -2000 -4681 0
49 -4681 4682 2001 0
49 4681 -2001 0
49 -2001 -4682 0
49 -4682 4683 2002 0
49 4682 -2002 0
49 -2002 -4683 0
49 -4683 4684 2003 0
49 4683 -2003 0
49 -2003 -4684 0
49 -4684 4685 2004 0
49 4684 -2004 0
49 -2004 -4685 0
49 -4685 4686 2005 0
49 4685 -2005 0
49 -2005 -4686 0
49 -4686 4687 2006 0
49 4686 -2006 0
49 -2006 -4687 0
49 -4687 4688 2007 0
49 4687 -2007 0
49 -2007 -4688 0
49 -4688 4689 2008 0
49 4688 -2008 0
49 -2008 -4689 0
49 -4689 4690 2009 0
49 4689 -2009 0
49 -2009 -4690 0
49 -4690 4691 2010 0
49 4690 -2010 0
49 -2010 -4691 0
49 -4691 4677 0
49 -4677 4691 0
49 2011 2012 2013 2014 2015 2016 2017 2018 2019 2020 2021 2022 2023 2024 0
49 -4694 4693 0
49 -4695 4694 0
49 -4696 4695 0
49 -4697 4696 0
49 -4698 4697 0
49 -4699 4698 0
49 -4700 4699 0
49 -4701 4700 0
49 -4702 4701 0
49 -4703 4702 0
49 -4704 4703 0
49 -4705 4704 0
49 -4706 4705 0
49 4693 2011 0
49 -2011 -4693 0
49 -4693 4694 2012 0
49 4693 -2012 0
49 -2012 -4694 0
49 -4694 4695 2013 0
49 4694 -2013 0
49 -2013 -4695 0
49 -4695 4696 2014 0
49 4695 -2014 0
49 -2014 -4696 0
49 -4696 4697 2015 0
49 4696 -2015 0
49 -2015 -4697 0
49 -4697 4698 2016 0
49 4697 -2016 0
49 -2016 -4698 0
49 -4698 4699 2017 0
49 4698 -2017 0
49 -2017 -4699 0
49 -4699 4700 2018 0
49 4699 -2018 0
49 -2018 -4700 0
49 -4700 4701 2019 0
49 4700 -2019 0
49 -2019 -4701 0
49 -4701 4702 2020 0
49 4701 -2020 0
49 -2020 -4702 0
49 -4702 4703 2021 0
49 4702 -2021 0
49 -2021 -4703 0
49 -4703 4704 2022 0
49 4703 -2022 0
49 -2022 -4704 0
49 -4704 4705 2023 0
49 4704 -2023 0
49 -2023 -4705 0
49 -4705 4706 2024 0
49 4705 -2024 0
49 -2024 -4706 0
49 -4706 4692 0
49 -4692 4706 0
49 2025 0
49 2026 0
49 2027 2028 2029 2030 2031 2032 2033 2034 0
49 -4709 4708 0
49 -4710 4709 0
49 -4711 4710 0
49 -4712 4711 0
49 -4713 4712 0
49 -4714 4713 0
49 -4715 4714 0
49 4708 2027 0
49 -2027 -4708 0
49 -4708 4709 2028 0
49 4708 -2028 0
49 -2028 -4709 0
49 -4709 4710 2029 0
49 4709 -2029 0
49 -2029 -4710 0
49 -4710 4711 2030 0
49 4710 -2030 0
49 -2030 -4711 0
49 -4711 4712 2031 0
49 4711 -2031 0
49 -2031 -4712 0
49 -4712 4713 2032 0
49 4712 -2032 0
49 -2032 -4713 0
49 -4713 4714 2033 0
49 4713 -2033 0
49 -2033 -4714 0
49 -4714 4715 2034 0
49 4714 -2034 0
49 -2034 -4715 0
49 -4715 4707 0
49 -4707 4715 0
49 2035 2036 2037 2038 2039 2040 2041 2042 0
49 -4718 4717 0
49 -4719 4718 0
49 -4720 4719 0
49 -4721 4720 0
49 -4722 4721 0
49 -4723 4722 0
49 -4724 4723 0
49 4717 2035 0
49 -2035 -4717 0
49 -4717 4718 2036 0
49 4717 -2036 0
49 -2036 -4718 0
49 -4718 4719 2037 0
49 4718 -2037 0
49 -2037 -4719 0
49 -4719 4720 2038 0
49 4719 -2038 0
49 -2038 -4720 0
49 -4720 4721 2039 0
49 4720 -2039 0
49 -2039 -4721 0
49 -4721 4722 2040 0
49 4721 -2040 0
49 -2040 -4722 0
49 -4722 4723 2041 0
49 4722 -2041 0
49 -2041 -4723 0
49 -4723 4724 2042 0
49 4723 -2042 0
49 -2042 -4724 0
49 -4724 4716 0
49 -4716 4724 0
49 2043 0
49 2044 0
49 2045 2046 2047 2048 0
49 -4727 4726 0
49 -4728 4727 0
49 -4729 4728 0
49 4726 2045 0
49 -2045 -4726 0
49 -4726 4727 2046 0
49 4726 -2046 0
49 -2046 -4727 0
49 -4727 4728 2047 0
49 4727 -2047 0
49 -2047 -4728 0
49 -4728 4729 2048 0
49 4728 -2048 0
49 -2048 -4729 0
49 -4729 4725 0
49 -4725 4729 0
49 2049 2050 2051 2052 0
49 -4732 4731 0
49 -4733 4732 0
49 -4734 4733 0
49 4731 2049 0
49 -2049 -4731 0
49 -4731 4732 2050 0
49 4731 -2050 0
49 -2050 -4732 0
49 -4732 4733 2051 0
49 4732 -2051 0
49 -2051 -4733 0
49 -4733 4734 2052 0
49 4733 -2052 0
49 -2052 -4734 0
49 -4734 4730 0
49 -4730 4734 0
49 2053 0
49 2054 0
49 2055 0
49 2056 0
49 2057 0
49 2058 0
49 2059 0
49 2060 0
49 2061 0
49 2062 0
49 2063 0
49 2064 0
49 2065 2066 2067 2068 2069 2070 2071 2072 2073 0
49 -4737 4736 0
49 -4738 4737 0
49 -4739 4738 0
49 -4740 4739 0
49 -4741 4740 0
49 -4742 4741 0
49 -4743 4742 0
49 -4744 4743 0
49 4736 2065 0
49 -2065 -4736 0
49 -4736 4737 2066 0
49 4736 -2066 0
49 -2066 -4737 0
49 -4737 4738 2067 0
49 4737 -2067 0
49 -2067 -4738 0
49 -4738 4739 2068 0
49 4738 -2068 0
49 -2068 -4739 0
49 -4739 4740 2069 0
49 4739 -2069 0
49 -2069 -4740 0
49 -4740 4741 2070 0
49 4740 -2070 0
49 -2070 -4741 0
49 -4741 4742 2071 0
49 4741 -2071 0
49 -2071 -4742 0
49 -4742 4743 2072 0
49 4742 -2072 0
49 -2072 -4743 0
49 -4743 4744 2073 0
49 4743 -2073 0
49 -2073 -4744 0
49 -4744 4735 0
49 -4735 4744 0
49 2074 2075 2076 2077 2078 2079 2080 2081 2082 0
49 -4747 4746 0
49 -4748 4747 0
49 -4749 4748 0
49 -4750 4749 0
49 -4751 4750 0
49 -4752 4751 0
49 -4753 4752 0
49 -4754 4753 0
49 4746 2074 0
49 -2074 -4746 0
49 -4746 4747 2075 0
49 4746 -2075 0
49 -2075 -4747 0
49 -4747 4748 2076 0
49 4747 -2076 0
49 -2076 -4748 0
49 -4748 4749 2077 0
49 4748 -2077 0
49 -2077 -4749 0
49 -4749 4750 2078 0
49 4749 -2078 0
49 -2078 -4750 0
49 -4750 4751 2079 0
49 4750 -2079 0
49 -2079 -4751 0
49 -4751 4752 2080 0
49 4751 -2080 0
49 -2080 -4752 0
49 -4752 4753 2081 0
49 4752 -2081 0
49 -2081 -4753 0
49 -4753 4754 2082 0
49 4753 -2082 0
49 -2082 -4754 0
49 -4754 4745 0
49 -4745 4754 0
49 2083 0
49 2084 0
49 2085 0
49 2086 0
49 2087 2088 2089 2090 2091 2092 2093 2094 0
49 -4757 4756 0
49 -4758 4757 0
49 -4759 4758 0
49 -4760 4759 0
49 -4761 4760 0
49 -4762 4761 0
49 -4763 4762 0
49 4756 2087 0
49 -2087 -4756 0
49 -4756 4757 2088 0
49 4756 -2088 0
49 -2088 -4757 0
49 -4757 4758 2089 0
49 4757 -2089 0
49 -2089 -4758 0
49 -4758 4759 2090 0
49 4758 -2090 0
49 -2090 -4759 0
49 -4759 4760 2091 0
49 4759 -2091 0
49 -2091 -4760 0
49 -4760 4761 2092 0
49 4760 -2092 0
49 -2092 -4761 0
49 -4761 4762 2093 0
49 4761 -2093 0
49 -2093 -4762 0
49 -4762 4763 2094 0
49 4762 -2094 0
49 -2094 -4763 0
49 -4763 4755 0
49 -4755 4763 0
49 2095 2096 2097 2098 2099 2100 2101 2102 0
49 -4766 4765 0
49 -4767 4766 0
49 -4768 4767 0
49 -4769 4768 0
49 -4770 4769 0
49 -4771 4770 0
49 -4772 4771 0
49 4765 2095 0
49 -2095 -4765 0
49 -4765 4766 2096 0
49 4765 -2096 0
49 -2096 -4766 0
49 -4766 4767 2097 0
49 4766 -2097 0
49 -2097 -4767 0
49 -4767 4768 2098 0
49 4767 -2098 0
49 -2098 -4768 0
49 -4768 4769 2099 0
49 4768 -2099 0
49 -2099 -4769 0
49 -4769 4770 2100 0
49 4769 -2100 0
49 -2100 -4770 0
49 -4770 4771 2101 0
49 4770 -2101 0
49 -2101 -4771 0
49 -4771 4772 2102 0
49 4771 -2102 0
49 -2102 -4772 0
49 -4772 4764 0
49 -4764 4772 0
49 2103 0
49 2104 0
49 2105 0
49 2106 0
49 2107 0
49 2108 0
49 2109 0
49 2110 0
49 2111 2112 2113 2114 2115 2116 2117 0
49 -4775 4774 0
49 -4776 4775 0
49 -4777 4776 0
49 -4778 4777 0
49 -4779 4778 0
49 -4780 4779 0
49 4774 2111 0
49 -2111 -4774 0
49 -4774 4775 2112 0
49 4774 -2112 0
49 -2112 -4775 0
49 -4775 4776 2113 0
49 4775 -2113 0
49 -2113 -4776 0
49 -4776 4777 2114 0
49 4776 -2114 0
49 -2114 -4777 0
49 -4777 4778 2115 0
49 4777 -2115 0
49 -2115 -4778 0
49 -4778 4779 2116 0
49 4778 -2116 0
49 -2116 -4779 0
49 -4779 4780 2117 0
49 4779 -2117 0
49 -2117 -4780 0
49 -4780 4773 0
49 -4773 4780 0
49 2118 2119 2120 2121 2122 2123 2124 0
49 -4783 4782 0
49 -4784 4783 0
49 -4785 4784 0
49 -4786 4785 0
49 -4787 4786 0
49 -4788 4787 0
49 4782 2118 0
49 -2118 -4782 0
49 -4782 4783 2119 0
49 4782 -2119 0
49 -2119 -4783 0
49 -4783 4784 2120 0
49 4783 -2120 0
49 -2120 -4784 0
49 -4784 4785 2121 0
49 4784 -2121 0
49 -2121 -4785 0
49 -4785 4786 2122 0
49 4785 -2122 0
49 -2122 -4786 0
49 -4786 4787 2123 0
49 4786 -2123 0
49 -2123 -4787 0
49 -4787 4788 2124 0
49 4787 -2124 0
49 -2124 -4788 0
49 -4788 4781 0
49 -4781 4788 0
49 2125 2126 2127 2128 0
49 -4791 4790 0
49 -4792 4791 0
49 -4793 4792 0
49 4790 2125 0
49 -2125 -4790 0
49 -4790 4791 2126 0
49 4790 -2126 0
49 -2126 -4791 0
49 -4791 4792 2127 0
49 4791 -2127 0
49 -2127 -4792 0
49 -4792 4793 2128 0
49 4792 -2128 0
49 -2128 -4793 0
49 -4793 4789 0
49 -4789 4793 0
49 2129 2130 2131 2132 0
49 -4796 4795 0
49 -4797 4796 0
49 -4798 4797 0
49 4795 2129 0
49 -2129 -4795 0
49 -4795 4796 2130 0
49 4795 -2130 0
49 -2130 -4796 0
49 -4796 4797 2131 0
49 4796 -2131 0
49 -2131 -4797 0
49 -4797 4798 2132 0
49 4797 -2132 0
49 -2132 -4798 0
49 -4798 4794 0
49 -4794 4798 0
49 2133 2134 2135 2136 2137 2138 2139 2140 0
49 -4801 4800 0
49 -4802 4801 0
49 -4803 4802 0
49 -4804 4803 0
49 -4805 4804 0
49 -4806 4805 0
49 -4807 4806 0
49 4800 2133 0
49 -2133 -4800 0
49 -4800 4801 2134 0
49 4800 -2134 0
49 -2134 -4801 0
49 -4801 4802 2135 0
49 4801 -2135 0
49 -2135 -4802 0
49 -4802 4803 2136 0
49 4802 -2136 0
49 -2136 -4803 0
49 -4803 4804 2137 0
49 4803 -2137 0
49 -2137 -4804 0
49 -4804 4805 2138 0
49 4804 -2138 0
49 -2138 -4805 0
49 -4805 4806 2139 0
49 4805 -2139 0
49 -2139 -4806 0
49 -4806 4807 2140 0
49 4806 -2140 0
49 -2140 -4807 0
49 -4807 4799 0
49 -4799 4807 0
49 2141 2142 2143 2144 2145 2146 2147 2148 0
49 -4810 4809 0
49 -4811 4810 0
49 -4812 4811 0
49 -4813 4812 0
49 -4814 4813 0
49 -4815 4814 0
49 -4816 4815 0
49 4809 2141 0
49 -2141 -4809 0
49 -4809 4810 2142 0
49 4809 -2142 0
49 -2142 -4810 0
49 -4810 4811 2143 0
49 4810 -2143 0
49 -2143 -4811 0
49 -4811 4812 2144 0
49 4811 -2144 0
49 -2144 -4812 0
49 -4812 4813 2145 0
49 4812 -2145 0
49 -2145 -4813 0
49 -4813 4814 2146 0
49 4813 -2146 0
49 -2146 -4814 0
49 -4814 4815 2147 0
49 4814 -2147 0
49 -2147 -4815 0
49 -4815 4816 2148 0
49 4815 -2148 0
49 -2148 -4816 0
49 -4816 4808 0
49 -4808 4816 0
49 2149 0
49 2150 0
49 2151 0
49 2152 0
49 2153 0
49 2154 0
49 2155 0
49 2156 0
49 2157 0
49 2158 0
49 2159 0
49 2160 0
49 2161 0
49 2162 0
49 2163 2164 2165 2166 2167 2168 2169 2170 0
49 -4819 4818 0
49 -4820 4819 0
49 -4821 4820 0
49 -4822 4821 0
49 -4823 4822 0
49 -4824 4823 0
49 -4825 4824 0
49 4818 2163 0
49 -2163 -4818 0
49 -4818 4819 2164 0
49 4818 -2164 0
49 -2164 -4819 0
49 -4819 4820 2165 0
49 4819 -2165 0
49 -2165 -4820 0
49 -4820 4821 2166 0
49 4820 -2166 0
49 -2166 -4821 0
49 -4821 4822 2167 0
49 4821 -2167 0
49 -2167 -4822 0
49 -4822 4823 2168 0
49 4822 -2168 0
49 -2168 -4823 0
49 -4823 4824 2169 0
49 4823 -2169 0
49 -2169 -4824 0
49 -4824 4825 2170 0
49 4824 -2170 0
49 -2170 -4825 0
49 -4825 4817 0
49 -4817 4825 0
49 2171 2172 2173 2174 2175 2176 2177 2178 0
49 -4828 4827 0
49 -4829 4828 0
49 -4830 4829 0
49 -4831 4830 0
49 -4832 4831 0
49 -4833 4832 0
49 -4834 4833 0
49 4827 2171 0
49 -2171 -4827 0
49 -4827 4828 2172 0
49 4827 -2172 0
49 -2172 -4828 0
49 -4828 4829 2173 0
49 4828 -2173 0
49 -2173 -4829 0
49 -4829 4830 2174 0
49 4829 -2174 0
49 -2174 -4830 0
49 -4830 4831 2175 0
49 4830 -2175 0
49 -2175 -4831 0
49 -4831 4832 2176 0
49 4831 -2176 0
49 -2176 -4832 0
49 -4832 4833 2177 0
49 4832 -2177 0
49 -2177 -4833 0
49 -4833 4834 2178 0
49 4833 -2178 0
49 -2178 -4834 0
49 -4834 4826 0
49 -4826 4834 0
49 2179 0
49 2180 0
49 2181 0
49 2182 0
49 2183 2184 2185 0
49 -4837 4836 0
49 -4838 4837 0
49 4836 2183 0
49 -2183 -4836 0
49 -4836 4837 2184 0
49 4836 -2184 0
49 -2184 -4837 0
49 -4837 4838 2185 0
49 4837 -2185 0
49 -2185 -4838 0
49 -4838 4835 0
49 -4835 4838 0
49 2186 2187 2188 0
49 -4841 4840 0
49 -4842 4841 0
49 4840 2186 0
49 -2186 -4840 0
49 -4840 4841 2187 0
49 4840 -2187 0
49 -2187 -4841 0
49 -4841 4842 2188 0
49 4841 -2188 0
49 -2188 -4842 0
49 -4842 4839 0
49 -4839 4842 0
49 2189 0
49 2190 0
49 2191 0
49 2192 0
49 2193 0
49 2194 0
49 2195 0
49 2196 0
49 2197 2198 2199 2200 2201 2202 0
49 -4845 4844 0
49 -4846 4845 0
49 -4847 4846 0
49 -4848 4847 0
49 -4849 4848 0
49 4844 2197 0
49 -2197 -4844 0
49 -4844 4845 2198 0
49 4844 -2198 0
49 -2198 -4845 0
49 -4845 4846 2199 0
49 4845 -2199 0
49 -2199 -4846 0
49 -4846 4847 2200 0
49 4846 -2200 0
49 -2200 -4847 0
49 -4847 4848 2201 0
49 4847 -2201 0
49 -2201 -4848 0
49 -4848 4849 2202 0
49 4848 -2202 0
49 -2202 -4849 0
49 -4849 4843 0
49 -4843 4849 0
49 2203 2204 2205 2206 2207 2208 0
49 -4852 4851 0
49 -4853 4852 0
49 -4854 4853 0
49 -4855 4854 0
49 -4856 4855 0
49 4851 2203 0
49 -2203 -4851 0
49 -4851 4852 2204 0
49 4851 -2204 0
49 -2204 -4852 0
49 -4852 4853 2205 0
49 4852 -2205 0
49 -2205 -4853 0
49 -4853 4854 2206 0
49 4853 -2206 0
49 -2206 -4854 0
49 -4854 4855 2207 0
49 4854 -2207 0
49 -2207 -4855 0
49 -4855 4856 2208 0
49 4855 -2208 0
49 -2208 -4856 0
49 -4856 4850 0
49 -4850 4856 0
49 2209 0
49 2210 0
49 2211 0
49 2212 0
49 2213 0
49 2214 0
49 2215 2216 2217 2218 2219 2220 2221 2222 0
49 -4859 4858 0
49 -4860 4859 0
49 -4861 4860 0
49 -4862 4861 0
49 -4863 4862 0
49 -4864 4863 0
49 -4865 4864 0
49 4858 2215 0
49 -2215 -4858 0
49 -4858 4859 2216 0
49 4858 -2216 0
49 -2216 -4859 0
49 -4859 4860 2217 0
49 4859 -2217 0
49 -2217 -4860 0
49 -4860 4861 2218 0
49 4860 -2218 0
49 -2218 -4861 0
49 -4861 4862 2219 0
49 4861 -2219 0
49 -2219 -4862 0
49 -4862 4863 2220 0
49 4862 -2220 0
49 -2220 -4863 0
49 -4863 4864 2221 0
49 4863 -2221 0
49 -2221 -4864 0
49 -4864 4865 2222 0
49 4864 -2222 0
49 -2222 -4865 0
49 -4865 4857 0
49 -4857 4865 0
49 2223 2224 2225 2226 2227 2228 2229 2230 0
49 -4868 4867 0
49 -4869 4868 0
49 -4870 4869 0
49 -4871 4870 0
49 -4872 4871 0
49 -4873 4872 0
49 -4874 4873 0
49 4867 2223 0
49 -2223 -4867 0
49 -4867 4868 2224 0
49 4867 -2224 0
49 -2224 -4868 0
49 -4868 4869 2225 0
49 4868 -2225 0
49 -2225 -4869 0
49 -4869 4870 2226 0
49 4869 -2226 0
49 -2226 -4870 0
49 -4870 4871 2227 0
49 4870 -2227 0
49 -2227 -4871 0
49 -4871 4872 2228 0
49 4871 -2228 0
49 -2228 -4872 0
49 -4872 4873 2229 0
49 4872 -2229 0
49 -2229 -4873 0
49 -4873 4874 2230 0
49 4873 -2230 0
49 -2230 -4874 0
49 -4874 4866 0
49 -4866 4874 0
49 2231 0
49 2232 0
49 2233 0
49 2234 0
49 2235 0
49 2236 0
49 2237 2238 2239 2240 2241 2242 2243 2244 0
49 -4877 4876 0
49 -4878 4877 0
49 -4879 4878 0
49 -4880 4879 0
49 -4881 4880 0
49 -4882 4881 0
49 -4883 4882 0
49 4876 2237 0
49 -2237 -4876 0
49 -4876 4877 2238 0
49 4876 -2238 0
49 -2238 -4877 0
49 -4877 4878 2239 0
49 4877 -2239 0
49 -2239 -4878 0
49 -4878 4879 2240 0
49 4878 -2240 0
49 -2240 -4879 0
49 -4879 4880 2241 0
49 4879 -2241 0
49 -2241 -4880 0
49 -4880 4881 2242 0
49 4880 -2242 0
49 -2242 -4881 0
49 -4881 4882 2243 0
49 4881 -2243 0
49 -2243 -4882 0
49 -4882 4883 2244 0
49 4882 -2244 0
49 -2244 -4883 0
49 -4883 4875 0
49 -4875 4883 0
49 2245 2246 2247 2248 2249 2250 2251 2252 0
49 -4886 4885 0
49 -4887 4886 0
49 -4888 4887 0
49 -4889 4888 0
49 -4890 4889 0
49 -4891 4890 0
49 -4892 4891 0
49 4885 2245 0
49 -2245 -4885 0
49 -4885 4886 2246 0
49 4885 -2246 0
49 -2246 -4886 0
49 -4886 4887 2247 0
49 4886 -2247 0
49 -2247 -4887 0
49 -4887 4888 2248 0
49 4887 -2248 0
49 -2248 -4888 0
49 -4888 4889 2249 0
49 4888 -2249 0
49 -2249 -4889 0
49 -4889 4890 2250 0
49 4889 -2250 0
49 -2250 -4890 0
49 -4890 4891 2251 0
49 4890 -2251 0
49 -2251 -4891 0
49 -4891 4892 2252 0
49 4891 -2252 0
49 -2252 -4892 0
49 -4892 4884 0
49 -4884 4892 0
49 2253 0
49 2254 0
49 2255 0
49 2256 0
49 2257 0
49 2258 0
49 2259 0
49 2260 0
49 2261 0
49 2262 0
49 2263 2264 2265 2266 2267 2268 2269 2270 0
49 -4895 4894 0
49 -4896 4895 0
49 -4897 4896 0
49 -4898 4897 0
49 -4899 4898 0
49 -4900 4899 0
49 -4901 4900 0
49 4894 2263 0
49 -2263 -4894 0
49 -4894 4895 2264 0
49 4894 -2264 0
49 -2264 -4895 0
49 -4895 4896 2265 0
49 4895 -2265 0
49 -2265 -4896 0
49 -4896 4897 2266 0
49 4896 -2266 0
49 -2266 -4897 0
49 -4897 4898 2267 0
49 4897 -2267 0
49 -2267 -4898 0
49 -4898 4899 2268 0
49 4898 -2268 0
49 -2268 -4899 0
49 -4899 4900 2269 0
49 4899 -2269 0
49 -2269 -4900 0
49 -4900 4901 2270 0
49 4900 -2270 0
49 -2270 -4901 0
49 -4901 4893 0
49 -4893 4901 0
49 2271 2272 2273 2274 2275 2276 2277 2278 0
49 -4904 4903 0
49 -4905 4904 0
49 -4906 4905 0
49 -4907 4906 0
49 -4908 4907 0
49 -4909 4908 0
49 -4910 4909 0
49 4903 2271 0
49 -2271 -4903 0
49 -4903 4904 2272 0
49 4903 -2272 0
49 -2272 -4904 0
49 -4904 4905 2273 0
49 4904 -2273 0
49 -2273 -4905 0
49 -4905 4906 2274 0
49 4905 -2274 0
49 -2274 -4906 0
49 -4906 4907 2275 0
49 4906 -2275 0
49 -2275 -4907 0
49 -4907 4908 2276 0
49 4907 -2276 0
49 -2276 -4908 0
49 -4908 4909 2277 0
49 4908 -2277 0
49 -2277 -4909 0
49 -4909 4910 2278 0
49 4909 -2278 0
49 -2278 -4910 0
49 -4910 4902 0
49 -4902 4910 0
49 2279 2280 0
49 -2279 -2280 0
49 2281 2282 0
49 -2281 -2282 0
49 2283 0
49 2284 0
49 2285 0
49 2286 0
49 2287 0
49 2288 0
49 2289 0
49 2290 0
49 2291 0
49 2292 0
49 2293 0
49 2294 0
49 2295 2296 2297 2298 2299 2300 2301 2302 2303 0
49 -4913 4912 0
49 -4914 4913 0
49 -4915 4914 0
49 -4916 4915 0
49 -4917 4916 0
49 -4918 4917 0
49 -4919 4918 0
49 -4920 4919 0
49 4912 2295 0
49 -2295 -4912 0
49 -4912 4913 2296 0
49 4912 -2296 0
49 -2296 -4913 0
49 -4913 4914 2297 0
49 4913 -2297 0
49 -2297 -4914 0
49 -4914 4915 2298 0
49 4914 -2298 0
49 -2298 -4915 0
49 -4915 4916 2299 0
49 4915 -2299 0
49 -2299 -4916 0
49 -4916 4917 2300 0
49 4916 -2300 0
49 -2300 -4917 0
49 -4917 4918 2301 0
49 4917 -2301 0
49 -2301 -4918 0
49 -4918 4919 2302 0
49 4918 -2302 0
49 -2302 -4919 0
49 -4919 4920 2303 0
49 4919 -2303 0
49 -2303 -4920 0
49 -4920 4911 0
49 -4911 4920 0
49 2304 2305 2306 2307 2308 2309 2310 2311 2312 0
49 -4923 4922 0
49 -4924 4923 0
49 -4925 4924 0
49 -4926 4925 0
49 -4927 4926 0
49 -4928 4927 0
49 -4929 4928 0
49 -4930 4929 0
49 4922 2304 0
49 -2304 -4922 0
49 -4922 4923 2305 0
49 4922 -2305 0
49 -2305 -4923 0
49 -4923 4924 2306 0
49 4923 -2306 0
49 -2306 -4924 0
49 -4924 4925 2307 0
49 4924 -2307 0
49 -2307 -4925 0
49 -4925 4926 2308 0
49 4925 -2308 0
49 -2308 -4926 0
49 -4926 4927 2309 0
49 4926 -2309 0
49 -2309 -4927 0
49 -4927 4928 2310 0
49 4927 -2310 0
49 -2310 -4928 0
49 -4928 4929 2311 0
49 4928 -2311 0
49 -2311 -4929 0
49 -4929 4930 2312 0
49 4929 -2312 0
49 -2312 -4930 0
49 -4930 4921 0
49 -4921 4930 0
49 2313 0
49 2314 0
49 2315 0
49 2316 0
49 2317 2318 2319 2320 2321 2322 2323 2324 0
49 -4933 4932 0
49 -4934 4933 0
49 -4935 4934 0
49 -4936 4935 0
49 -4937 4936 0
49 -4938 4937 0
49 -4939 4938 0
49 4932 2317 0
49 -2317 -4932 0
49 -4932 4933 2318 0
49 4932 -2318 0
49 -2318 -4933 0
49 -4933 4934 2319 0
49 4933 -2319 0
49 -2319 -4934 0
49 -4934 4935 2320 0
49 4934 -2320 0
49 -2320 -4935 0
49 -4935 4936 2321 0
49 4935 -2321 0
49 -2321 -4936 0
49 -4936 4937 2322 0
49 4936 -2322 0
49 -2322 -4937 0
49 -4937 4938 2323 0
49 4937 -2323 0
49 -2323 -4938 0
49 -4938 4939 2324 0
49 4938 -2324 0
49 -2324 -4939 0
49 -4939 4931 0
49 -4931 4939 0
49 2325 2326 2327 2328 2329 2330 2331 2332 0
49 -4942 4941 0
49 -4943 4942 0
49 -4944 4943 0
49 -4945 4944 0
49 -4946 4945 0
49 -4947 4946 0
49 -4948 4947 0
49 4941 2325 0
49 -2325 -4941 0
49 -4941 4942 2326 0
49 4941 -2326 0
49 -2326 -4942 0
49 -4942 4943 2327 0
49 4942 -2327 0
49 -2327 -4943 0
49 -4943 4944 2328 0
49 4943 -2328 0
49 -2328 -4944 0
49 -4944 4945 2329 0
49 4944 -2329 0
49 -2329 -4945 0
49 -4945 4946 2330 0
49 4945 -2330 0
49 -2330 -4946 0
49 -4946 4947 2331 0
49 4946 -2331 0
49 -2331 -4947 0
49 -4947 4948 2332 0
49 4947 -2332 0
49 -2332 -4948 0
49 -4948 4940 0
49 -4940 4948 0
49 2333 0
49 2334 0
49 2335 2336 2337 2338 2339 2340 2341 2342 0
49 -4951 4950 0
49 -4952 4951 0
49 -4953 4952 0
49 -4954 4953 0
49 -4955 4954 0
49 -4956 4955 0
49 -4957 4956 0
49 4950 2335 0
49 -2335 -4950 0
49 -4950 4951 2336 0
49 4950 -2336 0
49 -2336 -4951 0
49 -4951 4952 2337 0
49 4951 -2337 0
49 -2337 -4952 0
49 -4952 4953 2338 0
49 4952 -2338 0
49 -2338 -4953 0
49 -4953 4954 2339 0
49 4953 -2339 0
49 -2339 -4954 0
49 -4954 4955 2340 0
49 4954 -2340 0
49 -2340 -4955 0
49 -4955 4956 2341 0
49 4955 -2341 0
49 -2341 -4956 0
49 -4956 4957 2342 0
49 4956 -2342 0
49 -2342 -4957 0
49 -4957 4949 0
49 -4949 4957 0
49 2343 2344 2345 2346 2347 2348 2349 2350 0
49 -4960 4959 0
49 -4961 4960 0
49 -4962 4961 0
49 -4963 4962 0
49 -4964 4963 0
49 -4965 4964 0
49 -4966 4965 0
49 4959 2343 0
49 -2343 -4959 0
49 -4959 4960 2344 0
49 4959 -2344 0
49 -2344 -4960 0
49 -4960 4961 2345 0
49 4960 -2345 0
49 -2345 -4961 0
49 -4961 4962 2346 0
49 4961 -2346 0
49 -2346 -4962 0
49 -4962 4963 2347 0
49 4962 -2347 0
49 -2347 -4963 0
49 -4963 4964 2348 0
49 4963 -2348 0
49 -2348 -4964 0
49 -4964 4965 2349 0
49 4964 -2349 0
49 -2349 -4965 0
49 -4965 4966 2350 0
49 4965 -2350 0
49 -2350 -4966 0
49 -4966 4958 0
49 -4958 4966 0
49 2351 0
49 2352 0
49 2353 0
49 2354 0
49 2355 0
49 2356 0
49 2357 2358 2359 2360 2361 2362 2363 2364 0
49 -4969 4968 0
49 -4970 4969 0
49 -4971 4970 0
49 -4972 4971 0
49 -4973 4972 0
49 -4974 4973 0
49 -4975 4974 0
49 4968 2357 0
49 -2357 -4968 0
49 -4968 4969 2358 0
49 4968 -2358 0
49 -2358 -4969 0
49 -4969 4970 2359 0
49 4969 -2359 0
49 -2359 -4970 0
49 -4970 4971 2360 0
49 4970 -2360 0
49 -2360 -4971 0
49 -4971 4972 2361 0
49 4971 -2361 0
49 -2361 -4972 0
49 -4972 4973 2362 0
49 4972 -2362 0
49 -2362 -4973 0
49 -4973 4974 2363 0
49 4973 -2363 0
49 -2363 -4974 0
49 -4974 4975 2364 0
49 4974 -2364 0
49 -2364 -4975 0
49 -4975 4967 0
49 -4967 4975 0
49 2365 2366 2367 2368 2369 2370 2371 2372 0
49 -4978 4977 0
49 -4979 4978 0
49 -4980 4979 0
49 -4981 4980 0
49 -4982 4981 0
49 -4983 4982 0
49 -4984 4983 0
49 4977 2365 0
49 -2365 -4977 0
49 -4977 4978 2366 0
49 4977 -2366 0
49 -2366 -4978 0
49 -4978 4979 2367 0
49 4978 -2367 0
49 -2367 -4979 0
49 -4979 4980 2368 0
49 4979 -2368 0
49 -2368 -4980 0
49 -4980 4981 2369 0
49 4980 -2369 0
49 -2369 -4981 0
49 -4981 4982 2370 0
49 4981 -2370 0
49 -2370 -4982 0
49 -4982 4983 2371 0
49 4982 -2371 0
49 -2371 -4983 0
49 -4983 4984 2372 0
49 4983 -2372 0
49 -2372 -4984 0
49 -4984 4976 0
49 -4976 4984 0
49 2373 0
49 2374 0
49 2375 0
49 2376 0
49 2377 2378 2379 2380 2381 2382 2383 2384 0
49 -4987 4986 0
49 -4988 4987 0
49 -4989 4988 0
49 -4990 4989 0
49 -4991 4990 0
49 -4992 4991 0
49 -4993 4992 0
49 4986 2377 0
49 -2377 -4986 0
49 -4986 4987 2378 0
49 4986 -2378 0
49 -2378 -4987 0
49 -4987 4988 2379 0
49 4987 -2379 0
49 -2379 -4988 0
49 -4988 4989 2380 0
49 4988 -2380 0
49 -2380 -4989 0
49 -4989 4990 2381 0
49 4989 -2381 0
49 -2381 -4990 0
49 -4990 4991 2382 0
49 4990 -2382 0
49 -2382 -4991 0
49 -4991 4992 2383 0
49 4991 -2383 0
49 -2383 -4992 0
49 -4992 4993 2384 0
49 4992 -2384 0
49 -2384 -4993 0
49 -4993 4985 0
49 -4985 4993 0
49 2385 2386 2387 2388 2389 2390 2391 2392 0
49 -4996 4995 0
49 -4997 4996 0
49 -4998 4997 0
49 -4999 4998 0
49 -5000 4999 0
49 -5001 5000 0
49 -5002 5001 0
49 4995 2385 0
49 -2385 -4995 0
49 -4995 4996 2386 0
49 4995 -2386 0
49 -2386 -4996 0
49 -4996 4997 2387 0
49 4996 -2387 0
49 -2387 -4997 0
49 -4997 4998 2388 0
49 4997 -2388 0
49 -2388 -4998 0
49 -4998 4999 2389 0
49 4998 -2389 0
49 -2389 -4999 0
49 -4999 5000 2390 0
49 4999 -2390 0
49 -2390 -5000 0
49 -5000 5001 2391 0
49 5000 -2391 0
49 -2391 -5001 0
49 -5001 5002 2392 0
49 5001 -2392 0
49 -2392 -5002 0
49 -5002 4994 0
49 -4994 5002 0
49 2393 0
49 2394 0
49 2395 0
49 2396 0
49 2397 2398 2399 2400 2401 2402 0
49 -5005 5004 0
49 -5006 5005 0
49 -5007 5006 0
49 -5008 5007 0
49 -5009 5008 0
49 5004 2397 0
49 -2397 -5004 0
49 -5004 5005 2398 0
49 5004 -2398 0
49 -2398 -5005 0
49 -5005 5006 2399 0
49 5005 -2399 0
49 -2399 -5006 0
49 -5006 5007 2400 0
49 5006 -2400 0
49 -2400 -5007 0
49 -5007 5008 2401 0
49 5007 -2401 0
49 -2401 -5008 0
49 -5008 5009 2402 0
49 5008 -2402 0
49 -2402 -5009 0
49 -5009 5003 0
49 -5003 5009 0
49 2403 2404 2405 2406 2407 2408 0
49 -5012 5011 0
49 -5013 5012 0
49 -5014 5013 0
49 -5015 5014 0
49 -5016 5015 0
49 5011 2403 0
49 -2403 -5011 0
49 -5011 5012 2404 0
49 5011 -2404 0
49 -2404 -5012 0
49 -5012 5013 2405 0
49 5012 -2405 0
49 -2405 -5013 0
49 -5013 5014 2406 0
49 5013 -2406 0
49 -2406 -5014 0
49 -5014 5015 2407 0
49 5014 -2407 0
49 -2407 -5015 0
49 -5015 5016 2408 0
49 5015 -2408 0
49 -2408 -5016 0
49 -5016 5010 0
49 -5010 5016 0
49 2409 0
49 2410 0
49 2411 0
49 2412 0
49 2413 0
49 2414 0
49 2415 2416 2417 2418 2419 2420 2421 2422 0
49 -5019 5018 0
49 -5020 5019 0
49 -5021 5020 0
49 -5022 5021 0
49 -5023 5022 0
49 -5024 5023 0
49 -5025 5024 0
49 5018 2415 0
49 -2415 -5018 0
49 -5018 5019 2416 0
49 5018 -2416 0
49 -2416 -5019 0
49 -5019 5020 2417 0
49 5019 -2417 0
49 -2417 -5020 0
49 -5020 5021 2418 0
49 5020 -2418 0
49 -2418 -5021 0
49 -5021 5022 2419 0
49 5021 -2419 0
49 -2419 -5022 0
49 -5022 5023 2420 0
49 5022 -2420 0
49 -2420 -5023 0
49 -5023 5024 2421 0
49 5023 -2421 0
49 -2421 -5024 0
49 -5024 5025 2422 0
49 5024 -2422 0
49 -2422 -5025 0
49 -5025 5017 0
49 -5017 5025 0
49 2423 2424 2425 2426 2427 2428 2429 2430 0
49 -5028 5027 0
49 -5029 5028 0
49 -5030 5029 0
49 -5031 5030 0
49 -5032 5031 0
49 -5033 5032 0
49 -5034 5033 0
49 5027 2423 0
49 -2423 -5027 0
49 -5027 5028 2424 0
49 5027 -2424 0
49 -2424 -5028 0
49 -5028 5029 2425 0
49 5028 -2425 0
49 -2425 -5029 0
49 -5029 5030 2426 0
49 5029 -2426 0
49 -2426 -5030 0
49 -5030 5031 2427 0
49 5030 -2427 0
49 -2427 -5031 0
49 -5031 5032 2428 0
49 5031 -2428 0
49 -2428 -5032 0
49 -5032 5033 2429 0
49 5032 -2429 0
49 -2429 -5033 0
49 -5033 5034 2430 0
49 5033 -2430 0
49 -2430 -5034 0
49 -5034 5026 0
49 -5026 5034 0
49 2431 0
49 2432 0
49 2433 2434 2435 2436 0
49 -5037 5036 0
49 -5038 5037 0
49 -5039 5038 0
49 5036 2433 0
49 -2433 -5036 0
49 -5036 5037 2434 0
49 5036 -2434 0
49 -2434 -5037 0
49 -5037 5038 2435 0
49 5037 -2435 0
49 -2435 -5038 0
49 -5038 5039 2436 0
49 5038 -2436 0
49 -2436 -5039 0
49 -5039 5035 0
49 -5035 5039 0
49 2437 2438 2439 2440 0
49 -5042 5041 0
49 -5043 5042 0
49 -5044 5043 0
49 5041 2437 0
49 -2437 -5041 0
49 -5041 5042 2438 0
49 5041 -2438 0
49 -2438 -5042 0
49 -5042 5043 2439 0
49 5042 -2439 0
49 -2439 -5043 0
49 -5043 5044 2440 0
49 5043 -2440 0
49 -2440 -5044 0
49 -5044 5040 0
49 -5040 5044 0
49 2441 0
49 2442 0
49 2443 0
49 2444 0
49 2445 0
49 2446 0
49 2447 0
49 2448 0
49 2449 2450 2451 2452 2453 2454 2455 2456 0
49 -5047 5046 0
49 -5048 5047 0
49 -5049 5048 0
49 -5050 5049 0
49 -5051 5050 0
49 -5052 5051 0
49 -5053 5052 0
49 5046 2449 0
49 -2449 -5046 0
49 -5046 5047 2450 0
49 5046 -2450 0
49 -2450 -5047 0
49 -5047 5048 2451 0
49 5047 -2451 0
49 -2451 -5048 0
49 -5048 5049 2452 0
49 5048 -2452 0
49 -2452 -5049 0
49 -5049 5050 2453 0
49 5049 -2453 0
49 -2453 -5050 0
49 -5050 5051 2454 0
49 5050 -2454 0
49 -2454 -5051 0
49 -5051 5052 2455 0
49 5051 -2455 0
49 -2455 -5052 0
49 -5052 5053 2456 0
49 5052 -2456 0
49 -2456 -5053 0
49 -5053 5045 0
49 -5045 5053 0
49 2457 2458 2459 2460 2461 2462 2463 2464 0
49 -5056 5055 0
49 -5057 5056 0
49 -5058 5057 0
49 -5059 5058 0
49 -5060 5059 0
49 -5061 5060 0
49 -5062 5061 0
49 5055 2457 0
49 -2457 -5055 0
49 -5055 5056 2458 0
49 5055 -2458 0
49 -2458 -5056 0
49 -5056 5057 2459 0
49 5056 -2459 0
49 -2459 -5057 0
49 -5057 5058 2460 0
49 5057 -2460 0
49 -2460 -5058 0
49 -5058 5059 2461 0
49 5058 -2461 0
49 -2461 -5059 0
49 -5059 5060 2462 0
49 5059 -2462 0
49 -2462 -5060 0
49 -5060 5061 2463 0
49 5060 -2463 0
49 -2463 -5061 0
49 -5061 5062 2464 0
49 5061 -2464 0
49 -2464 -5062 0
49 -5062 5054 0
49 -5054 5062 0
49 2465 0
49 2466 0
49 2467 0
49 2468 0
49 2469 2470 0
49 -2469 -2470 0
49 2471 2472 0
49 -2471 -2472 0
49 2473 2474 2475 2476 2477 2478 2479 2480 0
49 -5065 5064 0
49 -5066 5065 0
49 -5067 5066 0
49 -5068 5067 0
49 -5069 5068 0
49 -5070 5069 0
49 -5071 5070 0
49 5064 2473 0
49 -2473 -5064 0
49 -5064 5065 2474 0
49 5064 -2474 0
49 -2474 -5065 0
49 -5065 5066 2475 0
49 5065 -2475 0
49 -2475 -5066 0
49 -5066 5067 2476 0
49 5066 -2476 0
49 -2476 -5067 0
49 -5067 5068 2477 0
49 5067 -2477 0
49 -2477 -5068 0
49 -5068 5069 2478 0
49 5068 -2478 0
49 -2478 -5069 0
49 -5069 5070 2479 0
49 5069 -2479 0
49 -2479 -5070 0
49 -5070 5071 2480 0
49 5070 -2480 0
49 -2480 -5071 0
49 -5071 5063 0
49 -5063 5071 0
49 2481 2482 2483 2484 2485 2486 2487 2488 0
49 -5074 5073 0
49 -5075 5074 0
49 -5076 5075 0
49 -5077 5076 0
49 -5078 5077 0
49 -5079 5078 0
49 -5080 5079 0
49 5073 2481 0
49 -2481 -5073 0
49 -5073 5074 2482 0
49 5073 -2482 0
49 -2482 -5074 0
49 -5074 5075 2483 0
49 5074 -2483 0
49 -2483 -5075 0
49 -5075 5076 2484 0
49 5075 -2484 0
49 -2484 -5076 0
49 -5076 5077 2485 0
49 5076 -2485 0
49 -2485 -5077 0
49 -5077 5078 2486 0
49 5077 -2486 0
49 -2486 -5078 0
49 -5078 5079 2487 0
49 5078 -2487 0
49 -2487 -5079 0
49 -5079 5080 2488 0
49 5079 -2488 0
49 -2488 -5080 0
49 -5080 5072 0
49 -5072 5080 0
49 2489 2490 2491 2492 2493 2494 2495 2496 2497 2498 2499 0
49 -5083 5082 0
49 -5084 5083 0
49 -5085 5084 0
49 -5086 5085 0
49 -5087 5086 0
49 -5088 5087 0
49 -5089 5088 0
49 -5090 5089 0
49 -5091 5090 0
49 -5092 5091 0
49 5082 2489 0
49 -2489 -5082 0
49 -5082 5083 2490 0
49 5082 -2490 0
49 -2490 -5083 0
49 -5083 5084 2491 0
49 5083 -2491 0
49 -2491 -5084 0
49 -5084 5085 2492 0
49 5084 -2492 0
49 -2492 -5085 0
49 -5085 5086 2493 0
49 5085 -2493 0
49 -2493 -5086 0
49 -5086 5087 2494 0
49 5086 -2494 0
49 -2494 -5087 0
49 -5087 5088 2495 0
49 5087 -2495 0
49 -2495 -5088 0
49 -5088 5089 2496 0
49 5088 -2496 0
49 -2496 -5089 0
49 -5089 5090 2497 0
49 5089 -2497 0
49 -2497 -5090 0
49 -5090 5091 2498 0
49 5090 -2498 0
49 -2498 -5091 0
49 -5091 5092 2499 0
49 5091 -2499 0
49 -2499 -5092 0
49 -5092 5081 0
49 -5081 5092 0
49 2500 2501 2502 2503 2504 2505 2506 2507 2508 2509 2510 0
49 -5095 5094 0
49 -5096 5095 0
49 -5097 5096 0
49 -5098 5097 0
49 -5099 5098 0
49 -5100 5099 0
49 -5101 5100 0
49 -5102 5101 0
49 -5103 5102 0
49 -5104 5103 0
49 5094 2500 0
49 -2500 -5094 0
49 -5094 5095 2501 0
49 5094 -2501 0
49 -2501 -5095 0
49 -5095 5096 2502 0
49 5095 -2502 0
49 -2502 -5096 0
49 -5096 5097 2503 0
49 5096 -2503 0
49 -2503 -5097 0
49 -5097 5098 2504 0
49 5097 -2504 0
49 -2504 -5098 0
49 -5098 5099 2505 0
49 5098 -2505 0
49 -2505 -5099 0
49 -5099 5100 2506 0
49 5099 -2506 0
49 -2506 -5100 0
49 -5100 5101 2507 0
49 5100 -2507 0
49 -2507 -5101 0
49 -5101 5102 2508 0
49 5101 -2508 0
49 -2508 -5102 0
49 -5102 5103 2509 0
49 5102 -2509 0
49 -2509 -5103 0
49 -5103 5104 2510 0
49 5103 -2510 0
49 -2510 -5104 0
49 -5104 5093 0
49 -5093 5104 0
49 2511 0
49 2512 0
49 2513 0
49 2514 0
49 2515 0
49 2516 0
49 2517 2518 2519 2520 2521 2522 2523 2524 0
49 -5107 5106 0
49 -5108 5107 0
49 -5109 5108 0
49 -5110 5109 0
49 -5111 5110 0
49 -5112 5111 0
49 -5113 5112 0
49 5106 2517 0
49 -2517 -5106 0
49 -5106 5107 2518 0
49 5106 -2518 0
49 -2518 -5107 0
49 -5107 5108 2519 0
49 5107 -2519 0
49 -2519 -5108 0
49 -5108 5109 2520 0
49 5108 -2520 0
49 -2520 -5109 0
49 -5109 5110 2521 0
49 5109 -2521 0
49 -2521 -5110 0
49 -5110 5111 2522 0
49 5110 -2522 0
49 -2522 -5111 0
49 -5111 5112 2523 0
49 5111 -2523 0
49 -2523 -5112 0
49 -5112 5113 2524 0
49 5112 -2524 0
49 -2524 -5113 0
49 -5113 5105 0
49 -5105 5113 0
49 2525 2526 2527 2528 2529 2530 2531 2532 0
49 -5116 5115 0
49 -5117 5116 0
49 -5118 5117 0
49 -5119 5118 0
49 -5120 5119 0
49 -5121 5120 0
49 -5122 5121 0
49 5115 2525 0
49 -2525 -5115 0
49 -5115 5116 2526 0
49 5115 -2526 0
49 -2526 -5116 0
49 -5116 5117 2527 0
49 5116 -2527 0
49 -2527 -5117 0
49 -5117 5118 2528 0
49 5117 -2528 0
49 -2528 -5118 0
49 -5118 5119 2529 0
49 5118 -2529 0
49 -2529 -5119 0
49 -5119 5120 2530 0
49 5119 -2530 0
49 -2530 -5120 0
49 -5120 5121 2531 0
49 5120 -2531 0
49 -2531 -5121 0
49 -5121 5122 2532 0
49 5121 -2532 0
49 -2532 -5122 0
49 -5122 5114 0
49 -5114 5122 0
49 2533 0
49 2534 0
49 2535 0
49 2536 0
49 2537 2538 2539 2540 0
49 -5125 5124 0
49 -5126 5125 0
49 -5127 5126 0
49 5124 2537 0
49 -2537 -5124 0
49 -5124 5125 2538 0
49 5124 -2538 0
49 -2538 -5125 0
49 -5125 5126 2539 0
49 5125 -2539 0
49 -2539 -5126 0
49 -5126 5127 2540 0
49 5126 -2540 0
49 -2540 -5127 0
49 -5127 5123 0
49 -5123 5127 0
49 2541 2542 2543 2544 0
49 -5130 5129 0
49 -5131 5130 0
49 -5132 5131 0
49 5129 2541 0
49 -2541 -5129 0
49 -5129 5130 2542 0
49 5129 -2542 0
49 -2542 -5130 0
49 -5130 5131 2543 0
49 5130 -2543 0
49 -2543 -5131 0
49 -5131 5132 2544 0
49 5131 -2544 0
49 -2544 -5132 0
49 -5132 5128 0
49 -5128 5132 0
49 2545 0
49 2546 0
49 2547 2548 2549 0
49 -5135 5134 0
49 -5136 5135 0
49 5134 2547 0
49 -2547 -5134 0
49 -5134 5135 2548 0
49 5134 -2548 0
49 -2548 -5135 0
49 -5135 5136 2549 0
49 5135 -2549 0
49 -2549 -5136 0
49 -5136 5133 0
49 -5133 5136 0
49 2550 2551 2552 0
49 -5139 5138 0
49 -5140 5139 0
49 5138 2550 0
49 -2550 -5138 0
49 -5138 5139 2551 0
49 5138 -2551 0
49 -2551 -5139 0
49 -5139 5140 2552 0
49 5139 -2552 0
49 -2552 -5140 0
49 -5140 5137 0
49 -5137 5140 0
49 2553 0
49 2554 0
49 2555 0
49 2556 0
49 2557 0
49 2558 0
49 2559 2560 2561 2562 2563 2564 2565 2566 0
49 -5143 5142 0
49 -5144 5143 0
49 -5145 5144 0
49 -5146 5145 0
49 -5147 5146 0
49 -5148 5147 0
49 -5149 5148 0
49 5142 2559 0
49 -2559 -5142 0
49 -5142 5143 2560 0
49 5142 -2560 0
49 -2560 -5143 0
49 -5143 5144 2561 0
49 5143 -2561 0
49 -2561 -5144 0
49 -5144 5145 2562 0
49 5144 -2562 0
49 -2562 -5145 0
49 -5145 5146 2563 0
49 5145 -2563 0
49 -2563 -5146 0
49 -5146 5147 2564 0
49 5146 -2564 0
49 -2564 -5147 0
49 -5147 5148 2565 0
49 5147 -2565 0
49 -2565 -5148 0
49 -5148 5149 2566 0
49 5148 -2566 0
49 -2566 -5149 0
49 -5149 5141 0
49 -5141 5149 0
49 2567 2568 2569 2570 2571 2572 2573 2574 0
49 -5152 5151 0
49 -5153 5152 0
49 -5154 5153 0
49 -5155 5154 0
49 -5156 5155 0
49 -5157 5156 0
49 -5158 5157 0
49 5151 2567 0
49 -2567 -5151 0
49 -5151 5152 2568 0
49 5151 -2568 0
49 -2568 -5152 0
49 -5152 5153 2569 0
49 5152 -2569 0
49 -2569 -5153 0
49 -5153 5154 2570 0
49 5153 -2570 0
49 -2570 -5154 0
49 -5154 5155 2571 0
49 5154 -2571 0
49 -2571 -5155 0
49 -5155 5156 2572 0
49 5155 -2572 0
49 -2572 -5156 0
49 -5156 5157 2573 0
49 5156 -2573 0
49 -2573 -5157 0
49 -5157 5158 2574 0
49 5157 -2574 0
49 -2574 -5158 0
49 -5158 5150 0
49 -5150 5158 0
49 2575 0
49 2576 0
49 2577 0
49 2578 0
49 2579 0
49 2580 0
49 2581 0
49 2582 0
49 2583 0
49 2584 0
49 2585 0
49 2586 0
49 2587 2588 2589 2590 2591 2592 2593 2594 0
49 -5161 5160 0
49 -5162 5161 0
49 -5163 5162 0
49 -5164 5163 0
49 -5165 5164 0
49 -5166 5165 0
49 -5167 5166 0
49 5160 2587 0
49 -2587 -5160 0
49 -5160 5161 2588 0
49 5160 -2588 0
49 -2588 -5161 0
49 -5161 5162 2589 0
49 5161 -2589 0
49 -2589 -5162 0
49 -5162 5163 2590 0
49 5162 -2590 0
49 -2590 -5163 0
49 -5163 5164 2591 0
49 5163 -2591 0
49 -2591 -5164 0
49 -5164 5165 2592 0
49 5164 -2592 0
49 -2592 -5165 0
49 -5165 5166 2593 0
49 5165 -2593 0
49 -2593 -5166 0
49 -5166 5167 2594 0
49 5166 -2594 0
49 -2594 -5167 0
49 -5167 5159 0
49 -5159 5167 0
49 2595 2596 2597 2598 2599 2600 2601 2602 0
49 -5170 5169 0
49 -5171 5170 0
49 -5172 5171 0
49 -5173 5172 0
49 -5174 5173 0
49 -5175 5174 0
49 -5176 5175 0
49 5169 2595 0
49 -2595 -5169 0
49 -5169 5170 2596 0
49 5169 -2596 0
49 -2596 -5170 0
49 -5170 5171 2597 0
49 5170 -2597 0
49 -2597 -5171 0
49 -5171 5172 2598 0
49 5171 -2598 0
49 -2598 -5172 0
49 -5172 5173 2599 0
49 5172 -2599 0
49 -2599 -5173 0
49 -5173 5174 2600 0
49 5173 -2600 0
49 -2600 -5174 0
49 -5174 5175 2601 0
49 5174 -2601 0
49 -2601 -5175 0
49 -5175 5176 2602 0
49 5175 -2602 0
49 -2602 -5176 0
49 -5176 5168 0
49 -5168 5176 0
49 2603 0
49 2604 0
49 2605 0
49 2606 0
49 2607 2608 2609 2610 2611 2612 2613 2614 2615 2616 0
49 -5179 5178 0
49 -5180 5179 0
49 -5181 5180 0
49 -5182 5181 0
49 -5183 5182 0
49 -5184 5183 0
49 -5185 5184 0
49 -5186 5185 0
49 -5187 5186 0
49 5178 2607 0
49 -2607 -5178 0
49 -5178 5179 2608 0
49 5178 -2608 0
49 -2608 -5179 0
49 -5179 5180 2609 0
49 5179 -2609 0
49 -2609 -5180 0
49 -5180 5181 2610 0
49 5180 -2610 0
49 -2610 -5181 0
49 -5181 5182 2611 0
49 5181 -2611 0
49 -2611 -5182 0
49 -5182 5183 2612 0
49 5182 -2612 0
49 -2612 -5183 0
49 -5183 5184 2613 0
49 5183 -2613 0
49 -2613 -5184 0
49 -5184 5185 2614 0
49 5184 -2614 0
49 -2614 -5185 0
49 -5185 5186 2615 0
49 5185 -2615 0
49 -2615 -5186 0
49 -5186 5187 2616 0
49 5186 -2616 0
49 -2616 -5187 0
49 -5187 5177 0
49 -5177 5187 0
49 2617 2618 2619 2620 2621 2622 2623 2624 2625 2626 0
49 -5190 5189 0
49 -5191 5190 0
49 -5192 5191 0
49 -5193 5192 0
49 -5194 5193 0
49 -5195 5194 0
49 -5196 5195 0
49 -5197 5196 0
49 -5198 5197 0
49 5189 2617 0
49 -2617 -5189 0
49 -5189 5190 2618 0
49 5189 -2618 0
49 -2618 -5190 0
49 -5190 5191 2619 0
49 5190 -2619 0
49 -2619 -5191 0
49 -5191 5192 2620 0
49 5191 -2620 0
49 -2620 -5192 0
49 -5192 5193 2621 0
49 5192 -2621 0
49 -2621 -5193 0
49 -5193 5194 2622 0
49 5193 -2622 0
49 -2622 -5194 0
49 -5194 5195 2623 0
49 5194 -2623 0
49 -2623 -5195 0
49 -5195 5196 2624 0
49 5195 -2624 0
49 -2624 -5196 0
49 -5196 5197 2625 0
49 5196 -2625 0
49 -2625 -5197 0
49 -5197 5198 2626 0
49 5197 -2626 0
49 -2626 -5198 0
49 -5198 5188 0
49 -5188 5198 0
49 2627 2628 2629 2630 2631 2632 2633 2634 0
49 -5201 5200 0
49 -5202 5201 0
49 -5203 5202 0
49 -5204 5203 0
49 -5205 5204 0
49 -5206 5205 0
49 -5207 5206 0
49 5200 2627 0
49 -2627 -5200 0
49 -5200 5201 2628 0
49 5200 -2628 0
49 -2628 -5201 0
49 -5201 5202 2629 0
49 5201 -2629 0
49 -2629 -5202 0
49 -5202 5203 2630 0
49 5202 -2630 0
49 -2630 -5203 0
49 -5203 5204 2631 0
49 5203 -2631 0
49 -2631 -5204 0
49 -5204 5205 2632 0
49 5204 -2632 0
49 -2632 -5205 0
49 -5205 5206 2633 0
49 5205 -2633 0
49 -2633 -5206 0
49 -5206 5207 2634 0
49 5206 -2634 0
49 -2634 -5207 0
49 -5207 5199 0
49 -5199 5207 0
49 2635 2636 2637 2638 2639 2640 2641 2642 0
49 -5210 5209 0
49 -5211 5210 0
49 -5212 5211 0
49 -5213 5212 0
49 -5214 5213 0
49 -5215 5214 0
49 -5216 5215 0
49 5209 2635 0
49 -2635 -5209 0
49 -5209 5210 2636 0
49 5209 -2636 0
49 -2636 -5210 0
49 -5210 5211 2637 0
49 5210 -2637 0
49 -2637 -5211 0
49 -5211 5212 2638 0
49 5211 -2638 0
49 -2638 -5212 0
49 -5212 5213 2639 0
49 5212 -2639 0
49 -2639 -5213 0
49 -5213 5214 2640 0
49 5213 -2640 0
49 -2640 -5214 0
49 -5214 5215 2641 0
49 5214 -2641 0
49 -2641 -5215 0
49 -5215 5216 2642 0
49 5215 -2642 0
49 -2642 -5216 0
49 -5216 5208 0
49 -5208 5216 0
49 2643 2644 2645 2646 2647 2648 2649 2650 0
49 -5219 5218 0
49 -5220 5219 0
49 -5221 5220 0
49 -5222 5221 0
49 -5223 5222 0
49 -5224 5223 0
49 -5225 5224 0
49 5218 2643 0
49 -2643 -5218 0
49 -5218 5219 2644 0
49 5218 -2644 0
49 -2644 -5219 0
49 -5219 5220 2645 0
49 5219 -2645 0
49 -2645 -5220 0
49 -5220 5221 2646 0
49 5220 -2646 0
49 -2646 -5221 0
49 -5221 5222 2647 0
49 5221 -2647 0
49 -2647 -5222 0
49 -5222 5223 2648 0
49 5222 -2648 0
49 -2648 -5223 0
49 -5223 5224 2649 0
49 5223 -2649 0
49 -2649 -5224 0
49 -5224 5225 2650 0
49 5224 -2650 0
49 -2650 -5225 0
49 -5225 5217 0
49 -5217 5225 0
49 2651 2652 2653 2654 2655 2656 2657 2658 0
49 -5228 5227 0
49 -5229 5228 0
49 -5230 5229 0
49 -5231 5230 0
49 -5232 5231 0
49 -5233 5232 0
49 -5234 5233 0
49 5227 2651 0
49 -2651 -5227 0
49 -5227 5228 2652 0
49 5227 -2652 0
49 -2652 -5228 0
49 -5228 5229 2653 0
49 5228 -2653 0
49 -2653 -5229 0
49 -5229 5230 2654 0
49 5229 -2654 0
49 -2654 -5230 0
49 -5230 5231 2655 0
49 5230 -2655 0
49 -2655 -5231 0
49 -5231 5232 2656 0
49 5231 -2656 0
49 -2656 -5232 0
49 -5232 5233 2657 0
49 5232 -2657 0
49 -2657 -5233 0
49 -5233 5234 2658 0
49 5233 -2658 0
49 -2658 -5234 0
49 -5234 5226 0
49 -5226 5234 0
49 2659 0
49 2660 0
49 2661 0
49 2662 0
49 2663 0
49 2664 0
49 2665 2666 2667 2668 2669 2670 2671 2672 2673 2674 2675 2676 0
49 -5237 5236 0
49 -5238 5237 0
49 -5239 5238 0
49 -5240 5239 0
49 -5241 5240 0
49 -5242 5241 0
49 -5243 5242 0
49 -5244 5243 0
49 -5245 5244 0
49 -5246 5245 0
49 -5247 5246 0
49 5236 2665 0
49 -2665 -5236 0
49 -5236 5237 2666 0
49 5236 -2666 0
49 -2666 -5237 0
49 -5237 5238 2667 0
49 5237 -2667 0
49 -2667 -5238 0
49 -5238 5239 2668 0
49 5238 -2668 0
49 -2668 -5239 0
49 -5239 5240 2669 0
49 5239 -2669 0
49 -2669 -5240 0
49 -5240 5241 2670 0
49 5240 -2670 0
49 -2670 -5241 0
49 -5241 5242 2671 0
49 5241 -2671 0
49 -2671 -5242 0
49 -5242 5243 2672 0
49 5242 -2672 0
49 -2672 -5243 0
49 -5243 5244 2673 0
49 5243 -2673 0
49 -2673 -5244 0
49 -5244 5245 2674 0
49 5244 -2674 0
49 -2674 -5245 0
49 -5245 5246 2675 0
49 5245 -2675 0
49 -2675 -5246 0
49 -5246 5247 2676 0
49 5246 -2676 0
49 -2676 -5247 0
49 -5247 5235 0
49 -5235 5247 0
49 2677 2678 2679 2680 2681 2682 2683 2684 2685 2686 2687 2688 0
49 -5250 5249 0
49 -5251 5250 0
49 -5252 5251 0
49 -5253 5252 0
49 -5254 5253 0
49 -5255 5254 0
49 -5256 5255 0
49 -5257 5256 0
49 -5258 5257 0
49 -5259 5258 0
49 -5260 5259 0
49 5249 2677 0
49 -2677 -5249 0
49 -5249 5250 2678 0
49 5249 -2678 0
49 -2678 -5250 0
49 -5250 5251 2679 0
49 5250 -2679 0
49 -2679 -5251 0
49 -5251 5252 2680 0
49 5251 -2680 0
49 -2680 -5252 0
49 -5252 5253 2681 0
49 5252 -2681 0
49 -2681 -5253 0
49 -5253 5254 2682 0
49 5253 -2682 0
49 -2682 -5254 0
49 -5254 5255 2683 0
49 5254 -2683 0
49 -2683 -5255 0
49 -5255 5256 2684 0
49 5255 -2684 0
49 -2684 -5256 0
49 -5256 5257 2685 0
49 5256 -2685 0
49 -2685 -5257 0
49 -5257 5258 2686 0
49 5257 -2686 0
49 -2686 -5258 0
49 -5258 5259 2687 0
49 5258 -2687 0
49 -2687 -5259 0
49 -5259 5260 2688 0
49 5259 -2688 0
49 -2688 -5260 0
49 -5260 5248 0
49 -5248 5260 0
49 2689 2690 2691 2692 2693 2694 2695 2696 0
49 -5263 5262 0
49 -5264 5263 0
49 -5265 5264 0
49 -5266 5265 0
49 -5267 5266 0
49 -5268 5267 0
49 -5269 5268 0
49 5262 2689 0
49 -2689 -5262 0
49 -5262 5263 2690 0
49 5262 -2690 0
49 -2690 -5263 0
49 -5263 5264 2691 0
49 5263 -2691 0
49 -2691 -5264 0
49 -5264 5265 2692 0
49 5264 -2692 0
49 -2692 -5265 0
49 -5265 5266 2693 0
49 5265 -2693 0
49 -2693 -5266 0
49 -5266 5267 2694 0
49 5266 -2694 0
49 -2694 -5267 0
49 -5267 5268 2695 0
49 5267 -2695 0
49 -2695 -5268 0
49 -5268 5269 2696 0
49 5268 -2696 0
49 -2696 -5269 0
49 -5269 5261 0
49 -5261 5269 0
49 2697 2698 2699 2700 2701 2702 2703 2704 0
49 -5272 5271 0
49 -5273 5272 0
49 -5274 5273 0
49 -5275 5274 0
49 -5276 5275 0
49 -5277 5276 0
49 -5278 5277 0
49 5271 2697 0
49 -2697 -5271 0
49 -5271 5272 2698 0
49 5271 -2698 0
49 -2698 -5272 0
49 -5272 5273 2699 0
49 5272 -2699 0
49 -2699 -5273 0
49 -5273 5274 2700 0
49 5273 -2700 0
49 -2700 -5274 0
49 -5274 5275 2701 0
49 5274 -2701 0
49 -2701 -5275 0
49 -5275 5276 2702 0
49 5275 -2702 0
49 -2702 -5276 0
49 -5276 5277 2703 0
49 5276 -2703 0
49 -2703 -5277 0
49 -5277 5278 2704 0
49 5277 -2704 0
49 -2704 -5278 0
49 -5278 5270 0
49 -5270 5278 0
49 2705 0
49 2706 0
49 2707 2708 2709 2710 2711 2712 2713 0
49 -5281 5280 0
49 -5282 5281 0
49 -5283 5282 0
49 -5284 5283 0
49 -5285 5284 0
49 -5286 5285 0
49 5280 2707 0
49 -2707 -5280 0
49 -5280 5281 2708 0
49 5280 -2708 0
49 -2708 -5281 0
49 -5281 5282 2709 0
49 5281 -2709 0
49 -2709 -5282 0
49 -5282 5283 2710 0
49 5282 -2710 0
49 -2710 -5283 0
49 -5283 5284 2711 0
49 5283 -2711 0
49 -2711 -5284 0
49 -5284 5285 2712 0
49 5284 -2712 0
49 -2712 -5285 0
49 -5285 5286 2713 0
49 5285 -2713 0
49 -2713 -5286 0
49 -5286 5279 0
49 -5279 5286 0
49 2714 2715 2716 2717 2718 2719 2720 0
49 -5289 5288 0
49 -5290 5289 0
49 -5291 5290 0
49 -5292 5291 0
49 -5293 5292 0
49 -5294 5293 0
49 5288 2714 0
49 -2714 -5288 0
49 -5288 5289 2715 0
49 5288 -2715 0
49 -2715 -5289 0
49 -5289 5290 2716 0
49 5289 -2716 0
49 -2716 -5290 0
49 -5290 5291 2717 0
49 5290 -2717 0
49 -2717 -5291 0
49 -5291 5292 2718 0
49 5291 -2718 0
49 -2718 -5292 0
49 -5292 5293 2719 0
49 5292 -2719 0
49 -2719 -5293 0
49 -5293 5294 2720 0
49 5293 -2720 0
49 -2720 -5294 0
49 -5294 5287 0
49 -5287 5294 0
49 2721 0
49 2722 0
49 2723 0
49 2724 0
49 2725 0
49 2726 0
49 2727 2728 2729 2730 2731 2732 2733 2734 0
49 -5297 5296 0
49 -5298 5297 0
49 -5299 5298 0
49 -5300 5299 0
49 -5301 5300 0
49 -5302 5301 0
49 -5303 5302 0
49 5296 2727 0
49 -2727 -5296 0
49 -5296 5297 2728 0
49 5296 -2728 0
49 -2728 -5297 0
49 -5297 5298 2729 0
49 5297 -2729 0
49 -2729 -5298 0
49 -5298 5299 2730 0
49 5298 -2730 0
49 -2730 -5299 0
49 -5299 5300 2731 0
49 5299 -2731 0
49 -2731 -5300 0
49 -5300 5301 2732 0
49 5300 -2732 0
49 -2732 -5301 0
49 -5301 5302 2733 0
49 5301 -2733 0
49 -2733 -5302 0
49 -5302 5303 2734 0
49 5302 -2734 0
49 -2734 -5303 0
49 -5303 5295 0
49 -5295 5303 0
49 2735 2736 2737 2738 2739 2740 2741 2742 0
49 -5306 5305 0
49 -5307 5306 0
49 -5308 5307 0
49 -5309 5308 0
49 -5310 5309 0
49 -5311 5310 0
49 -5312 5311 0
49 5305 2735 0
49 -2735 -5305 0
49 -5305 5306 2736 0
49 5305 -2736 0
49 -2736 -5306 0
49 -5306 5307 2737 0
49 5306 -2737 0
49 -2737 -5307 0
49 -5307 5308 2738 0
49 5307 -2738 0
49 -2738 -5308 0
49 -5308 5309 2739 0
49 5308 -2739 0
49 -2739 -5309 0
49 -5309 5310 2740 0
49 5309 -2740 0
49 -2740 -5310 0
49 -5310 5311 2741 0
49 5310 -2741 0
49 -2741 -5311 0
49 -5311 5312 2742 0
49 5311 -2742 0
49 -2742 -5312 0
49 -5312 5304 0
49 -5304 5312 0
49 2743 2744 2745 2746 2747 2748 2749 2750 0
49 -5315 5314 0
49 -5316 5315 0
49 -5317 5316 0
49 -5318 5317 0
49 -5319 5318 0
49 -5320 5319 0
49 -5321 5320 0
49 5314 2743 0
49 -2743 -5314 0
49 -5314 5315 2744 0
49 5314 -2744 0
49 -2744 -5315 0
49 -5315 5316 2745 0
49 5315 -2745 0
49 -2745 -5316 0
49 -5316 5317 2746 0
49 5316 -2746 0
49 -2746 -5317 0
49 -5317 5318 2747 0
49 5317 -2747 0
49 -2747 -5318 0
49 -5318 5319 2748 0
49 5318 -2748 0
49 -2748 -5319 0
49 -5319 5320 2749 0
49 5319 -2749 0
49 -2749 -5320 0
49 -5320 5321 2750 0
49 5320 -2750 0
49 -2750 -5321 0
49 -5321 5313 0
49 -5313 5321 0
49 2751 2752 2753 2754 2755 2756 2757 2758 0
49 -5324 5323 0
49 -5325 5324 0
49 -5326 5325 0
49 -5327 5326 0
49 -5328 5327 0
49 -5329 5328 0
49 -5330 5329 0
49 5323 2751 0
49 -2751 -5323 0
49 -5323 5324 2752 0
49 5323 -2752 0
49 -2752 -5324 0
49 -5324 5325 2753 0
49 5324 -2753 0
49 -2753 -5325 0
49 -5325 5326 2754 0
49 5325 -2754 0
49 -2754 -5326 0
49 -5326 5327 2755 0
49 5326 -2755 0
49 -2755 -5327 0
49 -5327 5328 2756 0
49 5327 -2756 0
49 -2756 -5328 0
49 -5328 5329 2757 0
49 5328 -2757 0
49 -2757 -5329 0
49 -5329 5330 2758 0
49 5329 -2758 0
49 -2758 -5330 0
49 -5330 5322 0
49 -5322 5330 0
49 2759 2760 2761 2762 2763 0
49 -5333 5332 0
49 -5334 5333 0
49 -5335 5334 0
49 -5336 5335 0
49 5332 2759 0
49 -2759 -5332 0
49 -5332 5333 2760 0
49 5332 -2760 0
49 -2760 -5333 0
49 -5333 5334 2761 0
49 5333 -2761 0
49 -2761 -5334 0
49 -5334 5335 2762 0
49 5334 -2762 0
49 -2762 -5335 0
49 -5335 5336 2763 0
49 5335 -2763 0
49 -2763 -5336 0
49 -5336 5331 0
49 -5331 5336 0
49 2764 2765 2766 2767 2768 0
49 -5339 5338 0
49 -5340 5339 0
49 -5341 5340 0
49 -5342 5341 0
49 5338 2764 0
49 -2764 -5338 0
49 -5338 5339 2765 0
49 5338 -2765 0
49 -2765 -5339 0
49 -5339 5340 2766 0
49 5339 -2766 0
49 -2766 -5340 0
49 -5340 5341 2767 0
49 5340 -2767 0
49 -2767 -5341 0
49 -5341 5342 2768 0
49 5341 -2768 0
49 -2768 -5342 0
49 -5342 5337 0
49 -5337 5342 0
49 2769 0
49 2770 0
49 2771 0
49 2772 0
49 2773 0
49 2774 0
49 2775 0
49 2776 0
49 2777 0
49 2778 0
49 2779 0
49 2780 0
49 2781 2782 2783 0
49 -5345 5344 0
49 -5346 5345 0
49 5344 2781 0
49 -2781 -5344 0
49 -5344 5345 2782 0
49 5344 -2782 0
49 -2782 -5345 0
49 -5345 5346 2783 0
49 5345 -2783 0
49 -2783 -5346 0
49 -5346 5343 0
49 -5343 5346 0
49 2784 2785 2786 0
49 -5349 5348 0
49 -5350 5349 0
49 5348 2784 0
49 -2784 -5348 0
49 -5348 5349 2785 0
49 5348 -2785 0
49 -2785 -5349 0
49 -5349 5350 2786 0
49 5349 -2786 0
49 -2786 -5350 0
49 -5350 5347 0
49 -5347 5350 0
49 2787 0
49 2788 0
49 2789 0
49 2790 0
49 2791 0
49 2792 0
49 2793 2794 2795 2796 2797 2798 2799 2800 0
49 -5353 5352 0
49 -5354 5353 0
49 -5355 5354 0
49 -5356 5355 0
49 -5357 5356 0
49 -5358 5357 0
49 -5359 5358 0
49 5352 2793 0
49 -2793 -5352 0
49 -5352 5353 2794 0
49 5352 -2794 0
49 -2794 -5353 0
49 -5353 5354 2795 0
49 5353 -2795 0
49 -2795 -5354 0
49 -5354 5355 2796 0
49 5354 -2796 0
49 -2796 -5355 0
49 -5355 5356 2797 0
49 5355 -2797 0
49 -2797 -5356 0
49 -5356 5357 2798 0
49 5356 -2798 0
49 -2798 -5357 0
49 -5357 5358 2799 0
49 5357 -2799 0
49 -2799 -5358 0
49 -5358 5359 2800 0
49 5358 -2800 0
49 -2800 -5359 0
49 -5359 5351 0
49 -5351 5359 0
49 2801 2802 2803 2804 2805 2806 2807 2808 0
49 -5362 5361 0
49 -5363 5362 0
49 -5364 5363 0
49 -5365 5364 0
49 -5366 5365 0
49 -5367 5366 0
49 -5368 5367 0
49 5361 2801 0
49 -2801 -5361 0
49 -5361 5362 2802 0
49 5361 -2802 0
49 -2802 -5362 0
49 -5362 5363 2803 0
49 5362 -2803 0
49 -2803 -5363 0
49 -5363 5364 2804 0
49 5363 -2804 0
49 -2804 -5364 0
49 -5364 5365 2805 0
49 5364 -2805 0
49 -2805 -5365 0
49 -5365 5366 2806 0
49 5365 -2806 0
49 -2806 -5366 0
49 -5366 5367 2807 0
49 5366 -2807 0
49 -2807 -5367 0
49 -5367 5368 2808 0
49 5367 -2808 0
49 -2808 -5368 0
49 -5368 5360 0
49 -5360 5368 0
49 2809 0
49 2810 0
49 2811 2812 2813 2814 2815 2816 2817 2818 0
49 -5371 5370 0
49 -5372 5371 0
49 -5373 5372 0
49 -5374 5373 0
49 -5375 5374 0
49 -5376 5375 0
49 -5377 5376 0
49 5370 2811 0
49 -2811 -5370 0
49 -5370 5371 2812 0
49 5370 -2812 0
49 -2812 -5371 0
49 -5371 5372 2813 0
49 5371 -2813 0
49 -2813 -5372 0
49 -5372 5373 2814 0
49 5372 -2814 0
49 -2814 -5373 0
49 -5373 5374 2815 0
49 5373 -2815 0
49 -2815 -5374 0
49 -5374 5375 2816 0
49 5374 -2816 0
49 -2816 -5375 0
49 -5375 5376 2817 0
49 5375 -2817 0
49 -2817 -5376 0
49 -5376 5377 2818 0
49 5376 -2818 0
49 -2818 -5377 0
49 -5377 5369 0
49 -5369 5377 0
49 2819 2820 2821 2822 2823 2824 2825 2826 0
49 -5380 5379 0
49 -5381 5380 0
49 -5382 5381 0
49 -5383 5382 0
49 -5384 5383 0
49 -5385 5384 0
49 -5386 5385 0
49 5379 2819 0
49 -2819 -5379 0
49 -5379 5380 2820 0
49 5379 -2820 0
49 -2820 -5380 0
49 -5380 5381 2821 0
49 5380 -2821 0
49 -2821 -5381 0
49 -5381 5382 2822 0
49 5381 -2822 0
49 -2822 -5382 0
49 -5382 5383 2823 0
49 5382 -2823 0
49 -2823 -5383 0
49 -5383 5384 2824 0
49 5383 -2824 0
49 -2824 -5384 0
49 -5384 5385 2825 0
49 5384 -2825 0
49 -2825 -5385 0
49 -5385 5386 2826 0
49 5385 -2826 0
49 -2826 -5386 0
49 -5386 5378 0
49 -5378 5386 0
49 2827 2828 2829 2830 2831 2832 2833 2834 0
49 -5389 5388 0
49 -5390 5389 0
49 -5391 5390 0
49 -5392 5391 0
49 -5393 5392 0
49 -5394 5393 0
49 -5395 5394 0
49 5388 2827 0
49 -2827 -5388 0
49 -5388 5389 2828 0
49 5388 -2828 0
49 -2828 -5389 0
49 -5389 5390 2829 0
49 5389 -2829 0
49 -2829 -5390 0
49 -5390 5391 2830 0
49 5390 -2830 0
49 -2830 -5391 0
49 -5391 5392 2831 0
49 5391 -2831 0
49 -2831 -5392 0
49 -5392 5393 2832 0
49 5392 -2832 0
49 -2832 -5393 0
49 -5393 5394 2833 0
49 5393 -2833 0
49 -2833 -5394 0
49 -5394 5395 2834 0
49 5394 -2834 0
49 -2834 -5395 0
49 -5395 5387 0
49 -5387 5395 0
49 2835 2836 2837 2838 2839 2840 2841 2842 0
49 -5398 5397 0
49 -5399 5398 0
49 -5400 5399 0
49 -5401 5400 0
49 -5402 5401 0
49 -5403 5402 0
49 -5404 5403 0
49 5397 2835 0
49 -2835 -5397 0
49 -5397 5398 2836 0
49 5397 -2836 0
49 -2836 -5398 0
49 -5398 5399 2837 0
49 5398 -2837 0
49 -2837 -5399 0
49 -5399 5400 2838 0
49 5399 -2838 0
49 -2838 -5400 0
49 -5400 5401 2839 0
49 5400 -2839 0
49 -2839 -5401 0
49 -5401 5402 2840 0
49 5401 -2840 0
49 -2840 -5402 0
49 -5402 5403 2841 0
49 5402 -2841 0
49 -2841 -5403 0
49 -5403 5404 2842 0
49 5403 -2842 0
49 -2842 -5404 0
49 -5404 5396 0
49 -5396 5404 0
49 2843 0
49 2844 0
49 2845 2846 2847 2848 2849 2850 0
49 -5407 5406 0
49 -5408 5407 0
49 -5409 5408 0
49 -5410 5409 0
49 -5411 5410 0
49 5406 2845 0
49 -2845 -5406 0
49 -5406 5407 2846 0
49 5406 -2846 0
49 -2846 -5407 0
49 -5407 5408 2847 0
49 5407 -2847 0
49 -2847 -5408 0
49 -5408 5409 2848 0
49 5408 -2848 0
49 -2848 -5409 0
49 -5409 5410 2849 0
49 5409 -2849 0
49 -2849 -5410 0
49 -5410 5411 2850 0
49 5410 -2850 0
49 -2850 -5411 0
49 -5411 5405 0
49 -5405 5411 0
49 2851 2852 2853 2854 2855 2856 0
49 -5414 5413 0
49 -5415 5414 0
49 -5416 5415 0
49 -5417 5416 0
49 -5418 5417 0
49 5413 2851 0
49 -2851 -5413 0
49 -5413 5414 2852 0
49 5413 -2852 0
49 -2852 -5414 0
49 -5414 5415 2853 0
49 5414 -2853 0
49 -2853 -5415 0
49 -5415 5416 2854 0
49 5415 -2854 0
49 -2854 -5416 0
49 -5416 5417 2855 0
49 5416 -2855 0
49 -2855 -5417 0
49 -5417 5418 2856 0
49 5417 -2856 0
49 -2856 -5418 0
49 -5418 5412 0
49 -5412 5418 0
49 2857 0
49 2858 0
49 2859 2860 2861 2862 2863 2864 2865 2866 0
49 -5421 5420 0
49 -5422 5421 0
49 -5423 5422 0
49 -5424 5423 0
49 -5425 5424 0
49 -5426 5425 0
49 -5427 5426 0
49 5420 2859 0
49 -2859 -5420 0
49 -5420 5421 2860 0
49 5420 -2860 0
49 -2860 -5421 0
49 -5421 5422 2861 0
49 5421 -2861 0
49 -2861 -5422 0
49 -5422 5423 2862 0
49 5422 -2862 0
49 -2862 -5423 0
49 -5423 5424 2863 0
49 5423 -2863 0
49 -2863 -5424 0
49 -5424 5425 2864 0
49 5424 -2864 0
49 -2864 -5425 0
49 -5425 5426 2865 0
49 5425 -2865 0
49 -2865 -5426 0
49 -5426 5427 2866 0
49 5426 -2866 0
49 -2866 -5427 0
49 -5427 5419 0
49 -5419 5427 0
49 2867 2868 2869 2870 2871 2872 2873 2874 0
49 -5430 5429 0
49 -5431 5430 0
49 -5432 5431 0
49 -5433 5432 0
49 -5434 5433 0
49 -5435 5434 0
49 -5436 5435 0
49 5429 2867 0
49 -2867 -5429 0
49 -5429 5430 2868 0
49 5429 -2868 0
49 -2868 -5430 0
49 -5430 5431 2869 0
49 5430 -2869 0
49 -2869 -5431 0
49 -5431 5432 2870 0
49 5431 -2870 0
49 -2870 -5432 0
49 -5432 5433 2871 0
49 5432 -2871 0
49 -2871 -5433 0
49 -5433 5434 2872 0
49 5433 -2872 0
49 -2872 -5434 0
49 -5434 5435 2873 0
49 5434 -2873 0
49 -2873 -5435 0
49 -5435 5436 2874 0
49 5435 -2874 0
49 -2874 -5436 0
49 -5436 5428 0
49 -5428 5436 0
49 2875 2876 2877 2878 2879 2880 0
49 -5439 5438 0
49 -5440 5439 0
49 -5441 5440 0
49 -5442 5441 0
49 -5443 5442 0
49 5438 2875 0
49 -2875 -5438 0
49 -5438 5439 2876 0
49 5438 -2876 0
49 -2876 -5439 0
49 -5439 5440 2877 0
49 5439 -2877 0
49 -2877 -5440 0
49 -5440 5441 2878 0
49 5440 -2878 0
49 -2878 -5441 0
49 -5441 5442 2879 0
49 5441 -2879 0
49 -2879 -5442 0
49 -5442 5443 2880 0
49 5442 -2880 0
49 -2880 -5443 0
49 -5443 5437 0
49 -5437 5443 0
49 2881 2882 2883 2884 2885 2886 0
49 -5446 5445 0
49 -5447 5446 0
49 -5448 5447 0
49 -5449 5448 0
49 -5450 5449 0
49 5445 2881 0
49 -2881 -5445 0
49 -5445 5446 2882 0
49 5445 -2882 0
49 -2882 -5446 0
49 -5446 5447 2883 0
49 5446 -2883 0
49 -2883 -5447 0
49 -5447 5448 2884 0
49 5447 -2884 0
49 -2884 -5448 0
49 -5448 5449 2885 0
49 5448 -2885 0
49 -2885 -5449 0
49 -5449 5450 2886 0
49 5449 -2886 0
49 -2886 -5450 0
49 -5450 5444 0
49 -5444 5450 0
49 -1 2 0
49 -3 4 0
49 -5 12 0
49 -6 13 0
49 -7 14 0
49 -8 15 0
49 -9 16 0
49 -10 17 0
49 -11 18 0
49 -5 -280 0
49 -6 -281 0
49 -7 -282 0
49 -8 -283 0
49 -9 -284 0
49 -10 -285 0
49 -5 -287 0
49 -5 -288 0
49 -5 -289 0
49 -5 -290 0
49 -5 -291 0
49 -5 -292 0
49 -6 -288 0
49 -6 -289 0
49 -6 -290 0
49 -6 -291 0
49 -6 -292 0
49 -7 -289 0
49 -7 -290 0
49 -7 -291 0
49 -7 -292 0
49 -8 -290 0
49 -8 -291 0
49 -8 -292 0
49 -9 -291 0
49 -9 -292 0
49 -10 -292 0
49 -5 -1973 0
49 -5 -1974 0
49 -6 -1973 0
49 -6 -1974 0
49 -7 -1973 0
49 -7 -1974 0
49 -8 -1973 0
49 -8 -1974 0
49 -9 -1973 0
49 -9 -1974 0
49 -10 -1974 0
49 -13 -477 0
49 -14 -477 0
49 -15 -477 0
49 -15 -478 0
49 -16 -477 0
49 -16 -478 0
49 -17 -477 0
49 -17 -478 0
49 -17 -479 0
49 -18 -477 0
49 -18 -478 0
49 -18 -479 0
49 -13 -481 0
49 -15 -482 0
49 -17 -483 0
49 -17 -1698 0
49 -18 -1698 0
49 -19 20 0
49 -21 22 0
49 -23 24 0
49 -25 26 0
49 -27 28 0
49 -29 30 0
49 -31 36 0
49 -32 37 0
49 -33 38 0
49 -34 39 0
49 -35 40 0
49 -36 -393 0
49 -37 -393 0
49 -38 -393 0
49 -39 -393 0
49 -41 42 0
49 -43 54 0
49 -44 55 0
49 -45 56 0
49 -46 57 0
49 -47 58 0
49 -48 59 0
49 -49 60 0
49 -50 61 0
49 -51 62 0
49 -52 63 0
49 -53 64 0
49 -43 -1048 0
49 -43 -1049 0
49 -43 -1050 0
49 -43 -1051 0
49 -43 -1052 0
49 -43 -1053 0
49 -43 -1054 0
49 -44 -1049 0
49 -44 -1050 0
49 -44 -1051 0
49 -44 -1052 0
49 -44 -1053 0
49 -44 -1054 0
49 -45 -1050 0
49 -45 -1051 0
49 -45 -1052 0
49 -45 -1053 0
49 -45 -1054 0
49 -46 -1051 0
49 -46 -1052 0
49 -46 -1053 0
49 -46 -1054 0
49 -47 -1052 0
49 -47 -1053 0
49 -47 -1054 0
49 -48 -1053 0
49 -48 -1054 0
49 -49 -1054 0
49 -43 -1806 0
49 -44 -1806 0
49 -45 -1806 0
49 -46 -1806 0
49 -47 -1806 0
49 -48 -1806 0
49 -49 -1806 0
49 -50 -1806 0
49 -51 -1806 0
49 -52 -1806 0
49 -55 -1554 0
49 -56 -1554 0
49 -56 -1555 0
49 -57 -1554 0
49 -57 -1555 0
49 -57 -1556 0
49 -58 -1554 0
49 -58 -1555 0
49 -58 -1556 0
49 -58 -1557 0
49 -59 -1554 0
49 -59 -1555 0
49 -59 -1556 0
49 -59 -1557 0
49 -60 -1554 0
49 -60 -1555 0
49 -60 -1556 0
49 -60 -1557 0
49 -61 -1554 0
49 -61 -1555 0
49 -61 -1556 0
49 -61 -1557 0
49 -62 -1554 0
49 -62 -1555 0
49 -62 -1556 0
49 -62 -1557 0
49 -63 -1554 0
49 -63 -1555 0
49 -63 -1556 0
49 -63 -1557 0
49 -64 -1554 0
49 -64 -1555 0
49 -64 -1556 0
49 -64 -1557 0
49 -65 73 0
49 -66 74 0
49 -67 75 0
49 -68 76 0
49 -69 77 0
49 -70 78 0
49 -71 79 0
49 -72 80 0
49 -65 -86 0
49 -65 -87 0
49 -65 -88 0
49 -66 -86 0
49 -66 -87 0
49 -66 -88 0
49 -67 -87 0
49 -67 -88 0
49 -68 -87 0
49 -68 -88 0
49 -69 -88 0
49 -70 -88 0
49 -73 -456 0
49 -74 -456 0
49 -75 -456 0
49 -76 -456 0
49 -77 -456 0
49 -73 -458 0
49 -74 -458 0
49 -75 -458 0
49 -76 -458 0
49 -77 -458 0
49 -81 85 0
49 -82 86 0
49 -83 87 0
49 -84 88 0
49 -81 -280 0
49 -81 -281 0
49 -81 -282 0
49 -82 -282 0
49 -82 -283 0
49 -82 -284 0
49 -83 -284 0
49 -83 -285 0
49 -81 -458 0
49 -82 -458 0
49 -83 -458 0
49 -86 -279 0
49 -86 -280 0
49 -87 -279 0
49 -87 -280 0
49 -87 -281 0
49 -87 -282 0
49 -88 -279 0
49 -88 -280 0
49 -88 -281 0
49 -88 -282 0
49 -88 -283 0
49 -88 -284 0
49 -86 -458 0
49 -87 -458 0
49 -89 90 0
49 -91 92 0
49 -93 101 0
49 -94 102 0
49 -95 103 0
49 -96 104 0
49 -97 105 0
49 -98 106 0
49 -99 107 0
49 -100 108 0
49 -93 -386 0
49 -94 -386 0
49 -95 -386 0
49 -96 -386 0
49 -97 -386 0
49 -98 -386 0
49 -102 -259 0
49 -103 -259 0
49 -103 -260 0
49 -104 -259 0
49 -104 -260 0
49 -104 -261 0
49 -105 -259 0
49 -105 -260 0
49 -105 -261 0
49 -105 -262 0
49 -106 -259 0
49 -106 -260 0
49 -106 -261 0
49 -106 -262 0
49 -106 -263 0
49 -107 -259 0
49 -107 -260 0
49 -107 -261 0
49 -107 -262 0
49 -107 -263 0
49 -107 -264 0
49 -108 -259 0
49 -108 -260 0
49 -108 -261 0
49 -108 -262 0
49 -108 -263 0
49 -108 -264 0
49 -108 -265 0
49 -101 -268 0
49 -102 -269 0
49 -103 -270 0
49 -104 -271 0
49 -105 -272 0
49 -106 -273 0
49 -107 -274 0
49 -101 -301 0
49 -101 -302 0
49 -101 -303 0
49 -102 -302 0
49 -102 -303 0
49 -103 -303 0
49 -101 -305 0
49 -101 -306 0
49 -101 -307 0
49 -101 -308 0
49 -101 -309 0
49 -101 -310 0
49 -102 -306 0
49 -102 -307 0
49 -102 -308 0
49 -102 -309 0
49 -102 -310 0
49 -103 -307 0
49 -103 -308 0
49 -103 -309 0
49 -103 -310 0
49 -104 -308 0
49 -104 -309 0
49 -104 -310 0
49 -105 -309 0
49 -105 -310 0
49 -106 -310 0
49 -102 -329 0
49 -103 -329 0
49 -103 -330 0
49 -104 -329 0
49 -104 -330 0
49 -104 -331 0
49 -105 -330 0
49 -105 -331 0
49 -105 -332 0
49 -106 -331 0
49 -106 -332 0
49 -106 -333 0
49 -107 -332 0
49 -107 -333 0
49 -107 -334 0
49 -108 -333 0
49 -108 -334 0
49 -108 -335 0
49 -101 -386 0
49 -102 -386 0
49 -103 -386 0
49 -104 -386 0
49 -105 -386 0
49 -106 -386 0
49 -107 -386 0
49 -101 -1466 0
49 -101 -1467 0
49 -101 -1468 0
49 -102 -1467 0
49 -102 -1468 0
49 -103 -1468 0
49 -109 111 0
49 -110 112 0
49 -110 -177 0
49 -110 -178 0
49 -110 -179 0
49 -112 -597 0
49 -112 -598 0
49 -112 -599 0
49 -112 -600 0
49 -112 -601 0
49 -113 114 0
49 -115 116 0
49 -117 118 0
49 -119 124 0
49 -120 125 0
49 -121 126 0
49 -122 127 0
49 -123 128 0
49 -125 -1871 0
49 -125 -1872 0
49 -126 -1871 0
49 -126 -1872 0
49 -127 -1871 0
49 -127 -1872 0
49 -128 -1871 0
49 -128 -1872 0
49 -129 130 0
49 -131 132 0
49 -133 141 0
49 -134 142 0
49 -135 143 0
49 -136 144 0
49 -137 145 0
49 -138 146 0
49 -139 147 0
49 -140 148 0
49 -133 -178 0
49 -133 -179 0
49 -133 -180 0
49 -133 -181 0
49 -133 -182 0
49 -134 -178 0
49 -134 -179 0
49 -134 -180 0
49 -134 -181 0
49 -134 -182 0
49 -135 -178 0
49 -135 -179 0
49 -135 -180 0
49 -135 -181 0
49 -135 -182 0
49 -136 -179 0
49 -136 -180 0
49 -136 -181 0
49 -136 -182 0
49 -137 -180 0
49 -137 -181 0
49 -137 -182 0
49 -138 -181 0
49 -138 -182 0
49 -139 -182 0
49 -149 153 0
49 -150 154 0
49 -151 155 0
49 -152 156 0
49 -157 164 0
49 -158 165 0
49 -159 166 0
49 -160 167 0
49 -161 168 0
49 -162 169 0
49 -163 170 0
49 -161 -1021 0
49 -162 -1021 0
49 -162 -1022 0
49 -163 -1021 0
49 -163 -1022 0
49 -163 -1023 0
49 -168 -979 0
49 -168 -980 0
49 -168 -981 0
49 -168 -982 0
49 -168 -983 0
49 -169 -979 0
49 -169 -980 0
49 -169 -981 0
49 -169 -982 0
49 -169 -983 0
49 -169 -984 0
49 -170 -979 0
49 -170 -980 0
49 -170 -981 0
49 -170 -982 0
49 -170 -983 0
49 -170 -984 0
49 -170 -985 0
49 -168 -987 0
49 -168 -988 0
49 -168 -989 0
49 -168 -990 0
49 -168 -991 0
49 -169 -987 0
49 -169 -988 0
49 -169 -989 0
49 -169 -990 0
49 -169 -991 0
49 -169 -992 0
49 -170 -987 0
49 -170 -988 0
49 -170 -989 0
49 -170 -990 0
49 -170 -991 0
49 -170 -992 0
49 -170 -993 0
49 -164 -1429 0
49 -165 -1429 0
49 -166 -1429 0
49 -169 -1430 0
49 -170 -1430 0
49 -170 -1431 0
49 -164 -1434 0
49 -165 -1434 0
49 -166 -1434 0
49 -169 -1435 0
49 -170 -1435 0
49 -170 -1436 0
49 -171 177 0
49 -172 178 0
49 -173 179 0
49 -174 180 0
49 -175 181 0
49 -176 182 0
49 -171 -2471 0
49 -182 -597 0
49 -183 194 0
49 -184 195 0
49 -185 196 0
49 -186 197 0
49 -187 198 0
49 -188 199 0
49 -189 200 0
49 -190 201 0
49 -191 202 0
49 -192 203 0
49 -193 204 0
49 -184 -689 0
49 -185 -689 0
49 -185 -690 0
49 -186 -689 0
49 -186 -690 0
49 -186 -691 0
49 -187 -689 0
49 -187 -690 0
49 -187 -691 0
49 -187 -692 0
49 -188 -689 0
49 -188 -690 0
49 -188 -691 0
49 -188 -692 0
49 -188 -693 0
49 -189 -690 0
49 -189 -691 0
49 -189 -692 0
49 -189 -693 0
49 -189 -694 0
49 -190 -691 0
49 -190 -692 0
49 -190 -693 0
49 -190 -694 0
49 -190 -695 0
49 -191 -692 0
49 -191 -693 0
49 -191 -694 0
49 -191 -695 0
49 -191 -696 0
49 -192 -693 0
49 -192 -694 0
49 -192 -695 0
49 -192 -696 0
49 -193 -694 0
49 -193 -695 0
49 -193 -696 0
49 -205 206 0
49 -207 208 0
49 -209 220 0
49 -210 221 0
49 -211 222 0
49 -212 223 0
49 -213 224 0
49 -214 225 0
49 -215 226 0
49 -216 227 0
49 -217 228 0
49 -218 229 0
49 -219 230 0
49 -220 -450 0
49 -221 -450 0
49 -227 -451 0
49 -228 -451 0
49 -229 -451 0
49 -230 -451 0
49 -220 -616 0
49 -221 -616 0
49 -222 -616 0
49 -223 -616 0
49 -224 -616 0
49 -221 -818 0
49 -222 -818 0
49 -222 -819 0
49 -223 -818 0
49 -223 -819 0
49 -224 -818 0
49 -224 -819 0
49 -225 -818 0
49 -225 -819 0
49 -226 -818 0
49 -226 -819 0
49 -227 -818 0
49 -227 -819 0
49 -228 -818 0
49 -228 -819 0
49 -229 -818 0
49 -229 -819 0
49 -230 -818 0
49 -230 -819 0
49 -220 -954 0
49 -221 -954 0
49 -222 -954 0
49 -223 -954 0
49 -224 -954 0
49 -225 -954 0
49 -226 -954 0
49 -227 -954 0
49 -228 -954 0
49 -229 -954 0
49 -231 239 0
49 -232 240 0
49 -233 241 0
49 -234 242 0
49 -235 243 0
49 -236 244 0
49 -237 245 0
49 -238 246 0
49 -231 -550 0
49 -232 -551 0
49 -233 -552 0
49 -234 -553 0
49 -235 -554 0
49 -236 -555 0
49 -237 -556 0
49 -231 -818 0
49 -231 -819 0
49 -232 -818 0
49 -232 -819 0
49 -233 -818 0
49 -233 -819 0
49 -234 -818 0
49 -234 -819 0
49 -235 -818 0
49 -235 -819 0
49 -236 -818 0
49 -236 -819 0
49 -237 -819 0
49 -231 -821 0
49 -231 -822 0
49 -232 -821 0
49 -232 -822 0
49 -233 -821 0
49 -233 -822 0
49 -234 -821 0
49 -234 -822 0
49 -235 -822 0
49 -239 -453 0
49 -240 -453 0
49 -240 -454 0
49 -241 -454 0
49 -242 -454 0
49 -243 -454 0
49 -244 -454 0
49 -245 -454 0
49 -246 -454 0
49 -239 -558 0
49 -240 -559 0
49 -241 -560 0
49 -242 -561 0
49 -243 -562 0
49 -244 -563 0
49 -245 -564 0
49 -247 248 0
49 -249 250 0
49 -251 252 0
49 -253 254 0
49 -255 256 0
49 -257 258 0
49 -259 267 0
49 -260 268 0
49 -261 269 0
49 -262 270 0
49 -263 271 0
49 -264 272 0
49 -265 273 0
49 -266 274 0
49 -260 -321 0
49 -261 -321 0
49 -261 -322 0
49 -262 -321 0
49 -262 -322 0
49 -262 -323 0
49 -263 -321 0
49 -263 -322 0
49 -263 -323 0
49 -263 -324 0
49 -264 -321 0
49 -264 -322 0
49 -264 -323 0
49 -264 -324 0
49 -264 -325 0
49 -265 -322 0
49 -265 -323 0
49 -265 -324 0
49 -265 -325 0
49 -265 -326 0
49 -266 -323 0
49 -266 -324 0
49 -266 -325 0
49 -266 -326 0
49 -266 -327 0
49 -259 -330 0
49 -259 -331 0
49 -259 -332 0
49 -259 -333 0
49 -259 -334 0
49 -259 -335 0
49 -259 -336 0
49 -260 -331 0
49 -260 -332 0
49 -260 -333 0
49 -260 -334 0
49 -260 -335 0
49 -260 -336 0
49 -261 -332 0
49 -261 -333 0
49 -261 -334 0
49 -261 -335 0
49 -261 -336 0
49 -262 -333 0
49 -262 -334 0
49 -262 -335 0
49 -262 -336 0
49 -263 -334 0
49 -263 -335 0
49 -263 -336 0
49 -264 -335 0
49 -264 -336 0
49 -265 -336 0
49 -268 -963 0
49 -269 -963 0
49 -269 -964 0
49 -270 -963 0
49 -270 -964 0
49 -270 -965 0
49 -271 -963 0
49 -271 -964 0
49 -271 -965 0
49 -271 -966 0
49 -272 -963 0
49 -272 -964 0
49 -272 -965 0
49 -272 -966 0
49 -272 -967 0
49 -273 -963 0
49 -273 -964 0
49 -273 -965 0
49 -273 -966 0
49 -273 -967 0
49 -273 -968 0
49 -274 -963 0
49 -274 -964 0
49 -274 -965 0
49 -274 -966 0
49 -274 -967 0
49 -274 -968 0
49 -274 -969 0
49 -268 -1979 0
49 -269 -1979 0
49 -269 -1980 0
49 -270 -1979 0
49 -270 -1980 0
49 -270 -1981 0
49 -271 -1979 0
49 -271 -1980 0
49 -271 -1981 0
49 -271 -1982 0
49 -272 -1979 0
49 -272 -1980 0
49 -272 -1981 0
49 -272 -1982 0
49 -272 -1983 0
49 -273 -1979 0
49 -273 -1980 0
49 -273 -1981 0
49 -273 -1982 0
49 -273 -1983 0
49 -273 -1984 0
49 -274 -1979 0
49 -274 -1980 0
49 -274 -1981 0
49 -274 -1982 0
49 -274 -1983 0
49 -274 -1984 0
49 -274 -1985 0
49 -268 -1987 0
49 -269 -1987 0
49 -269 -1988 0
49 -270 -1987 0
49 -270 -1988 0
49 -270 -1989 0
49 -271 -1987 0
49 -271 -1988 0
49 -271 -1989 0
49 -271 -1990 0
49 -272 -1987 0
49 -272 -1988 0
49 -272 -1989 0
49 -272 -1990 0
49 -272 -1991 0
49 -273 -1988 0
49 -273 -1989 0
49 -273 -1990 0
49 -273 -1991 0
49 -273 -1992 0
49 -274 -1989 0
49 -274 -1990 0
49 -274 -1991 0
49 -274 -1992 0
49 -274 -1993 0
49 -275 276 0
49 -277 278 0
49 -279 286 0
49 -280 287 0
49 -281 288 0
49 -282 289 0
49 -283 290 0
49 -284 291 0
49 -285 292 0
49 -279 -531 0
49 -279 -532 0
49 -279 -533 0
49 -279 -534 0
49 -279 -535 0
49 -279 -536 0
49 -280 -532 0
49 -280 -533 0
49 -280 -534 0
49 -280 -535 0
49 -280 -536 0
49 -281 -533 0
49 -281 -534 0
49 -281 -535 0
49 -281 -536 0
49 -282 -534 0
49 -282 -535 0
49 -282 -536 0
49 -283 -535 0
49 -283 -536 0
49 -284 -536 0
49 -286 -456 0
49 -287 -456 0
49 -288 -456 0
49 -289 -456 0
49 -290 -456 0
49 -293 294 0
49 -295 296 0
49 -297 304 0
49 -298 305 0
49 -299 306 0
49 -300 307 0
49 -301 308 0
49 -302 309 0
49 -303 310 0
49 -301 -573 0
49 -302 -573 0
49 -302 -574 0
49 -303 -573 0
49 -303 -574 0
49 -303 -575 0
49 -298 -1382 0
49 -299 -1382 0
49 -299 -1383 0
49 -300 -1382 0
49 -300 -1383 0
49 -300 -1384 0
49 -301 -1382 0
49 -301 -1383 0
49 -301 -1384 0
49 -301 -1385 0
49 -302 -1382 0
49 -302 -1383 0
49 -302 -1384 0
49 -302 -1385 0
49 -302 -1386 0
49 -303 -1382 0
49 -303 -1383 0
49 -303 -1384 0
49 -303 -1385 0
49 -303 -1386 0
49 -303 -1387 0
49 -306 -321 0
49 -307 -321 0
49 -307 -322 0
49 -308 -321 0
49 -308 -322 0
49 -308 -323 0
49 -309 -321 0
49 -309 -322 0
49 -309 -323 0
49 -309 -324 0
49 -310 -321 0
49 -310 -322 0
49 -310 -323 0
49 -310 -324 0
49 -310 -325 0
49 -304 -1462 0
49 -304 -1463 0
49 -304 -1464 0
49 -305 -1463 0
49 -305 -1464 0
49 -305 -1465 0
49 -306 -1464 0
49 -306 -1465 0
49 -306 -1466 0
49 -307 -1465 0
49 -307 -1466 0
49 -307 -1467 0
49 -308 -1466 0
49 -308 -1467 0
49 -308 -1468 0
49 -309 -1467 0
49 -309 -1468 0
49 -310 -1468 0
49 -311 312 0
49 -313 314 0
49 -315 316 0
49 -317 318 0
49 -319 320 0
49 -321 329 0
49 -322 330 0
49 -323 331 0
49 -324 332 0
49 -325 333 0
49 -326 334 0
49 -327 335 0
49 -328 336 0
49 -325 -764 0
49 -326 -765 0
49 -327 -766 0
49 -321 -768 0
49 -321 -769 0
49 -321 -770 0
49 -322 -768 0
49 -322 -769 0
49 -322 -770 0
49 -323 -768 0
49 -323 -769 0
49 -323 -770 0
49 -324 -768 0
49 -324 -769 0
49 -324 -770 0
49 -325 -768 0
49 -325 -769 0
49 -325 -770 0
49 -326 -769 0
49 -326 -770 0
49 -327 -770 0
49 -329 -1383 0
49 -329 -1384 0
49 -329 -1385 0
49 -329 -1386 0
49 -329 -1387 0
49 -329 -1388 0
49 -330 -1383 0
49 -330 -1384 0
49 -330 -1385 0
49 -330 -1386 0
49 -330 -1387 0
49 -330 -1388 0
49 -330 -1389 0
49 -331 -1384 0
49 -331 -1385 0
49 -331 -1386 0
49 -331 -1387 0
49 -331 -1388 0
49 -331 -1389 0
49 -331 -1390 0
49 -332 -1385 0
49 -332 -1386 0
49 -332 -1387 0
49 -332 -1388 0
49 -332 -1389 0
49 -332 -1390 0
49 -332 -1391 0
49 -333 -1386 0
49 -333 -1387 0
49 -333 -1388 0
49 -333 -1389 0
49 -333 -1390 0
49 -333 -1391 0
49 -334 -1387 0
49 -334 -1388 0
49 -334 -1389 0
49 -334 -1390 0
49 -334 -1391 0
49 -335 -1388 0
49 -335 -1389 0
49 -335 -1390 0
49 -335 -1391 0
49 -336 -1389 0
49 -336 -1390 0
49 -336 -1391 0
49 -329 -1466 0
49 -329 -1467 0
49 -329 -1468 0
49 -330 -1467 0
49 -330 -1468 0
49 -331 -1468 0
49 -337 338 0
49 -339 347 0
49 -340 348 0
49 -341 349 0
49 -342 350 0
49 -343 351 0
49 -344 352 0
49 -345 353 0
49 -346 354 0
49 -339 -1124 0
49 -339 -1125 0
49 -339 -1126 0
49 -339 -1127 0
49 -339 -1128 0
49 -339 -1129 0
49 -339 -1130 0
49 -340 -1125 0
49 -340 -1126 0
49 -340 -1127 0
49 -340 -1128 0
49 -340 -1129 0
49 -340 -1130 0
49 -341 -1126 0
49 -341 -1127 0
49 -341 -1128 0
49 -341 -1129 0
49 -341 -1130 0
49 -342 -1127 0
49 -342 -1128 0
49 -342 -1129 0
49 -342 -1130 0
49 -343 -1128 0
49 -343 -1129 0
49 -343 -1130 0
49 -344 -1129 0
49 -344 -1130 0
49 -345 -1130 0
49 -355 356 0
49 -357 365 0
49 -358 366 0
49 -359 367 0
49 -360 368 0
49 -361 369 0
49 -362 370 0
49 -363 371 0
49 -364 372 0
49 -358 -931 0
49 -359 -932 0
49 -360 -933 0
49 -361 -934 0
49 -362 -935 0
49 -363 -936 0
49 -360 -937 0
49 -361 -937 0
49 -361 -938 0
49 -362 -937 0
49 -362 -938 0
49 -362 -939 0
49 -363 -937 0
49 -363 -938 0
49 -363 -939 0
49 -363 -940 0
49 -364 -937 0
49 -364 -938 0
49 -364 -939 0
49 -364 -940 0
49 -364 -941 0
49 -366 -937 0
49 -367 -938 0
49 -368 -939 0
49 -369 -940 0
49 -370 -941 0
49 -371 -942 0
49 -365 -1395 0
49 -366 -1395 0
49 -366 -1396 0
49 -367 -1395 0
49 -367 -1396 0
49 -367 -1397 0
49 -368 -1395 0
49 -368 -1396 0
49 -368 -1397 0
49 -369 -1395 0
49 -369 -1396 0
49 -369 -1397 0
49 -370 -1395 0
49 -370 -1396 0
49 -370 -1397 0
49 -371 -1395 0
49 -371 -1396 0
49 -371 -1397 0
49 -372 -1396 0
49 -372 -1397 0
49 -367 -1409 0
49 -368 -1409 0
49 -369 -1409 0
49 -370 -1409 0
49 -371 -1409 0
49 -365 -1697 0
49 -366 -1697 0
49 -367 -1697 0
49 -368 -1697 0
49 -369 -1697 0
49 -370 -1697 0
49 -371 -1697 0
49 -373 374 0
49 -375 376 0
49 -377 380 0
49 -378 381 0
49 -379 382 0
49 -378 -1738 0
49 -378 -1739 0
49 -378 -1740 0
49 -378 -1741 0
49 -378 -1742 0
49 -378 -1743 0
49 -378 -1744 0
49 -379 -1739 0
49 -379 -1740 0
49 -379 -1741 0
49 -379 -1742 0
49 -379 -1743 0
49 -379 -1744 0
49 -381 -400 0
49 -380 -1228 0
49 -381 -1269 0
49 -381 -1270 0
49 -381 -1271 0
49 -381 -1272 0
49 -382 -1269 0
49 -382 -1270 0
49 -382 -1271 0
49 -382 -1272 0
49 -382 -1273 0
49 -381 -1473 0
49 -381 -1474 0
49 -381 -1475 0
49 -381 -1476 0
49 -381 -1477 0
49 -381 -1478 0
49 -382 -1473 0
49 -382 -1474 0
49 -382 -1475 0
49 -382 -1476 0
49 -382 -1477 0
49 -382 -1478 0
49 -382 -1479 0
49 -381 -1729 0
49 -381 -1730 0
49 -381 -1731 0
49 -381 -1732 0
49 -381 -1733 0
49 -381 -1734 0
49 -382 -1729 0
49 -382 -1730 0
49 -382 -1731 0
49 -382 -1732 0
49 -382 -1733 0
49 -382 -1734 0
49 -382 -1735 0
49 -381 -1738 0
49 -381 -1739 0
49 -381 -1740 0
49 -381 -1741 0
49 -381 -1742 0
49 -382 -1739 0
49 -382 -1740 0
49 -382 -1741 0
49 -382 -1742 0
49 -382 -1743 0
49 -381 -1910 0
49 -381 -1911 0
49 -381 -1912 0
49 -381 -1913 0
49 -381 -1914 0
49 -382 -1910 0
49 -382 -1911 0
49 -382 -1912 0
49 -382 -1913 0
49 -382 -1914 0
49 -382 -1915 0
49 -383 385 0
49 -384 386 0
49 -384 -646 0
49 -384 -654 0
49 -384 -655 0
49 -384 -656 0
49 -384 -657 0
49 -384 -658 0
49 -384 -659 0
49 -384 -660 0
49 -383 -1459 0
49 -386 -1372 0
49 -387 388 0
49 -389 390 0
49 -391 392 0
49 -393 397 0
49 -394 398 0
49 -395 399 0
49 -396 400 0
49 -394 -1230 0
49 -395 -1230 0
49 -396 -1230 0
49 -394 -1271 0
49 -394 -1272 0
49 -394 -1273 0
49 -394 -1274 0
49 -395 -1272 0
49 -395 -1273 0
49 -395 -1274 0
49 -396 -1273 0
49 -396 -1274 0
49 -393 -1459 0
49 -393 -1460 0
49 -393 -1461 0
49 -393 -1462 0
49 -393 -1463 0
49 -393 -1464 0
49 -394 -1924 0
49 -394 -1925 0
49 -394 -1926 0
49 -394 -1927 0
49 -394 -1928 0
49 -394 -1929 0
49 -394 -1930 0
49 -395 -1925 0
49 -395 -1926 0
49 -395 -1927 0
49 -395 -1928 0
49 -395 -1929 0
49 -395 -1930 0
49 -396 -1926 0
49 -396 -1927 0
49 -396 -1928 0
49 -396 -1929 0
49 -396 -1930 0
49 -398 -1269 0
49 -399 -1269 0
49 -399 -1270 0
49 -400 -1269 0
49 -400 -1270 0
49 -400 -1271 0
49 -398 -1473 0
49 -398 -1474 0
49 -398 -1475 0
49 -398 -1476 0
49 -398 -1477 0
49 -399 -1473 0
49 -399 -1474 0
49 -399 -1475 0
49 -399 -1476 0
49 -399 -1477 0
49 -399 -1478 0
49 -400 -1473 0
49 -400 -1474 0
49 -400 -1475 0
49 -400 -1476 0
49 -400 -1477 0
49 -400 -1478 0
49 -400 -1479 0
49 -398 -1729 0
49 -398 -1730 0
49 -398 -1731 0
49 -398 -1732 0
49 -398 -1733 0
49 -399 -1729 0
49 -399 -1730 0
49 -399 -1731 0
49 -399 -1732 0
49 -399 -1733 0
49 -399 -1734 0
49 -400 -1729 0
49 -400 -1730 0
49 -400 -1731 0
49 -400 -1732 0
49 -400 -1733 0
49 -400 -1734 0
49 -400 -1735 0
49 -401 402 0
49 -403 411 0
49 -404 412 0
49 -405 413 0
49 -406 414 0
49 -407 415 0
49 -408 416 0
49 -409 417 0
49 -410 418 0
49 -403 -1292 0
49 -404 -1292 0
49 -404 -1293 0
49 -405 -1292 0
49 -405 -1293 0
49 -405 -1294 0
49 -406 -1292 0
49 -406 -1293 0
49 -406 -1294 0
49 -406 -1295 0
49 -407 -1292 0
49 -407 -1293 0
49 -407 -1294 0
49 -407 -1295 0
49 -407 -1296 0
49 -408 -1292 0
49 -408 -1293 0
49 -408 -1294 0
49 -408 -1295 0
49 -408 -1296 0
49 -409 -1292 0
49 -409 -1293 0
49 -409 -1294 0
49 -409 -1295 0
49 -409 -1296 0
49 -410 -1293 0
49 -410 -1294 0
49 -410 -1295 0
49 -410 -1296 0
49 -403 -1702 0
49 -404 -1703 0
49 -405 -1704 0
49 -406 -1705 0
49 -407 -1706 0
49 -408 -1707 0
49 -409 -1708 0
49 -412 -1701 0
49 -413 -1701 0
49 -413 -1702 0
49 -414 -1701 0
49 -414 -1702 0
49 -414 -1703 0
49 -415 -1701 0
49 -415 -1702 0
49 -415 -1703 0
49 -415 -1704 0
49 -416 -1701 0
49 -416 -1702 0
49 -416 -1703 0
49 -416 -1704 0
49 -416 -1705 0
49 -417 -1701 0
49 -417 -1702 0
49 -417 -1703 0
49 -417 -1704 0
49 -417 -1705 0
49 -417 -1706 0
49 -418 -1701 0
49 -418 -1702 0
49 -418 -1703 0
49 -418 -1704 0
49 -418 -1705 0
49 -418 -1706 0
49 -418 -1707 0
49 -419 420 0
49 -421 429 0
49 -422 430 0
49 -423 431 0
49 -424 432 0
49 -425 433 0
49 -426 434 0
49 -427 435 0
49 -428 436 0
49 -422 -791 0
49 -423 -791 0
49 -423 -792 0
49 -424 -791 0
49 -424 -792 0
49 -424 -793 0
49 -425 -792 0
49 -425 -793 0
49 -425 -794 0
49 -426 -793 0
49 -426 -794 0
49 -426 -795 0
49 -427 -794 0
49 -427 -795 0
49 -427 -796 0
49 -428 -795 0
49 -428 -796 0
49 -428 -797 0
49 -421 -800 0
49 -421 -801 0
49 -421 -802 0
49 -421 -803 0
49 -421 -804 0
49 -421 -805 0
49 -421 -806 0
49 -422 -801 0
49 -422 -802 0
49 -422 -803 0
49 -422 -804 0
49 -422 -805 0
49 -422 -806 0
49 -423 -802 0
49 -423 -803 0
49 -423 -804 0
49 -423 -805 0
49 -423 -806 0
49 -424 -803 0
49 -424 -804 0
49 -424 -805 0
49 -424 -806 0
49 -425 -804 0
49 -425 -805 0
49 -425 -806 0
49 -426 -805 0
49 -426 -806 0
49 -427 -806 0
49 -422 -2449 0
49 -423 -2450 0
49 -424 -2451 0
49 -425 -2452 0
49 -426 -2453 0
49 -427 -2454 0
49 -428 -2455 0
49 -421 -2458 0
49 -421 -2459 0
49 -421 -2460 0
49 -421 -2461 0
49 -421 -2462 0
49 -421 -2463 0
49 -421 -2464 0
49 -422 -2459 0
49 -422 -2460 0
49 -422 -2461 0
49 -422 -2462 0
49 -422 -2463 0
49 -422 -2464 0
49 -423 -2460 0
49 -423 -2461 0
49 -423 -2462 0
49 -423 -2463 0
49 -423 -2464 0
49 -424 -2461 0
49 -424 -2462 0
49 -424 -2463 0
49 -424 -2464 0
49 -425 -2462 0
49 -425 -2463 0
49 -425 -2464 0
49 -426 -2463 0
49 -426 -2464 0
49 -427 -2464 0
49 -430 -791 0
49 -431 -791 0
49 -431 -792 0
49 -432 -791 0
49 -432 -792 0
49 -432 -793 0
49 -433 -791 0
49 -433 -792 0
49 -433 -793 0
49 -433 -794 0
49 -434 -791 0
49 -434 -792 0
49 -434 -793 0
49 -434 -794 0
49 -434 -795 0
49 -435 -791 0
49 -435 -792 0
49 -435 -793 0
49 -435 -794 0
49 -435 -795 0
49 -435 -796 0
49 -436 -791 0
49 -436 -792 0
49 -436 -793 0
49 -436 -794 0
49 -436 -795 0
49 -436 -796 0
49 -436 -797 0
49 -430 -799 0
49 -431 -799 0
49 -431 -800 0
49 -432 -799 0
49 -432 -800 0
49 -432 -801 0
49 -433 -800 0
49 -433 -801 0
49 -433 -802 0
49 -434 -801 0
49 -434 -802 0
49 -434 -803 0
49 -435 -802 0
49 -435 -803 0
49 -435 -804 0
49 -436 -803 0
49 -436 -804 0
49 -436 -805 0
49 -430 -2449 0
49 -431 -2449 0
49 -431 -2450 0
49 -432 -2449 0
49 -432 -2450 0
49 -432 -2451 0
49 -433 -2449 0
49 -433 -2450 0
49 -433 -2451 0
49 -433 -2452 0
49 -434 -2449 0
49 -434 -2450 0
49 -434 -2451 0
49 -434 -2452 0
49 -434 -2453 0
49 -435 -2449 0
49 -435 -2450 0
49 -435 -2451 0
49 -435 -2452 0
49 -435 -2453 0
49 -435 -2454 0
49 -436 -2449 0
49 -436 -2450 0
49 -436 -2451 0
49 -436 -2452 0
49 -436 -2453 0
49 -436 -2454 0
49 -436 -2455 0
49 -430 -2457 0
49 -431 -2458 0
49 -432 -2459 0
49 -433 -2460 0
49 -434 -2461 0
49 -435 -2462 0
49 -436 -2463 0
49 -437 438 0
49 -439 440 0
49 -441 444 0
49 -442 445 0
49 -443 446 0
49 -441 -698 0
49 -441 -699 0
49 -441 -700 0
49 -441 -701 0
49 -441 -702 0
49 -441 -703 0
49 -441 -704 0
49 -442 -704 0
49 -447 448 0
49 -449 452 0
49 -450 453 0
49 -451 454 0
49 -450 -557 0
49 -450 -558 0
49 -451 -561 0
49 -451 -562 0
49 -451 -563 0
49 -451 -564 0
49 -449 -1190 0
49 -449 -1191 0
49 -450 -1190 0
49 -450 -1191 0
49 -453 -820 0
49 -455 457 0
49 -456 458 0
49 -458 -549 0
49 -458 -550 0
49 -458 -551 0
49 -458 -552 0
49 -458 -553 0
49 -458 -558 0
49 -458 -559 0
49 -458 -560 0
49 -458 -561 0
49 -459 467 0
49 -460 468 0
49 -461 469 0
49 -462 470 0
49 -463 471 0
49 -464 472 0
49 -465 473 0
49 -466 474 0
49 -459 -1584 0
49 -459 -1585 0
49 -459 -1586 0
49 -459 -1587 0
49 -459 -1588 0
49 -460 -1585 0
49 -460 -1586 0
49 -460 -1587 0
49 -460 -1588 0
49 -460 -1589 0
49 -461 -1586 0
49 -461 -1587 0
49 -461 -1588 0
49 -461 -1589 0
49 -461 -1590 0
49 -462 -1587 0
49 -462 -1588 0
49 -462 -1589 0
49 -462 -1590 0
49 -463 -1588 0
49 -463 -1589 0
49 -463 -1590 0
49 -464 -1589 0
49 -464 -1590 0
49 -465 -1590 0
49 -463 -1674 0
49 -464 -1674 0
49 -465 -1674 0
49 -459 -1676 0
49 -460 -1676 0
49 -461 -1676 0
49 -462 -1676 0
49 -463 -1676 0
49 -464 -1676 0
49 -465 -1676 0
49 -468 -1192 0
49 -469 -1192 0
49 -475 476 0
49 -477 481 0
49 -478 482 0
49 -479 483 0
49 -480 484 0
49 -482 -1489 0
49 -482 -1490 0
49 -483 -1489 0
49 -483 -1490 0
49 -483 -1491 0
49 -483 -1492 0
49 -484 -1489 0
49 -484 -1490 0
49 -484 -1491 0
49 -484 -1492 0
49 -484 -1493 0
49 -484 -1494 0
49 -485 493 0
49 -486 494 0
49 -487 495 0
49 -488 496 0
49 -489 497 0
49 -490 498 0
49 -491 499 0
49 -492 500 0
49 -491 -780 0
49 -491 -781 0
49 -491 -782 0
49 -491 -783 0
49 -491 -784 0
49 -491 -785 0
49 -491 -786 0
49 -492 -781 0
49 -492 -782 0
49 -492 -783 0
49 -492 -784 0
49 -492 -785 0
49 -492 -786 0
49 -493 -2200 0
49 -493 -2201 0
49 -493 -2202 0
49 -494 -2201 0
49 -494 -2202 0
49 -495 -2202 0
49 -496 -2202 0
49 -497 -2202 0
49 -493 -2295 0
49 -493 -2296 0
49 -493 -2297 0
49 -493 -2298 0
49 -493 -2299 0
49 -493 -2300 0
49 -493 -2301 0
49 -493 -2302 0
49 -494 -2296 0
49 -494 -2297 0
49 -494 -2298 0
49 -494 -2299 0
49 -494 -2300 0
49 -494 -2301 0
49 -494 -2302 0
49 -495 -2297 0
49 -495 -2298 0
49 -495 -2299 0
49 -495 -2300 0
49 -495 -2301 0
49 -495 -2302 0
49 -496 -2298 0
49 -496 -2299 0
49 -496 -2300 0
49 -496 -2301 0
49 -496 -2302 0
49 -497 -2299 0
49 -497 -2300 0
49 -497 -2301 0
49 -497 -2302 0
49 -501 512 0
49 -502 513 0
49 -503 514 0
49 -504 515 0
49 -505 516 0
49 -506 517 0
49 -507 518 0
49 -508 519 0
49 -509 520 0
49 -510 521 0
49 -511 522 0
49 -502 -2357 0
49 -503 -2357 0
49 -503 -2358 0
49 -504 -2357 0
49 -504 -2358 0
49 -504 -2359 0
49 -505 -2357 0
49 -505 -2358 0
49 -505 -2359 0
49 -505 -2360 0
49 -506 -2357 0
49 -506 -2358 0
49 -506 -2359 0
49 -506 -2360 0
49 -506 -2361 0
49 -507 -2358 0
49 -507 -2359 0
49 -507 -2360 0
49 -507 -2361 0
49 -507 -2362 0
49 -508 -2359 0
49 -508 -2360 0
49 -508 -2361 0
49 -508 -2362 0
49 -508 -2363 0
49 -509 -2360 0
49 -509 -2361 0
49 -509 -2362 0
49 -509 -2363 0
49 -509 -2364 0
49 -510 -2361 0
49 -510 -2362 0
49 -510 -2363 0
49 -510 -2364 0
49 -511 -2362 0
49 -511 -2363 0
49 -511 -2364 0
49 -501 -2715 0
49 -501 -2716 0
49 -501 -2717 0
49 -501 -2718 0
49 -501 -2719 0
49 -501 -2720 0
49 -502 -2716 0
49 -502 -2717 0
49 -502 -2718 0
49 -502 -2719 0
49 -502 -2720 0
49 -503 -2717 0
49 -503 -2718 0
49 -503 -2719 0
49 -503 -2720 0
49 -504 -2717 0
49 -504 -2718 0
49 -504 -2719 0
49 -504 -2720 0
49 -505 -2718 0
49 -505 -2719 0
49 -505 -2720 0
49 -506 -2719 0
49 -506 -2720 0
49 -507 -2720 0
49 -512 -2715 0
49 -512 -2716 0
49 -512 -2717 0
49 -512 -2718 0
49 -512 -2719 0
49 -512 -2720 0
49 -513 -2716 0
49 -513 -2717 0
49 -513 -2718 0
49 -513 -2719 0
49 -513 -2720 0
49 -514 -2717 0
49 -514 -2718 0
49 -514 -2719 0
49 -514 -2720 0
49 -515 -2717 0
49 -515 -2718 0
49 -515 -2719 0
49 -515 -2720 0
49 -516 -2718 0
49 -516 -2719 0
49 -516 -2720 0
49 -517 -2719 0
49 -517 -2720 0
49 -518 -2720 0
49 -513 -2835 0
49 -514 -2835 0
49 -514 -2836 0
49 -515 -2835 0
49 -515 -2836 0
49 -515 -2837 0
49 -516 -2836 0
49 -516 -2837 0
49 -516 -2838 0
49 -517 -2837 0
49 -517 -2838 0
49 -517 -2839 0
49 -518 -2838 0
49 -518 -2839 0
49 -518 -2840 0
49 -519 -2839 0
49 -519 -2840 0
49 -519 -2841 0
49 -520 -2840 0
49 -520 -2841 0
49 -520 -2842 0
49 -521 -2841 0
49 -521 -2842 0
49 -522 -2842 0
49 -523 530 0
49 -524 531 0
49 -525 532 0
49 -526 533 0
49 -527 534 0
49 -528 535 0
49 -529 536 0
49 -537 538 0
49 -539 544 0
49 -540 545 0
49 -541 546 0
49 -542 547 0
49 -543 548 0
49 -549 557 0
49 -550 558 0
49 -551 559 0
49 -552 560 0
49 -553 561 0
49 -554 562 0
49 -555 563 0
49 -556 564 0
49 -558 -743 0
49 -559 -743 0
49 -559 -744 0
49 -560 -743 0
49 -560 -744 0
49 -560 -745 0
49 -561 -743 0
49 -561 -744 0
49 -561 -745 0
49 -561 -746 0
49 -562 -743 0
49 -562 -744 0
49 -562 -745 0
49 -562 -746 0
49 -562 -747 0
49 -563 -743 0
49 -563 -744 0
49 -563 -745 0
49 -563 -746 0
49 -563 -747 0
49 -563 -748 0
49 -564 -743 0
49 -564 -744 0
49 -564 -745 0
49 -564 -746 0
49 -564 -747 0
49 -564 -748 0
49 -564 -749 0
49 -557 -754 0
49 -558 -755 0
49 -559 -756 0
49 -560 -757 0
49 -561 -758 0
49 -562 -759 0
49 -563 -760 0
49 -564 -761 0
49 -565 573 0
49 -566 574 0
49 -567 575 0
49 -568 576 0
49 -569 577 0
49 -570 578 0
49 -571 579 0
49 -572 580 0
49 -565 -2852 0
49 -565 -2853 0
49 -565 -2854 0
49 -565 -2855 0
49 -565 -2856 0
49 -566 -2852 0
49 -566 -2853 0
49 -566 -2854 0
49 -566 -2855 0
49 -566 -2856 0
49 -567 -2852 0
49 -567 -2853 0
49 -567 -2854 0
49 -567 -2855 0
49 -567 -2856 0
49 -568 -2853 0
49 -568 -2854 0
49 -568 -2855 0
49 -568 -2856 0
49 -569 -2854 0
49 -569 -2855 0
49 -569 -2856 0
49 -570 -2855 0
49 -570 -2856 0
49 -571 -2856 0
49 -574 -2859 0
49 -575 -2859 0
49 -575 -2860 0
49 -576 -2859 0
49 -576 -2860 0
49 -576 -2861 0
49 -577 -2859 0
49 -577 -2860 0
49 -577 -2861 0
49 -577 -2862 0
49 -578 -2859 0
49 -578 -2860 0
49 -578 -2861 0
49 -578 -2862 0
49 -578 -2863 0
49 -579 -2859 0
49 -579 -2860 0
49 -579 -2861 0
49 -579 -2862 0
49 -579 -2863 0
49 -579 -2864 0
49 -580 -2859 0
49 -580 -2860 0
49 -580 -2861 0
49 -580 -2862 0
49 -580 -2863 0
49 -580 -2864 0
49 -580 -2865 0
49 -573 -2868 0
49 -574 -2869 0
49 -575 -2870 0
49 -576 -2871 0
49 -577 -2872 0
49 -578 -2873 0
49 -579 -2874 0
49 -581 585 0
49 -582 586 0
49 -583 587 0
49 -584 588 0
49 -581 -864 0
49 -581 -865 0
49 -581 -866 0
49 -581 -867 0
49 -586 -2133 0
49 -586 -2134 0
49 -586 -2135 0
49 -586 -2136 0
49 -587 -2133 0
49 -587 -2134 0
49 -587 -2135 0
49 -587 -2136 0
49 -587 -2137 0
49 -588 -2133 0
49 -588 -2134 0
49 -588 -2135 0
49 -588 -2136 0
49 -588 -2137 0
49 -588 -2138 0
49 -586 -2689 0
49 -586 -2690 0
49 -586 -2691 0
49 -586 -2692 0
49 -586 -2693 0
49 -587 -2689 0
49 -587 -2690 0
49 -587 -2691 0
49 -587 -2692 0
49 -587 -2693 0
49 -587 -2694 0
49 -588 -2689 0
49 -588 -2690 0
49 -588 -2691 0
49 -588 -2692 0
49 -588 -2693 0
49 -588 -2694 0
49 -588 -2695 0
49 -589 590 0
49 -591 592 0
49 -593 594 0
49 -595 605 0
49 -596 606 0
49 -597 607 0
49 -598 608 0
49 -599 609 0
49 -600 610 0
49 -601 611 0
49 -602 612 0
49 -603 613 0
49 -604 614 0
49 -615 617 0
49 -616 618 0
49 -615 -1187 0
49 -615 -1188 0
49 -616 -1189 0
49 -616 -2317 0
49 -616 -2325 0
49 -616 -2326 0
49 -616 -2327 0
49 -616 -2328 0
49 -616 -2329 0
49 -619 622 0
49 -620 623 0
49 -621 624 0
49 -625 626 0
49 -627 628 0
49 -629 630 0
49 -631 632 0
49 -633 634 0
49 -635 636 0
49 -637 638 0
49 -639 640 0
49 -641 642 0
49 -643 644 0
49 -645 653 0
49 -646 654 0
49 -647 655 0
49 -648 656 0
49 -649 657 0
49 -650 658 0
49 -651 659 0
49 -652 660 0
49 -646 -1004 0
49 -646 -1005 0
49 -646 -1006 0
49 -646 -1007 0
49 -646 -1008 0
49 -646 -1009 0
49 -646 -1010 0
49 -647 -1005 0
49 -647 -1006 0
49 -647 -1007 0
49 -647 -1008 0
49 -647 -1009 0
49 -647 -1010 0
49 -648 -1006 0
49 -648 -1007 0
49 -648 -1008 0
49 -648 -1009 0
49 -648 -1010 0
49 -649 -1007 0
49 -649 -1008 0
49 -649 -1009 0
49 -649 -1010 0
49 -650 -1008 0
49 -650 -1009 0
49 -650 -1010 0
49 -651 -1009 0
49 -651 -1010 0
49 -652 -1010 0
49 -645 -1647 0
49 -645 -1648 0
49 -661 665 0
49 -662 666 0
49 -663 667 0
49 -664 668 0
49 -665 -724 0
49 -665 -725 0
49 -665 -726 0
49 -666 -725 0
49 -666 -726 0
49 -667 -726 0
49 -665 -1189 0
49 -666 -1189 0
49 -667 -1189 0
49 -669 670 0
49 -671 674 0
49 -672 675 0
49 -673 676 0
49 -671 -931 0
49 -672 -933 0
49 -673 -935 0
49 -674 -817 0
49 -675 -817 0
49 -674 -1184 0
49 -675 -1184 0
49 -675 -1185 0
49 -676 -1185 0
49 -677 678 0
49 -679 680 0
49 -681 685 0
49 -682 686 0
49 -683 687 0
49 -684 688 0
49 -681 -1250 0
49 -681 -1251 0
49 -681 -1252 0
49 -682 -1251 0
49 -682 -1252 0
49 -683 -1252 0
49 -685 -1250 0
49 -685 -1251 0
49 -685 -1252 0
49 -686 -1251 0
49 -686 -1252 0
49 -687 -1252 0
49 -689 697 0
49 -690 698 0
49 -691 699 0
49 -692 700 0
49 -693 701 0
49 -694 702 0
49 -695 703 0
49 -696 704 0
49 -697 -1459 0
49 -697 -1460 0
49 -697 -1461 0
49 -698 -1460 0
49 -698 -1461 0
49 -699 -1461 0
49 -697 -1466 0
49 -697 -1467 0
49 -697 -1468 0
49 -698 -1467 0
49 -698 -1468 0
49 -699 -1468 0
49 -705 706 0
49 -707 708 0
49 -709 710 0
49 -711 712 0
49 -713 714 0
49 -715 716 0
49 -717 718 0
49 -719 720 0
49 -721 722 0
49 -723 727 0
49 -724 728 0
49 -725 729 0
49 -726 730 0
49 -731 737 0
49 -732 738 0
49 -733 739 0
49 -734 740 0
49 -735 741 0
49 -736 742 0
49 -743 753 0
49 -744 754 0
49 -745 755 0
49 -746 756 0
49 -747 757 0
49 -748 758 0
49 -749 759 0
49 -750 760 0
49 -751 761 0
49 -752 762 0
49 -752 -2280 0
49 -763 767 0
49 -764 768 0
49 -765 769 0
49 -766 770 0
49 -764 -1603 0
49 -765 -1604 0
49 -766 -1605 0
49 -763 -1608 0
49 -763 -1609 0
49 -763 -1610 0
49 -763 -1611 0
49 -763 -1612 0
49 -764 -1611 0
49 -764 -1612 0
49 -765 -1612 0
49 -768 -1601 0
49 -768 -1602 0
49 -768 -1603 0
49 -769 -1601 0
49 -769 -1602 0
49 -769 -1603 0
49 -769 -1604 0
49 -770 -1601 0
49 -770 -1602 0
49 -770 -1603 0
49 -770 -1604 0
49 -770 -1605 0
49 -768 -1609 0
49 -769 -1610 0
49 -770 -1611 0
49 -771 779 0
49 -772 780 0
49 -773 781 0
49 -774 782 0
49 -775 783 0
49 -776 784 0
49 -777 785 0
49 -778 786 0
49 -771 -2001 0
49 -771 -2002 0
49 -771 -2003 0
49 -771 -2004 0
49 -771 -2005 0
49 -772 -2002 0
49 -772 -2003 0
49 -772 -2004 0
49 -772 -2005 0
49 -772 -2006 0
49 -773 -2003 0
49 -773 -2004 0
49 -773 -2005 0
49 -773 -2006 0
49 -773 -2007 0
49 -774 -2004 0
49 -774 -2005 0
49 -774 -2006 0
49 -774 -2007 0
49 -774 -2008 0
49 -775 -2005 0
49 -775 -2006 0
49 -775 -2007 0
49 -775 -2008 0
49 -775 -2009 0
49 -776 -2006 0
49 -776 -2007 0
49 -776 -2008 0
49 -776 -2009 0
49 -776 -2010 0
49 -777 -2007 0
49 -777 -2008 0
49 -777 -2009 0
49 -777 -2010 0
49 -778 -2008 0
49 -778 -2009 0
49 -778 -2010 0
49 -771 -2386 0
49 -771 -2387 0
49 -771 -2388 0
49 -771 -2389 0
49 -771 -2390 0
49 -771 -2391 0
49 -771 -2392 0
49 -772 -2387 0
49 -772 -2388 0
49 -772 -2389 0
49 -772 -2390 0
49 -772 -2391 0
49 -772 -2392 0
49 -773 -2388 0
49 -773 -2389 0
49 -773 -2390 0
49 -773 -2391 0
49 -773 -2392 0
49 -774 -2389 0
49 -774 -2390 0
49 -774 -2391 0
49 -774 -2392 0
49 -775 -2390 0
49 -775 -2391 0
49 -775 -2392 0
49 -776 -2391 0
49 -776 -2392 0
49 -777 -2392 0
49 -780 -2027 0
49 -781 -2027 0
49 -781 -2028 0
49 -782 -2027 0
49 -782 -2028 0
49 -782 -2029 0
49 -783 -2027 0
49 -783 -2028 0
49 -783 -2029 0
49 -783 -2030 0
49 -784 -2027 0
49 -784 -2028 0
49 -784 -2029 0
49 -784 -2030 0
49 -784 -2031 0
49 -785 -2027 0
49 -785 -2028 0
49 -785 -2029 0
49 -785 -2030 0
49 -785 -2031 0
49 -785 -2032 0
49 -786 -2027 0
49 -786 -2028 0
49 -786 -2029 0
49 -786 -2030 0
49 -786 -2031 0
49 -786 -2032 0
49 -786 -2033 0
49 -779 -2036 0
49 -779 -2037 0
49 -779 -2038 0
49 -779 -2039 0
49 -779 -2040 0
49 -780 -2037 0
49 -780 -2038 0
49 -780 -2039 0
49 -780 -2040 0
49 -780 -2041 0
49 -781 -2038 0
49 -781 -2039 0
49 -781 -2040 0
49 -781 -2041 0
49 -781 -2042 0
49 -782 -2039 0
49 -782 -2040 0
49 -782 -2041 0
49 -782 -2042 0
49 -783 -2040 0
49 -783 -2041 0
49 -783 -2042 0
49 -784 -2041 0
49 -784 -2042 0
49 -785 -2042 0
49 -787 788 0
49 -789 790 0
49 -791 799 0
49 -792 800 0
49 -793 801 0
49 -794 802 0
49 -795 803 0
49 -796 804 0
49 -797 805 0
49 -798 806 0
49 -791 -2450 0
49 -792 -2451 0
49 -793 -2452 0
49 -794 -2453 0
49 -795 -2454 0
49 -796 -2455 0
49 -797 -2456 0
49 -791 -2458 0
49 -791 -2459 0
49 -791 -2460 0
49 -791 -2461 0
49 -791 -2462 0
49 -791 -2463 0
49 -791 -2464 0
49 -792 -2459 0
49 -792 -2460 0
49 -792 -2461 0
49 -792 -2462 0
49 -792 -2463 0
49 -792 -2464 0
49 -793 -2460 0
49 -793 -2461 0
49 -793 -2462 0
49 -793 -2463 0
49 -793 -2464 0
49 -794 -2461 0
49 -794 -2462 0
49 -794 -2463 0
49 -794 -2464 0
49 -795 -2462 0
49 -795 -2463 0
49 -795 -2464 0
49 -796 -2463 0
49 -796 -2464 0
49 -797 -2464 0
49 -800 -2449 0
49 -801 -2449 0
49 -801 -2450 0
49 -802 -2449 0
49 -802 -2450 0
49 -802 -2451 0
49 -803 -2449 0
49 -803 -2450 0
49 -803 -2451 0
49 -803 -2452 0
49 -804 -2449 0
49 -804 -2450 0
49 -804 -2451 0
49 -804 -2452 0
49 -804 -2453 0
49 -805 -2449 0
49 -805 -2450 0
49 -805 -2451 0
49 -805 -2452 0
49 -805 -2453 0
49 -805 -2454 0
49 -806 -2449 0
49 -806 -2450 0
49 -806 -2451 0
49 -806 -2452 0
49 -806 -2453 0
49 -806 -2454 0
49 -806 -2455 0
49 -799 -2458 0
49 -800 -2459 0
49 -801 -2460 0
49 -802 -2461 0
49 -803 -2462 0
49 -804 -2463 0
49 -805 -2464 0
49 -807 808 0
49 -809 810 0
49 -811 812 0
49 -813 814 0
49 -815 816 0
49 -817 820 0
49 -818 821 0
49 -819 822 0
49 -823 824 0
49 -825 826 0
49 -827 828 0
49 -829 853 0
49 -830 854 0
49 -831 855 0
49 -832 856 0
49 -833 844 0
49 -834 845 0
49 -835 846 0
49 -836 847 0
49 -837 848 0
49 -838 849 0
49 -839 850 0
49 -840 851 0
49 -841 852 0
49 -842 857 0
49 -843 858 0
49 -854 -2133 0
49 -855 -2133 0
49 -855 -2134 0
49 -856 -2133 0
49 -856 -2134 0
49 -856 -2135 0
49 -857 -2133 0
49 -857 -2134 0
49 -857 -2135 0
49 -857 -2136 0
49 -857 -2137 0
49 -857 -2138 0
49 -858 -2133 0
49 -858 -2134 0
49 -858 -2135 0
49 -858 -2136 0
49 -858 -2137 0
49 -858 -2138 0
49 -858 -2139 0
49 -855 -2627 0
49 -856 -2627 0
49 -856 -2628 0
49 -857 -2627 0
49 -857 -2628 0
49 -857 -2629 0
49 -857 -2630 0
49 -857 -2631 0
49 -858 -2627 0
49 -858 -2628 0
49 -858 -2629 0
49 -858 -2630 0
49 -858 -2631 0
49 -858 -2632 0
49 -844 -2665 0
49 -845 -2665 0
49 -846 -2665 0
49 -847 -2665 0
49 -848 -2665 0
49 -848 -2666 0
49 -849 -2665 0
49 -849 -2666 0
49 -849 -2667 0
49 -850 -2665 0
49 -850 -2666 0
49 -850 -2667 0
49 -850 -2668 0
49 -851 -2665 0
49 -851 -2666 0
49 -851 -2667 0
49 -851 -2668 0
49 -851 -2669 0
49 -852 -2665 0
49 -852 -2666 0
49 -852 -2667 0
49 -852 -2668 0
49 -852 -2669 0
49 -852 -2670 0
49 -853 -2666 0
49 -853 -2667 0
49 -853 -2668 0
49 -853 -2669 0
49 -853 -2670 0
49 -853 -2671 0
49 -853 -2672 0
49 -853 -2673 0
49 -853 -2674 0
49 -853 -2675 0
49 -853 -2676 0
49 -854 -2666 0
49 -854 -2667 0
49 -854 -2668 0
49 -854 -2669 0
49 -854 -2670 0
49 -854 -2671 0
49 -854 -2672 0
49 -854 -2673 0
49 -854 -2674 0
49 -854 -2675 0
49 -854 -2676 0
49 -855 -2666 0
49 -855 -2667 0
49 -855 -2668 0
49 -855 -2669 0
49 -855 -2670 0
49 -855 -2671 0
49 -855 -2672 0
49 -855 -2673 0
49 -855 -2674 0
49 -855 -2675 0
49 -855 -2676 0
49 -856 -2666 0
49 -856 -2667 0
49 -856 -2668 0
49 -856 -2669 0
49 -856 -2670 0
49 -856 -2671 0
49 -856 -2672 0
49 -856 -2673 0
49 -856 -2674 0
49 -856 -2675 0
49 -856 -2676 0
49 -857 -2666 0
49 -857 -2667 0
49 -857 -2668 0
49 -857 -2669 0
49 -857 -2670 0
49 -857 -2671 0
49 -857 -2672 0
49 -857 -2673 0
49 -857 -2674 0
49 -857 -2675 0
49 -857 -2676 0
49 -858 -2667 0
49 -858 -2668 0
49 -858 -2669 0
49 -858 -2670 0
49 -858 -2671 0
49 -858 -2672 0
49 -858 -2673 0
49 -858 -2674 0
49 -858 -2675 0
49 -858 -2676 0
49 -844 -2677 0
49 -844 -2678 0
49 -844 -2679 0
49 -844 -2680 0
49 -844 -2681 0
49 -845 -2677 0
49 -845 -2678 0
49 -845 -2679 0
49 -845 -2680 0
49 -845 -2681 0
49 -845 -2682 0
49 -846 -2677 0
49 -846 -2678 0
49 -846 -2679 0
49 -846 -2680 0
49 -846 -2681 0
49 -846 -2682 0
49 -846 -2683 0
49 -847 -2678 0
49 -847 -2679 0
49 -847 -2680 0
49 -847 -2681 0
49 -847 -2682 0
49 -847 -2683 0
49 -847 -2684 0
49 -848 -2679 0
49 -848 -2680 0
49 -848 -2681 0
49 -848 -2682 0
49 -848 -2683 0
49 -848 -2684 0
49 -848 -2685 0
49 -849 -2680 0
49 -849 -2681 0
49 -849 -2682 0
49 -849 -2683 0
49 -849 -2684 0
49 -849 -2685 0
49 -849 -2686 0
49 -850 -2681 0
49 -850 -2682 0
49 -850 -2683 0
49 -850 -2684 0
49 -850 -2685 0
49 -850 -2686 0
49 -850 -2687 0
49 -851 -2682 0
49 -851 -2683 0
49 -851 -2684 0
49 -851 -2685 0
49 -851 -2686 0
49 -851 -2687 0
49 -852 -2683 0
49 -852 -2684 0
49 -852 -2685 0
49 -852 -2686 0
49 -852 -2687 0
49 -854 -2688 0
49 -855 -2688 0
49 -856 -2688 0
49 -857 -2688 0
49 -858 -2688 0
49 -859 864 0
49 -860 865 0
49 -861 866 0
49 -862 867 0
49 -863 868 0
49 -869 870 0
49 -871 872 0
49 -873 874 0
49 -875 903 0
49 -876 904 0
49 -877 905 0
49 -878 906 0
49 -879 907 0
49 -880 908 0
49 -881 920 0
49 -882 921 0
49 -883 922 0
49 -884 923 0
49 -885 924 0
49 -886 925 0
49 -887 926 0
49 -888 927 0
49 -889 928 0
49 -890 929 0
49 -891 930 0
49 -892 909 0
49 -893 910 0
49 -894 911 0
49 -895 912 0
49 -896 913 0
49 -897 914 0
49 -898 915 0
49 -899 916 0
49 -900 917 0
49 -901 918 0
49 -902 919 0
49 -931 937 0
49 -932 938 0
49 -933 939 0
49 -934 940 0
49 -935 941 0
49 -936 942 0
49 -937 -1184 0
49 -938 -1184 0
49 -939 -1184 0
49 -939 -1185 0
49 -940 -1185 0
49 -941 -1185 0
49 -942 -1185 0
49 -943 944 0
49 -945 946 0
49 -947 956 0
49 -948 957 0
49 -949 958 0
49 -950 959 0
49 -951 960 0
49 -952 961 0
49 -953 962 0
49 -954 955 0
49 -963 971 0
49 -964 972 0
49 -965 973 0
49 -966 974 0
49 -967 975 0
49 -968 976 0
49 -969 977 0
49 -970 978 0
49 -975 -2130 0
49 -976 -2131 0
49 -977 -2132 0
49 -979 987 0
49 -980 988 0
49 -981 989 0
49 -982 990 0
49 -983 991 0
49 -984 992 0
49 -985 993 0
49 -986 994 0
49 -988 -1655 0
49 -989 -1655 0
49 -989 -1656 0
49 -990 -1655 0
49 -990 -1656 0
49 -990 -1657 0
49 -991 -1655 0
49 -991 -1656 0
49 -991 -1657 0
49 -991 -1658 0
49 -992 -1655 0
49 -992 -1656 0
49 -992 -1657 0
49 -992 -1658 0
49 -992 -1659 0
49 -993 -1655 0
49 -993 -1656 0
49 -993 -1657 0
49 -993 -1658 0
49 -993 -1659 0
49 -993 -1660 0
49 -994 -1655 0
49 -994 -1656 0
49 -994 -1657 0
49 -994 -1658 0
49 -994 -1659 0
49 -994 -1660 0
49 -994 -1661 0
49 -995 1003 0
49 -996 1004 0
49 -997 1005 0
49 -998 1006 0
49 -999 1007 0
49 -1000 1008 0
49 -1001 1009 0
49 -1002 1010 0
49 -995 -2088 0
49 -996 -2089 0
49 -997 -2090 0
49 -998 -2091 0
49 -999 -2092 0
49 -1000 -2093 0
49 -1001 -2094 0
49 -995 -2096 0
49 -995 -2097 0
49 -995 -2098 0
49 -995 -2099 0
49 -995 -2100 0
49 -995 -2101 0
49 -995 -2102 0
49 -996 -2097 0
49 -996 -2098 0
49 -996 -2099 0
49 -996 -2100 0
49 -996 -2101 0
49 -996 -2102 0
49 -997 -2098 0
49 -997 -2099 0
49 -997 -2100 0
49 -997 -2101 0
49 -997 -2102 0
49 -998 -2099 0
49 -998 -2100 0
49 -998 -2101 0
49 -998 -2102 0
49 -999 -2100 0
49 -999 -2101 0
49 -999 -2102 0
49 -1000 -2101 0
49 -1000 -2102 0
49 -1001 -2102 0
49 -1004 -2727 0
49 -1005 -2727 0
49 -1005 -2728 0
49 -1006 -2727 0
49 -1006 -2728 0
49 -1006 -2729 0
49 -1007 -2727 0
49 -1007 -2728 0
49 -1007 -2729 0
49 -1007 -2730 0
49 -1008 -2727 0
49 -1008 -2728 0
49 -1008 -2729 0
49 -1008 -2730 0
49 -1008 -2731 0
49 -1009 -2727 0
49 -1009 -2728 0
49 -1009 -2729 0
49 -1009 -2730 0
49 -1009 -2731 0
49 -1009 -2732 0
49 -1010 -2727 0
49 -1010 -2728 0
49 -1010 -2729 0
49 -1010 -2730 0
49 -1010 -2731 0
49 -1010 -2732 0
49 -1010 -2733 0
49 -1011 1012 0
49 -1013 1014 0
49 -1015 1016 0
49 -1017 1018 0
49 -1019 1020 0
49 -1021 1029 0
49 -1022 1030 0
49 -1023 1031 0
49 -1024 1032 0
49 -1025 1033 0
49 -1026 1034 0
49 -1027 1035 0
49 -1028 1036 0
49 -1030 -2215 0
49 -1031 -2215 0
49 -1031 -2216 0
49 -1032 -2215 0
49 -1032 -2216 0
49 -1032 -2217 0
49 -1033 -2215 0
49 -1033 -2216 0
49 -1033 -2217 0
49 -1033 -2218 0
49 -1034 -2215 0
49 -1034 -2216 0
49 -1034 -2217 0
49 -1034 -2218 0
49 -1034 -2219 0
49 -1035 -2215 0
49 -1035 -2216 0
49 -1035 -2217 0
49 -1035 -2218 0
49 -1035 -2219 0
49 -1035 -2220 0
49 -1036 -2215 0
49 -1036 -2216 0
49 -1036 -2217 0
49 -1036 -2218 0
49 -1036 -2219 0
49 -1036 -2220 0
49 -1036 -2221 0
49 -1037 1038 0
49 -1039 1047 0
49 -1040 1048 0
49 -1041 1049 0
49 -1042 1050 0
49 -1043 1051 0
49 -1044 1052 0
49 -1045 1053 0
49 -1046 1054 0
49 -1048 -1808 0
49 -1049 -1808 0
49 -1055 1056 0
49 -1057 1058 0
49 -1059 1060 0
49 -1061 1062 0
49 -1063 1071 0
49 -1064 1072 0
49 -1065 1073 0
49 -1066 1074 0
49 -1067 1075 0
49 -1068 1076 0
49 -1069 1077 0
49 -1070 1078 0
49 -1063 -2752 0
49 -1063 -2753 0
49 -1063 -2754 0
49 -1063 -2755 0
49 -1063 -2756 0
49 -1063 -2757 0
49 -1063 -2758 0
49 -1064 -2753 0
49 -1064 -2754 0
49 -1064 -2755 0
49 -1064 -2756 0
49 -1064 -2757 0
49 -1064 -2758 0
49 -1065 -2754 0
49 -1065 -2755 0
49 -1065 -2756 0
49 -1065 -2757 0
49 -1065 -2758 0
49 -1066 -2755 0
49 -1066 -2756 0
49 -1066 -2757 0
49 -1066 -2758 0
49 -1067 -2756 0
49 -1067 -2757 0
49 -1067 -2758 0
49 -1068 -2757 0
49 -1068 -2758 0
49 -1069 -2758 0
49 -1072 -1079 0
49 -1073 -1079 0
49 -1073 -1080 0
49 -1074 -1079 0
49 -1074 -1080 0
49 -1074 -1081 0
49 -1075 -1079 0
49 -1075 -1080 0
49 -1075 -1081 0
49 -1075 -1082 0
49 -1076 -1079 0
49 -1076 -1080 0
49 -1076 -1081 0
49 -1076 -1082 0
49 -1076 -1083 0
49 -1077 -1079 0
49 -1077 -1080 0
49 -1077 -1081 0
49 -1077 -1082 0
49 -1077 -1083 0
49 -1077 -1084 0
49 -1078 -1079 0
49 -1078 -1080 0
49 -1078 -1081 0
49 -1078 -1082 0
49 -1078 -1083 0
49 -1078 -1084 0
49 -1078 -1085 0
49 -1072 -2751 0
49 -1073 -2752 0
49 -1074 -2753 0
49 -1075 -2754 0
49 -1076 -2755 0
49 -1077 -2756 0
49 -1078 -2757 0
49 -1079 1087 0
49 -1080 1088 0
49 -1081 1089 0
49 -1082 1090 0
49 -1083 1091 0
49 -1084 1092 0
49 -1085 1093 0
49 -1086 1094 0
49 -1079 -1954 0
49 -1080 -1955 0
49 -1081 -1956 0
49 -1082 -1957 0
49 -1083 -1958 0
49 -1084 -1959 0
49 -1085 -1960 0
49 -1079 -1962 0
49 -1079 -1963 0
49 -1079 -1964 0
49 -1079 -1965 0
49 -1079 -1966 0
49 -1079 -1967 0
49 -1079 -1968 0
49 -1080 -1963 0
49 -1080 -1964 0
49 -1080 -1965 0
49 -1080 -1966 0
49 -1080 -1967 0
49 -1080 -1968 0
49 -1081 -1964 0
49 -1081 -1965 0
49 -1081 -1966 0
49 -1081 -1967 0
49 -1081 -1968 0
49 -1082 -1965 0
49 -1082 -1966 0
49 -1082 -1967 0
49 -1082 -1968 0
49 -1083 -1966 0
49 -1083 -1967 0
49 -1083 -1968 0
49 -1084 -1967 0
49 -1084 -1968 0
49 -1085 -1968 0
49 -1079 -2490 0
49 -1079 -2491 0
49 -1079 -2492 0
49 -1079 -2493 0
49 -1079 -2494 0
49 -1080 -2491 0
49 -1080 -2492 0
49 -1080 -2493 0
49 -1080 -2494 0
49 -1080 -2495 0
49 -1081 -2492 0
49 -1081 -2493 0
49 -1081 -2494 0
49 -1081 -2495 0
49 -1081 -2496 0
49 -1082 -2493 0
49 -1082 -2494 0
49 -1082 -2495 0
49 -1082 -2496 0
49 -1082 -2497 0
49 -1083 -2494 0
49 -1083 -2495 0
49 -1083 -2496 0
49 -1083 -2497 0
49 -1083 -2498 0
49 -1084 -2495 0
49 -1084 -2496 0
49 -1084 -2497 0
49 -1084 -2498 0
49 -1084 -2499 0
49 -1085 -2496 0
49 -1085 -2497 0
49 -1085 -2498 0
49 -1085 -2499 0
49 -1086 -2497 0
49 -1086 -2498 0
49 -1086 -2499 0
49 -1079 -2752 0
49 -1079 -2753 0
49 -1079 -2754 0
49 -1079 -2755 0
49 -1079 -2756 0
49 -1079 -2757 0
49 -1079 -2758 0
49 -1080 -2753 0
49 -1080 -2754 0
49 -1080 -2755 0
49 -1080 -2756 0
49 -1080 -2757 0
49 -1080 -2758 0
49 -1081 -2754 0
49 -1081 -2755 0
49 -1081 -2756 0
49 -1081 -2757 0
49 -1081 -2758 0
49 -1082 -2755 0
49 -1082 -2756 0
49 -1082 -2757 0
49 -1082 -2758 0
49 -1083 -2756 0
49 -1083 -2757 0
49 -1083 -2758 0
49 -1084 -2757 0
49 -1084 -2758 0
49 -1085 -2758 0
49 -1087 -2501 0
49 -1087 -2502 0
49 -1087 -2503 0
49 -1087 -2504 0
49 -1087 -2505 0
49 -1088 -2502 0
49 -1088 -2503 0
49 -1088 -2504 0
49 -1088 -2505 0
49 -1088 -2506 0
49 -1089 -2503 0
49 -1089 -2504 0
49 -1089 -2505 0
49 -1089 -2506 0
49 -1089 -2507 0
49 -1090 -2504 0
49 -1090 -2505 0
49 -1090 -2506 0
49 -1090 -2507 0
49 -1090 -2508 0
49 -1091 -2505 0
49 -1091 -2506 0
49 -1091 -2507 0
49 -1091 -2508 0
49 -1091 -2509 0
49 -1092 -2506 0
49 -1092 -2507 0
49 -1092 -2508 0
49 -1092 -2509 0
49 -1092 -2510 0
49 -1093 -2507 0
49 -1093 -2508 0
49 -1093 -2509 0
49 -1093 -2510 0
49 -1094 -2508 0
49 -1094 -2509 0
49 -1094 -2510 0
49 -1087 -2752 0
49 -1088 -2753 0
49 -1089 -2754 0
49 -1090 -2755 0
49 -1091 -2756 0
49 -1092 -2757 0
49 -1093 -2758 0
49 -1095 1096 0
49 -1097 1098 0
49 -1099 1100 0
49 -1101 1102 0
49 -1103 1104 0
49 -1105 1106 0
49 -1107 1110 0
49 -1108 1111 0
49 -1109 1112 0
49 -1107 -2264 0
49 -1108 -2270 0
49 -1107 -2272 0
49 -1107 -2273 0
49 -1107 -2274 0
49 -1107 -2275 0
49 -1107 -2276 0
49 -1107 -2277 0
49 -1107 -2278 0
49 -1108 -2278 0
49 -1108 -2478 0
49 -1109 -2479 0
49 -1107 -2482 0
49 -1107 -2483 0
49 -1107 -2484 0
49 -1107 -2485 0
49 -1107 -2486 0
49 -1107 -2487 0
49 -1107 -2488 0
49 -1108 -2488 0
49 -1107 -2518 0
49 -1108 -2524 0
49 -1107 -2526 0
49 -1107 -2527 0
49 -1107 -2528 0
49 -1107 -2529 0
49 -1107 -2530 0
49 -1107 -2531 0
49 -1107 -2532 0
49 -1108 -2532 0
49 -1111 -2263 0
49 -1111 -2264 0
49 -1111 -2265 0
49 -1111 -2266 0
49 -1111 -2267 0
49 -1111 -2268 0
49 -1112 -2263 0
49 -1112 -2264 0
49 -1112 -2265 0
49 -1112 -2266 0
49 -1112 -2267 0
49 -1112 -2268 0
49 -1112 -2269 0
49 -1110 -2272 0
49 -1111 -2278 0
49 -1111 -2473 0
49 -1111 -2474 0
49 -1111 -2475 0
49 -1111 -2476 0
49 -1111 -2477 0
49 -1111 -2478 0
49 -1112 -2473 0
49 -1112 -2474 0
49 -1112 -2475 0
49 -1112 -2476 0
49 -1112 -2477 0
49 -1112 -2478 0
49 -1112 -2479 0
49 -1111 -2486 0
49 -1112 -2487 0
49 -1113 1114 0
49 -1115 1123 0
49 -1116 1124 0
49 -1117 1125 0
49 -1118 1126 0
49 -1119 1127 0
49 -1120 1128 0
49 -1121 1129 0
49 -1122 1130 0
49 -1115 -2588 0
49 -1115 -2589 0
49 -1115 -2590 0
49 -1116 -2589 0
49 -1116 -2590 0
49 -1116 -2591 0
49 -1117 -2590 0
49 -1117 -2591 0
49 -1117 -2592 0
49 -1118 -2591 0
49 -1118 -2592 0
49 -1118 -2593 0
49 -1119 -2592 0
49 -1119 -2593 0
49 -1119 -2594 0
49 -1120 -2593 0
49 -1120 -2594 0
49 -1121 -2594 0
49 -1115 -2596 0
49 -1115 -2597 0
49 -1115 -2598 0
49 -1115 -2599 0
49 -1115 -2600 0
49 -1115 -2601 0
49 -1115 -2602 0
49 -1116 -2597 0
49 -1116 -2598 0
49 -1116 -2599 0
49 -1116 -2600 0
49 -1116 -2601 0
49 -1116 -2602 0
49 -1117 -2598 0
49 -1117 -2599 0
49 -1117 -2600 0
49 -1117 -2601 0
49 -1117 -2602 0
49 -1118 -2599 0
49 -1118 -2600 0
49 -1118 -2601 0
49 -1118 -2602 0
49 -1119 -2600 0
49 -1119 -2601 0
49 -1119 -2602 0
49 -1120 -2601 0
49 -1120 -2602 0
49 -1121 -2602 0
49 -1131 1132 0
49 -1133 1134 0
49 -1135 1143 0
49 -1136 1144 0
49 -1137 1145 0
49 -1138 1146 0
49 -1139 1147 0
49 -1140 1148 0
49 -1141 1149 0
49 -1142 1150 0
49 -1135 -2828 0
49 -1136 -2829 0
49 -1137 -2830 0
49 -1138 -2831 0
49 -1139 -2832 0
49 -1140 -2833 0
49 -1141 -2834 0
49 -1135 -2836 0
49 -1135 -2837 0
49 -1135 -2838 0
49 -1135 -2839 0
49 -1135 -2840 0
49 -1135 -2841 0
49 -1135 -2842 0
49 -1136 -2837 0
49 -1136 -2838 0
49 -1136 -2839 0
49 -1136 -2840 0
49 -1136 -2841 0
49 -1136 -2842 0
49 -1137 -2838 0
49 -1137 -2839 0
49 -1137 -2840 0
49 -1137 -2841 0
49 -1137 -2842 0
49 -1138 -2839 0
49 -1138 -2840 0
49 -1138 -2841 0
49 -1138 -2842 0
49 -1139 -2840 0
49 -1139 -2841 0
49 -1139 -2842 0
49 -1140 -2841 0
49 -1140 -2842 0
49 -1141 -2842 0
49 -1143 -1829 0
49 -1143 -1830 0
49 -1143 -1831 0
49 -1143 -1832 0
49 -1143 -1833 0
49 -1144 -1830 0
49 -1144 -1831 0
49 -1144 -1832 0
49 -1144 -1833 0
49 -1144 -1834 0
49 -1145 -1831 0
49 -1145 -1832 0
49 -1145 -1833 0
49 -1145 -1834 0
49 -1145 -1835 0
49 -1146 -1832 0
49 -1146 -1833 0
49 -1146 -1834 0
49 -1146 -1835 0
49 -1146 -1836 0
49 -1147 -1833 0
49 -1147 -1834 0
49 -1147 -1835 0
49 -1147 -1836 0
49 -1147 -1837 0
49 -1148 -1834 0
49 -1148 -1835 0
49 -1148 -1836 0
49 -1148 -1837 0
49 -1148 -1838 0
49 -1149 -1835 0
49 -1149 -1836 0
49 -1149 -1837 0
49 -1149 -1838 0
49 -1150 -1836 0
49 -1150 -1837 0
49 -1150 -1838 0
49 -1151 1155 0
49 -1152 1156 0
49 -1153 1157 0
49 -1154 1158 0
49 -1151 -1218 0
49 -1151 -1219 0
49 -1151 -1220 0
49 -1151 -1221 0
49 -1151 -1222 0
49 -1151 -1223 0
49 -1152 -1341 0
49 -1152 -1342 0
49 -1152 -1343 0
49 -1152 -1344 0
49 -1152 -1345 0
49 -1153 -1341 0
49 -1153 -1342 0
49 -1153 -1343 0
49 -1153 -1344 0
49 -1153 -1345 0
49 -1153 -1346 0
49 -1154 -1341 0
49 -1154 -1342 0
49 -1154 -1343 0
49 -1154 -1344 0
49 -1154 -1345 0
49 -1154 -1346 0
49 -1154 -1347 0
49 -1151 -1771 0
49 -1152 -1772 0
49 -1156 -1341 0
49 -1156 -1342 0
49 -1156 -1343 0
49 -1156 -1344 0
49 -1157 -1341 0
49 -1157 -1342 0
49 -1157 -1343 0
49 -1157 -1344 0
49 -1157 -1345 0
49 -1158 -1341 0
49 -1158 -1342 0
49 -1158 -1343 0
49 -1158 -1344 0
49 -1158 -1345 0
49 -1158 -1346 0
49 -1159 1184 0
49 -1160 1185 0
49 -1161 1186 0
49 -1162 1173 0
49 -1163 1174 0
49 -1164 1175 0
49 -1165 1176 0
49 -1166 1177 0
49 -1167 1178 0
49 -1168 1179 0
49 -1169 1180 0
49 -1170 1181 0
49 -1171 1182 0
49 -1172 1183 0
49 -1159 -1395 0
49 -1160 -1395 0
49 -1172 -2811 0
49 -1187 1190 0
49 -1188 1191 0
49 -1189 1192 0
49 -1190 -2567 0
49 -1191 -2567 0
49 -1191 -2568 0
49 -1191 -2569 0
49 -1192 -2568 0
49 -1192 -2569 0
49 -1192 -2570 0
49 -1192 -2571 0
49 -1192 -2572 0
49 -1192 -2573 0
49 -1192 -2574 0
49 -1193 1194 0
49 -1195 1201 0
49 -1196 1202 0
49 -1197 1203 0
49 -1198 1204 0
49 -1199 1205 0
49 -1200 1206 0
49 -1201 -2783 0
49 -1202 -2783 0
49 -1203 -2783 0
49 -1204 -2783 0
49 -1205 -2783 0
49 -1201 -2784 0
49 -1201 -2785 0
49 -1202 -2784 0
49 -1202 -2785 0
49 -1203 -2785 0
49 -1207 1208 0
49 -1209 1210 0
49 -1211 1224 0
49 -1212 1218 0
49 -1213 1219 0
49 -1214 1220 0
49 -1215 1221 0
49 -1216 1222 0
49 -1217 1223 0
49 -1212 -2118 0
49 -1213 -2118 0
49 -1214 -2118 0
49 -1214 -2119 0
49 -1215 -2118 0
49 -1215 -2119 0
49 -1215 -2120 0
49 -1216 -2118 0
49 -1216 -2119 0
49 -1216 -2120 0
49 -1217 -2118 0
49 -1217 -2119 0
49 -1217 -2120 0
49 -1225 1226 0
49 -1227 1229 0
49 -1228 1230 0
49 -1228 -1268 0
49 -1230 -1262 0
49 -1230 -1263 0
49 -1230 -1264 0
49 -1230 -1265 0
49 -1230 -1266 0
49 -1230 -1473 0
49 -1230 -1474 0
49 -1230 -1475 0
49 -1230 -1476 0
49 -1230 -1477 0
49 -1231 1232 0
49 -1233 1234 0
49 -1235 1242 0
49 -1236 1243 0
49 -1237 1244 0
49 -1238 1245 0
49 -1239 1246 0
49 -1240 1247 0
49 -1241 1248 0
49 -1243 -1443 0
49 -1244 -1443 0
49 -1245 -1443 0
49 -1245 -1444 0
49 -1246 -1443 0
49 -1246 -1444 0
49 -1246 -1445 0
49 -1247 -1443 0
49 -1247 -1444 0
49 -1247 -1445 0
49 -1247 -1446 0
49 -1248 -1443 0
49 -1248 -1444 0
49 -1248 -1445 0
49 -1248 -1446 0
49 -1248 -1447 0
49 -1249 1253 0
49 -1250 1254 0
49 -1251 1255 0
49 -1252 1256 0
49 -1257 1258 0
49 -1259 1260 0
49 -1261 1268 0
49 -1262 1269 0
49 -1263 1270 0
49 -1264 1271 0
49 -1265 1272 0
49 -1266 1273 0
49 -1267 1274 0
49 -1275 1283 0
49 -1276 1284 0
49 -1277 1285 0
49 -1278 1286 0
49 -1279 1287 0
49 -1280 1288 0
49 -1281 1289 0
49 -1282 1290 0
49 -1275 -2028 0
49 -1275 -2029 0
49 -1275 -2030 0
49 -1276 -2029 0
49 -1276 -2030 0
49 -1276 -2031 0
49 -1277 -2030 0
49 -1277 -2031 0
49 -1277 -2032 0
49 -1278 -2031 0
49 -1278 -2032 0
49 -1278 -2033 0
49 -1279 -2032 0
49 -1279 -2033 0
49 -1279 -2034 0
49 -1280 -2033 0
49 -1280 -2034 0
49 -1281 -2034 0
49 -1275 -2036 0
49 -1275 -2037 0
49 -1275 -2038 0
49 -1275 -2039 0
49 -1275 -2040 0
49 -1275 -2041 0
49 -1275 -2042 0
49 -1276 -2037 0
49 -1276 -2038 0
49 -1276 -2039 0
49 -1276 -2040 0
49 -1276 -2041 0
49 -1276 -2042 0
49 -1277 -2038 0
49 -1277 -2039 0
49 -1277 -2040 0
49 -1277 -2041 0
49 -1277 -2042 0
49 -1278 -2039 0
49 -1278 -2040 0
49 -1278 -2041 0
49 -1278 -2042 0
49 -1279 -2040 0
49 -1279 -2041 0
49 -1279 -2042 0
49 -1280 -2041 0
49 -1280 -2042 0
49 -1281 -2042 0
49 -1276 -2415 0
49 -1277 -2416 0
49 -1278 -2417 0
49 -1279 -2418 0
49 -1280 -2419 0
49 -1281 -2420 0
49 -1282 -2421 0
49 -1275 -2424 0
49 -1275 -2425 0
49 -1275 -2426 0
49 -1275 -2427 0
49 -1275 -2428 0
49 -1275 -2429 0
49 -1275 -2430 0
49 -1276 -2425 0
49 -1276 -2426 0
49 -1276 -2427 0
49 -1276 -2428 0
49 -1276 -2429 0
49 -1276 -2430 0
49 -1277 -2426 0
49 -1277 -2427 0
49 -1277 -2428 0
49 -1277 -2429 0
49 -1277 -2430 0
49 -1278 -2427 0
49 -1278 -2428 0
49 -1278 -2429 0
49 -1278 -2430 0
49 -1279 -2428 0
49 -1279 -2429 0
49 -1279 -2430 0
49 -1280 -2429 0
49 -1280 -2430 0
49 -1281 -2430 0
49 -1284 -2027 0
49 -1285 -2027 0
49 -1285 -2028 0
49 -1286 -2027 0
49 -1286 -2028 0
49 -1286 -2029 0
49 -1287 -2027 0
49 -1287 -2028 0
49 -1287 -2029 0
49 -1287 -2030 0
49 -1288 -2027 0
49 -1288 -2028 0
49 -1288 -2029 0
49 -1288 -2030 0
49 -1288 -2031 0
49 -1289 -2027 0
49 -1289 -2028 0
49 -1289 -2029 0
49 -1289 -2030 0
49 -1289 -2031 0
49 -1289 -2032 0
49 -1290 -2027 0
49 -1290 -2028 0
49 -1290 -2029 0
49 -1290 -2030 0
49 -1290 -2031 0
49 -1290 -2032 0
49 -1290 -2033 0
49 -1283 -2036 0
49 -1283 -2037 0
49 -1283 -2038 0
49 -1284 -2037 0
49 -1284 -2038 0
49 -1284 -2039 0
49 -1285 -2038 0
49 -1285 -2039 0
49 -1285 -2040 0
49 -1286 -2039 0
49 -1286 -2040 0
49 -1286 -2041 0
49 -1287 -2040 0
49 -1287 -2041 0
49 -1287 -2042 0
49 -1288 -2041 0
49 -1288 -2042 0
49 -1289 -2042 0
49 -1284 -2415 0
49 -1285 -2415 0
49 -1285 -2416 0
49 -1286 -2415 0
49 -1286 -2416 0
49 -1286 -2417 0
49 -1287 -2415 0
49 -1287 -2416 0
49 -1287 -2417 0
49 -1287 -2418 0
49 -1288 -2415 0
49 -1288 -2416 0
49 -1288 -2417 0
49 -1288 -2418 0
49 -1288 -2419 0
49 -1289 -2415 0
49 -1289 -2416 0
49 -1289 -2417 0
49 -1289 -2418 0
49 -1289 -2419 0
49 -1289 -2420 0
49 -1290 -2415 0
49 -1290 -2416 0
49 -1290 -2417 0
49 -1290 -2418 0
49 -1290 -2419 0
49 -1290 -2420 0
49 -1290 -2421 0
49 -1284 -2423 0
49 -1285 -2424 0
49 -1286 -2425 0
49 -1287 -2426 0
49 -1288 -2427 0
49 -1289 -2428 0
49 -1290 -2429 0
49 -1291 1297 0
49 -1292 1298 0
49 -1293 1299 0
49 -1294 1300 0
49 -1295 1301 0
49 -1296 1302 0
49 -1292 -1710 0
49 -1292 -1711 0
49 -1292 -1712 0
49 -1292 -1713 0
49 -1292 -1714 0
49 -1292 -1715 0
49 -1292 -1716 0
49 -1293 -1711 0
49 -1293 -1712 0
49 -1293 -1713 0
49 -1293 -1714 0
49 -1293 -1715 0
49 -1293 -1716 0
49 -1294 -1712 0
49 -1294 -1713 0
49 -1294 -1714 0
49 -1294 -1715 0
49 -1294 -1716 0
49 -1295 -1713 0
49 -1295 -1714 0
49 -1295 -1715 0
49 -1295 -1716 0
49 -1296 -1714 0
49 -1296 -1715 0
49 -1296 -1716 0
49 -1303 1304 0
49 -1305 1309 0
49 -1306 1310 0
49 -1307 1311 0
49 -1308 1312 0
49 -1306 -1323 0
49 -1307 -1324 0
49 -1308 -1325 0
49 -1305 -1328 0
49 -1305 -1329 0
49 -1305 -1330 0
49 -1305 -1331 0
49 -1305 -1332 0
49 -1306 -1331 0
49 -1306 -1332 0
49 -1307 -1332 0
49 -1310 -1321 0
49 -1310 -1322 0
49 -1310 -1323 0
49 -1311 -1321 0
49 -1311 -1322 0
49 -1311 -1323 0
49 -1311 -1324 0
49 -1312 -1321 0
49 -1312 -1322 0
49 -1312 -1323 0
49 -1312 -1324 0
49 -1312 -1325 0
49 -1310 -1329 0
49 -1311 -1330 0
49 -1312 -1331 0
49 -1313 1314 0
49 -1315 1316 0
49 -1317 1318 0
49 -1319 1320 0
49 -1321 1327 0
49 -1322 1328 0
49 -1323 1329 0
49 -1324 1330 0
49 -1325 1331 0
49 -1326 1332 0
49 -1333 1334 0
49 -1335 1336 0
49 -1337 1338 0
49 -1339 1340 0
49 -1341 1349 0
49 -1342 1350 0
49 -1343 1351 0
49 -1344 1352 0
49 -1345 1353 0
49 -1346 1354 0
49 -1347 1355 0
49 -1348 1356 0
49 -1341 -1616 0
49 -1341 -1617 0
49 -1341 -1618 0
49 -1341 -1619 0
49 -1341 -1620 0
49 -1342 -1617 0
49 -1342 -1618 0
49 -1342 -1619 0
49 -1342 -1620 0
49 -1342 -1621 0
49 -1343 -1618 0
49 -1343 -1619 0
49 -1343 -1620 0
49 -1343 -1621 0
49 -1343 -1622 0
49 -1344 -1619 0
49 -1344 -1620 0
49 -1344 -1621 0
49 -1344 -1622 0
49 -1345 -1620 0
49 -1345 -1621 0
49 -1345 -1622 0
49 -1346 -1621 0
49 -1346 -1622 0
49 -1347 -1622 0
49 -1341 -1758 0
49 -1341 -1759 0
49 -1341 -1760 0
49 -1341 -1761 0
49 -1341 -1762 0
49 -1341 -1763 0
49 -1341 -1764 0
49 -1342 -1759 0
49 -1342 -1760 0
49 -1342 -1761 0
49 -1342 -1762 0
49 -1342 -1763 0
49 -1342 -1764 0
49 -1343 -1760 0
49 -1343 -1761 0
49 -1343 -1762 0
49 -1343 -1763 0
49 -1343 -1764 0
49 -1344 -1761 0
49 -1344 -1762 0
49 -1344 -1763 0
49 -1344 -1764 0
49 -1345 -1762 0
49 -1345 -1763 0
49 -1345 -1764 0
49 -1346 -1763 0
49 -1346 -1764 0
49 -1347 -1764 0
49 -1357 1358 0
49 -1359 1360 0
49 -1361 1362 0
49 -1363 1364 0
49 -1365 1368 0
49 -1366 1369 0
49 -1367 1370 0
49 -1366 -2142 0
49 -1366 -2143 0
49 -1366 -2144 0
49 -1366 -2145 0
49 -1366 -2146 0
49 -1366 -2147 0
49 -1366 -2148 0
49 -1367 -2143 0
49 -1367 -2144 0
49 -1367 -2145 0
49 -1367 -2146 0
49 -1367 -2147 0
49 -1367 -2148 0
49 -1369 -2637 0
49 -1369 -2638 0
49 -1369 -2639 0
49 -1369 -2640 0
49 -1369 -2641 0
49 -1369 -2642 0
49 -1370 -2638 0
49 -1370 -2639 0
49 -1370 -2640 0
49 -1370 -2641 0
49 -1370 -2642 0
49 -1369 -2703 0
49 -1369 -2704 0
49 -1370 -2704 0
49 -1371 1382 0
49 -1372 1392 0
49 -1373 1383 0
49 -1374 1384 0
49 -1375 1385 0
49 -1376 1386 0
49 -1377 1387 0
49 -1378 1388 0
49 -1379 1389 0
49 -1380 1390 0
49 -1381 1391 0
49 -1371 -1459 0
49 -1371 -1460 0
49 -1371 -1461 0
49 -1393 1394 0
49 -1395 1409 0
49 -1396 1421 0
49 -1397 1422 0
49 -1398 1410 0
49 -1399 1411 0
49 -1400 1412 0
49 -1401 1413 0
49 -1402 1414 0
49 -1403 1415 0
49 -1404 1416 0
49 -1405 1417 0
49 -1406 1418 0
49 -1407 1419 0
49 -1408 1420 0
49 -1423 1424 0
49 -1425 1426 0
49 -1427 1428 0
49 -1429 1434 0
49 -1430 1435 0
49 -1431 1436 0
49 -1432 1437 0
49 -1433 1438 0
49 -1439 1440 0
49 -1441 1442 0
49 -1443 1449 0
49 -1444 1450 0
49 -1445 1451 0
49 -1446 1452 0
49 -1447 1453 0
49 -1448 1454 0
49 -1455 1462 0
49 -1456 1463 0
49 -1457 1464 0
49 -1458 1465 0
49 -1459 1466 0
49 -1460 1467 0
49 -1461 1468 0
49 -1462 -2434 0
49 -1462 -2435 0
49 -1462 -2436 0
49 -1463 -2435 0
49 -1463 -2436 0
49 -1464 -2436 0
49 -1462 -2438 0
49 -1462 -2439 0
49 -1462 -2440 0
49 -1463 -2439 0
49 -1463 -2440 0
49 -1464 -2440 0
49 -1469 1470 0
49 -1471 1472 0
49 -1473 1481 0
49 -1474 1482 0
49 -1475 1483 0
49 -1476 1484 0
49 -1477 1485 0
49 -1478 1486 0
49 -1479 1487 0
49 -1480 1488 0
49 -1473 -1738 0
49 -1473 -1739 0
49 -1473 -1740 0
49 -1473 -1741 0
49 -1473 -1742 0
49 -1473 -1743 0
49 -1473 -1744 0
49 -1474 -1739 0
49 -1474 -1740 0
49 -1474 -1741 0
49 -1474 -1742 0
49 -1474 -1743 0
49 -1474 -1744 0
49 -1475 -1740 0
49 -1475 -1741 0
49 -1475 -1742 0
49 -1475 -1743 0
49 -1475 -1744 0
49 -1476 -1741 0
49 -1476 -1742 0
49 -1476 -1743 0
49 -1476 -1744 0
49 -1477 -1742 0
49 -1477 -1743 0
49 -1477 -1744 0
49 -1478 -1743 0
49 -1478 -1744 0
49 -1479 -1744 0
49 -1481 -1738 0
49 -1481 -1739 0
49 -1481 -1740 0
49 -1482 -1739 0
49 -1482 -1740 0
49 -1482 -1741 0
49 -1483 -1740 0
49 -1483 -1741 0
49 -1483 -1742 0
49 -1484 -1741 0
49 -1484 -1742 0
49 -1484 -1743 0
49 -1485 -1742 0
49 -1485 -1743 0
49 -1485 -1744 0
49 -1486 -1743 0
49 -1486 -1744 0
49 -1487 -1744 0
49 -1489 1497 0
49 -1490 1498 0
49 -1491 1499 0
49 -1492 1500 0
49 -1493 1501 0
49 -1494 1502 0
49 -1495 1503 0
49 -1496 1504 0
49 -1505 1506 0
49 -1507 1517 0
49 -1508 1518 0
49 -1509 1519 0
49 -1510 1520 0
49 -1511 1521 0
49 -1512 1522 0
49 -1513 1523 0
49 -1514 1524 0
49 -1515 1525 0
49 -1516 1526 0
49 -1527 1548 0
49 -1528 1549 0
49 -1529 1550 0
49 -1530 1551 0
49 -1531 1552 0
49 -1532 1553 0
49 -1533 1547 0
49 -1534 1558 0
49 -1535 1559 0
49 -1536 1560 0
49 -1537 1561 0
49 -1538 1562 0
49 -1539 1563 0
49 -1540 1564 0
49 -1541 1565 0
49 -1542 1566 0
49 -1543 1554 0
49 -1544 1555 0
49 -1545 1556 0
49 -1546 1557 0
49 -1533 -1806 0
49 -1534 -1806 0
49 -1535 -1806 0
49 -1536 -1806 0
49 -1537 -1806 0
49 -1538 -1806 0
49 -1539 -1806 0
49 -1540 -1806 0
49 -1567 1575 0
49 -1568 1576 0
49 -1569 1577 0
49 -1570 1578 0
49 -1571 1579 0
49 -1572 1580 0
49 -1573 1581 0
49 -1574 1582 0
49 -1576 -1700 0
49 -1577 -1700 0
49 -1578 -1700 0
49 -1579 -1700 0
49 -1580 -1700 0
49 -1581 -1700 0
49 -1582 -1700 0
49 -1579 -1973 0
49 -1580 -1974 0
49 -1583 1591 0
49 -1584 1592 0
49 -1585 1593 0
49 -1586 1594 0
49 -1587 1595 0
49 -1588 1596 0
49 -1589 1597 0
49 -1590 1598 0
49 -1592 -2859 0
49 -1593 -2859 0
49 -1593 -2860 0
49 -1594 -2859 0
49 -1594 -2860 0
49 -1594 -2861 0
49 -1595 -2859 0
49 -1595 -2860 0
49 -1595 -2861 0
49 -1595 -2862 0
49 -1596 -2859 0
49 -1596 -2860 0
49 -1596 -2861 0
49 -1596 -2862 0
49 -1596 -2863 0
49 -1597 -2859 0
49 -1597 -2860 0
49 -1597 -2861 0
49 -1597 -2862 0
49 -1597 -2863 0
49 -1597 -2864 0
49 -1598 -2859 0
49 -1598 -2860 0
49 -1598 -2861 0
49 -1598 -2862 0
49 -1598 -2863 0
49 -1598 -2864 0
49 -1598 -2865 0
49 -1592 -2867 0
49 -1593 -2868 0
49 -1594 -2869 0
49 -1595 -2870 0
49 -1596 -2871 0
49 -1597 -2872 0
49 -1598 -2873 0
49 -1599 1600 0
49 -1601 1607 0
49 -1602 1608 0
49 -1603 1609 0
49 -1604 1610 0
49 -1605 1611 0
49 -1606 1612 0
49 -1608 -2087 0
49 -1608 -2088 0
49 -1608 -2089 0
49 -1609 -2087 0
49 -1609 -2088 0
49 -1609 -2089 0
49 -1609 -2090 0
49 -1610 -2087 0
49 -1610 -2088 0
49 -1610 -2089 0
49 -1610 -2090 0
49 -1610 -2091 0
49 -1611 -2087 0
49 -1611 -2088 0
49 -1611 -2089 0
49 -1611 -2090 0
49 -1611 -2091 0
49 -1611 -2092 0
49 -1612 -2087 0
49 -1612 -2088 0
49 -1612 -2089 0
49 -1612 -2090 0
49 -1612 -2091 0
49 -1612 -2092 0
49 -1612 -2093 0
49 -1607 -2096 0
49 -1607 -2097 0
49 -1607 -2098 0
49 -1607 -2099 0
49 -1607 -2100 0
49 -1608 -2099 0
49 -1608 -2100 0
49 -1608 -2101 0
49 -1608 -2102 0
49 -1609 -2100 0
49 -1609 -2101 0
49 -1609 -2102 0
49 -1610 -2101 0
49 -1610 -2102 0
49 -1611 -2102 0
49 -1613 1614 0
49 -1615 1623 0
49 -1616 1624 0
49 -1617 1625 0
49 -1618 1626 0
49 -1619 1627 0
49 -1620 1628 0
49 -1621 1629 0
49 -1622 1630 0
49 -1624 -1749 0
49 -1625 -1749 0
49 -1625 -1750 0
49 -1626 -1749 0
49 -1626 -1750 0
49 -1626 -1751 0
49 -1627 -1749 0
49 -1627 -1750 0
49 -1627 -1751 0
49 -1627 -1752 0
49 -1628 -1749 0
49 -1628 -1750 0
49 -1628 -1751 0
49 -1628 -1752 0
49 -1628 -1753 0
49 -1629 -1749 0
49 -1629 -1750 0
49 -1629 -1751 0
49 -1629 -1752 0
49 -1629 -1753 0
49 -1629 -1754 0
49 -1630 -1749 0
49 -1630 -1750 0
49 -1630 -1751 0
49 -1630 -1752 0
49 -1630 -1753 0
49 -1630 -1754 0
49 -1630 -1755 0
49 -1624 -1757 0
49 -1625 -1758 0
49 -1626 -1759 0
49 -1627 -1760 0
49 -1628 -1761 0
49 -1629 -1762 0
49 -1630 -1763 0
49 -1631 1632 0
49 -1633 1634 0
49 -1635 1636 0
49 -1637 1638 0
49 -1639 1640 0
49 -1641 1647 0
49 -1642 1648 0
49 -1643 1649 0
49 -1644 1650 0
49 -1645 1651 0
49 -1646 1652 0
49 -1647 -1997 0
49 -1647 -1998 0
49 -1647 -1999 0
49 -1648 -1997 0
49 -1648 -1998 0
49 -1648 -1999 0
49 -1650 -2000 0
49 -1650 -2001 0
49 -1650 -2002 0
49 -1650 -2003 0
49 -1650 -2004 0
49 -1651 -2000 0
49 -1651 -2001 0
49 -1651 -2002 0
49 -1651 -2003 0
49 -1651 -2004 0
49 -1651 -2005 0
49 -1652 -2000 0
49 -1652 -2001 0
49 -1652 -2002 0
49 -1652 -2003 0
49 -1652 -2004 0
49 -1652 -2005 0
49 -1652 -2006 0
49 -1647 -2011 0
49 -1647 -2012 0
49 -1647 -2013 0
49 -1648 -2011 0
49 -1648 -2012 0
49 -1648 -2013 0
49 -1650 -2014 0
49 -1650 -2015 0
49 -1650 -2016 0
49 -1650 -2017 0
49 -1650 -2018 0
49 -1651 -2014 0
49 -1651 -2015 0
49 -1651 -2016 0
49 -1651 -2017 0
49 -1651 -2018 0
49 -1651 -2019 0
49 -1652 -2014 0
49 -1652 -2015 0
49 -1652 -2016 0
49 -1652 -2017 0
49 -1652 -2018 0
49 -1652 -2019 0
49 -1652 -2020 0
49 -1650 -2727 0
49 -1650 -2728 0
49 -1650 -2729 0
49 -1650 -2730 0
49 -1651 -2727 0
49 -1651 -2728 0
49 -1651 -2729 0
49 -1651 -2730 0
49 -1651 -2731 0
49 -1652 -2727 0
49 -1652 -2728 0
49 -1652 -2729 0
49 -1652 -2730 0
49 -1652 -2731 0
49 -1652 -2732 0
49 -1650 -2735 0
49 -1650 -2736 0
49 -1650 -2737 0
49 -1650 -2738 0
49 -1650 -2739 0
49 -1651 -2735 0
49 -1651 -2736 0
49 -1651 -2737 0
49 -1651 -2738 0
49 -1651 -2739 0
49 -1651 -2740 0
49 -1652 -2735 0
49 -1652 -2736 0
49 -1652 -2737 0
49 -1652 -2738 0
49 -1652 -2739 0
49 -1652 -2740 0
49 -1652 -2741 0
49 -1653 1654 0
49 -1655 1663 0
49 -1656 1664 0
49 -1657 1665 0
49 -1658 1666 0
49 -1659 1667 0
49 -1660 1668 0
49 -1661 1669 0
49 -1662 1670 0
49 -1671 1672 0
49 -1673 1675 0
49 -1674 1676 0
49 -1674 -2184 0
49 -1673 -2187 0
49 -1673 -2188 0
49 -1674 -2399 0
49 -1674 -2400 0
49 -1674 -2401 0
49 -1673 -2404 0
49 -1673 -2405 0
49 -1673 -2406 0
49 -1673 -2407 0
49 -1673 -2408 0
49 -1676 -2183 0
49 -1676 -2184 0
49 -1676 -2187 0
49 -1676 -2397 0
49 -1676 -2398 0
49 -1676 -2399 0
49 -1676 -2400 0
49 -1676 -2401 0
49 -1676 -2405 0
49 -1676 -2406 0
49 -1676 -2407 0
49 -1677 1685 0
49 -1678 1686 0
49 -1679 1687 0
49 -1680 1688 0
49 -1681 1689 0
49 -1682 1690 0
49 -1683 1691 0
49 -1684 1692 0
49 -1693 1694 0
49 -1695 1696 0
49 -1697 1699 0
49 -1698 1700 0
49 -1701 1709 0
49 -1702 1710 0
49 -1703 1711 0
49 -1704 1712 0
49 -1705 1713 0
49 -1706 1714 0
49 -1707 1715 0
49 -1708 1716 0
49 -1717 1718 0
49 -1719 1720 0
49 -1721 1722 0
49 -1723 1724 0
49 -1725 1726 0
49 -1727 1728 0
49 -1729 1737 0
49 -1730 1738 0
49 -1731 1739 0
49 -1732 1740 0
49 -1733 1741 0
49 -1734 1742 0
49 -1735 1743 0
49 -1736 1744 0
49 -1745 1746 0
49 -1747 1748 0
49 -1749 1757 0
49 -1750 1758 0
49 -1751 1759 0
49 -1752 1760 0
49 -1753 1761 0
49 -1754 1762 0
49 -1755 1763 0
49 -1756 1764 0
49 -1758 -2489 0
49 -1759 -2489 0
49 -1759 -2490 0
49 -1760 -2489 0
49 -1760 -2490 0
49 -1760 -2491 0
49 -1761 -2489 0
49 -1761 -2490 0
49 -1761 -2491 0
49 -1761 -2492 0
49 -1762 -2489 0
49 -1762 -2490 0
49 -1762 -2491 0
49 -1762 -2492 0
49 -1762 -2493 0
49 -1763 -2489 0
49 -1763 -2490 0
49 -1763 -2491 0
49 -1763 -2492 0
49 -1763 -2493 0
49 -1763 -2494 0
49 -1764 -2489 0
49 -1764 -2490 0
49 -1764 -2491 0
49 -1764 -2492 0
49 -1764 -2493 0
49 -1764 -2494 0
49 -1764 -2495 0
49 -1757 -2501 0
49 -1758 -2502 0
49 -1759 -2503 0
49 -1760 -2504 0
49 -1761 -2505 0
49 -1762 -2506 0
49 -1763 -2507 0
49 -1764 -2508 0
49 -1765 1766 0
49 -1767 1768 0
49 -1769 1771 0
49 -1770 1772 0
49 -1773 1774 0
49 -1775 1776 0
49 -1777 1788 0
49 -1778 1789 0
49 -1779 1790 0
49 -1780 1791 0
49 -1781 1792 0
49 -1782 1786 0
49 -1783 1787 0
49 -1784 1794 0
49 -1785 1793 0
49 -1777 -2304 0
49 -1777 -2305 0
49 -1778 -2304 0
49 -1778 -2305 0
49 -1778 -2306 0
49 -1779 -2304 0
49 -1779 -2305 0
49 -1779 -2306 0
49 -1779 -2307 0
49 -1779 -2308 0
49 -1779 -2309 0
49 -1779 -2310 0
49 -1780 -2304 0
49 -1780 -2305 0
49 -1780 -2306 0
49 -1780 -2307 0
49 -1780 -2308 0
49 -1780 -2309 0
49 -1780 -2310 0
49 -1780 -2311 0
49 -1781 -2304 0
49 -1781 -2305 0
49 -1781 -2306 0
49 -1781 -2307 0
49 -1781 -2308 0
49 -1781 -2309 0
49 -1781 -2310 0
49 -1781 -2311 0
49 -1782 -2304 0
49 -1782 -2305 0
49 -1782 -2306 0
49 -1782 -2307 0
49 -1782 -2308 0
49 -1782 -2309 0
49 -1782 -2310 0
49 -1782 -2311 0
49 -1783 -2304 0
49 -1783 -2305 0
49 -1783 -2306 0
49 -1783 -2307 0
49 -1783 -2308 0
49 -1783 -2309 0
49 -1783 -2310 0
49 -1783 -2311 0
49 -1784 -2305 0
49 -1784 -2306 0
49 -1784 -2307 0
49 -1784 -2308 0
49 -1784 -2309 0
49 -1784 -2310 0
49 -1784 -2311 0
49 -1784 -2312 0
49 -1785 -2312 0
49 -1786 -1997 0
49 -1786 -1998 0
49 -1786 -1999 0
49 -1787 -1997 0
49 -1787 -1998 0
49 -1787 -1999 0
49 -1788 -1997 0
49 -1788 -1998 0
49 -1788 -1999 0
49 -1789 -1997 0
49 -1789 -1998 0
49 -1789 -1999 0
49 -1790 -1999 0
49 -1791 -2000 0
49 -1791 -2001 0
49 -1792 -2000 0
49 -1792 -2001 0
49 -1792 -2002 0
49 -1793 -2000 0
49 -1793 -2001 0
49 -1793 -2002 0
49 -1793 -2003 0
49 -1793 -2004 0
49 -1793 -2005 0
49 -1794 -2000 0
49 -1794 -2001 0
49 -1794 -2002 0
49 -1794 -2003 0
49 -1794 -2004 0
49 -1794 -2005 0
49 -1794 -2006 0
49 -1794 -2007 0
49 -1794 -2008 0
49 -1794 -2009 0
49 -1794 -2010 0
49 -1791 -2385 0
49 -1791 -2386 0
49 -1792 -2385 0
49 -1792 -2386 0
49 -1792 -2387 0
49 -1793 -2385 0
49 -1793 -2386 0
49 -1793 -2387 0
49 -1793 -2388 0
49 -1793 -2389 0
49 -1793 -2390 0
49 -1793 -2391 0
49 -1795 1800 0
49 -1796 1801 0
49 -1797 1802 0
49 -1798 1803 0
49 -1799 1804 0
49 -1805 1808 0
49 -1806 1807 0
49 -1809 1810 0
49 -1811 1812 0
49 -1813 1814 0
49 -1815 1816 0
49 -1817 1828 0
49 -1818 1829 0
49 -1819 1830 0
49 -1820 1831 0
49 -1821 1832 0
49 -1822 1833 0
49 -1823 1834 0
49 -1824 1835 0
49 -1825 1836 0
49 -1826 1837 0
49 -1827 1838 0
49 -1828 -2119 0
49 -1828 -2120 0
49 -1829 -2119 0
49 -1829 -2120 0
49 -1829 -2121 0
49 -1830 -2119 0
49 -1830 -2120 0
49 -1830 -2121 0
49 -1830 -2122 0
49 -1831 -2119 0
49 -1831 -2120 0
49 -1831 -2121 0
49 -1831 -2122 0
49 -1831 -2123 0
49 -1832 -2119 0
49 -1832 -2120 0
49 -1832 -2121 0
49 -1832 -2122 0
49 -1832 -2123 0
49 -1832 -2124 0
49 -1833 -2119 0
49 -1833 -2120 0
49 -1833 -2121 0
49 -1833 -2122 0
49 -1833 -2123 0
49 -1833 -2124 0
49 -1834 -2119 0
49 -1834 -2120 0
49 -1834 -2121 0
49 -1834 -2122 0
49 -1834 -2123 0
49 -1834 -2124 0
49 -1835 -2119 0
49 -1835 -2120 0
49 -1835 -2121 0
49 -1835 -2122 0
49 -1835 -2123 0
49 -1835 -2124 0
49 -1836 -2119 0
49 -1836 -2120 0
49 -1836 -2121 0
49 -1836 -2122 0
49 -1836 -2123 0
49 -1836 -2124 0
49 -1837 -2120 0
49 -1837 -2121 0
49 -1837 -2122 0
49 -1837 -2123 0
49 -1837 -2124 0
49 -1838 -2121 0
49 -1838 -2122 0
49 -1838 -2123 0
49 -1838 -2124 0
49 -1839 1840 0
49 -1841 1842 0
49 -1843 1844 0
49 -1845 1846 0
49 -1847 1848 0
49 -1849 1857 0
49 -1850 1858 0
49 -1851 1859 0
49 -1852 1860 0
49 -1853 1861 0
49 -1854 1862 0
49 -1855 1863 0
49 -1856 1864 0
49 -1858 -2237 0
49 -1859 -2237 0
49 -1859 -2238 0
49 -1860 -2237 0
49 -1860 -2238 0
49 -1860 -2239 0
49 -1861 -2237 0
49 -1861 -2238 0
49 -1861 -2239 0
49 -1861 -2240 0
49 -1862 -2237 0
49 -1862 -2238 0
49 -1862 -2239 0
49 -1862 -2240 0
49 -1862 -2241 0
49 -1863 -2237 0
49 -1863 -2238 0
49 -1863 -2239 0
49 -1863 -2240 0
49 -1863 -2241 0
49 -1863 -2242 0
49 -1864 -2237 0
49 -1864 -2238 0
49 -1864 -2239 0
49 -1864 -2240 0
49 -1864 -2241 0
49 -1864 -2242 0
49 -1864 -2243 0
49 -1857 -2246 0
49 -1857 -2247 0
49 -1857 -2248 0
49 -1857 -2249 0
49 -1857 -2250 0
49 -1858 -2247 0
49 -1858 -2248 0
49 -1858 -2249 0
49 -1858 -2250 0
49 -1858 -2251 0
49 -1859 -2248 0
49 -1859 -2249 0
49 -1859 -2250 0
49 -1859 -2251 0
49 -1859 -2252 0
49 -1860 -2249 0
49 -1860 -2250 0
49 -1860 -2251 0
49 -1860 -2252 0
49 -1861 -2250 0
49 -1861 -2251 0
49 -1861 -2252 0
49 -1862 -2251 0
49 -1862 -2252 0
49 -1863 -2252 0
49 -1858 -2859 0
49 -1859 -2859 0
49 -1859 -2860 0
49 -1860 -2859 0
49 -1860 -2860 0
49 -1860 -2861 0
49 -1861 -2859 0
49 -1861 -2860 0
49 -1861 -2861 0
49 -1861 -2862 0
49 -1862 -2859 0
49 -1862 -2860 0
49 -1862 -2861 0
49 -1862 -2862 0
49 -1862 -2863 0
49 -1863 -2859 0
49 -1863 -2860 0
49 -1863 -2861 0
49 -1863 -2862 0
49 -1863 -2863 0
49 -1863 -2864 0
49 -1864 -2859 0
49 -1864 -2860 0
49 -1864 -2861 0
49 -1864 -2862 0
49 -1864 -2863 0
49 -1864 -2864 0
49 -1864 -2865 0
49 -1857 -2868 0
49 -1857 -2869 0
49 -1857 -2870 0
49 -1858 -2869 0
49 -1858 -2870 0
49 -1858 -2871 0
49 -1859 -2870 0
49 -1859 -2871 0
49 -1859 -2872 0
49 -1860 -2871 0
49 -1860 -2872 0
49 -1860 -2873 0
49 -1861 -2872 0
49 -1861 -2873 0
49 -1861 -2874 0
49 -1862 -2873 0
49 -1862 -2874 0
49 -1863 -2874 0
49 -1865 1866 0
49 -1867 1870 0
49 -1868 1871 0
49 -1869 1872 0
49 -1868 -2797 0
49 -1868 -2798 0
49 -1868 -2799 0
49 -1868 -2800 0
49 -1869 -2798 0
49 -1869 -2799 0
49 -1869 -2800 0
49 -1867 -2802 0
49 -1867 -2803 0
49 -1867 -2804 0
49 -1867 -2805 0
49 -1867 -2806 0
49 -1867 -2807 0
49 -1867 -2808 0
49 -1871 -2805 0
49 -1871 -2806 0
49 -1871 -2807 0
49 -1871 -2808 0
49 -1872 -2806 0
49 -1872 -2807 0
49 -1872 -2808 0
49 -1873 1874 0
49 -1875 1876 0
49 -1877 1878 0
49 -1879 1880 0
49 -1881 1884 0
49 -1882 1885 0
49 -1883 1886 0
49 -1887 1888 0
49 -1889 1890 0
49 -1891 1892 0
49 -1893 1894 0
49 -1895 1896 0
49 -1897 1898 0
49 -1899 1900 0
49 -1901 1902 0
49 -1903 1904 0
49 -1905 1906 0
49 -1907 1908 0
49 -1909 1920 0
49 -1910 1921 0
49 -1911 1922 0
49 -1912 1923 0
49 -1913 1924 0
49 -1914 1925 0
49 -1915 1926 0
49 -1916 1927 0
49 -1917 1928 0
49 -1918 1929 0
49 -1919 1930 0
49 -1931 1932 0
49 -1933 1934 0
49 -1935 1936 0
49 -1937 1938 0
49 -1939 1940 0
49 -1941 1942 0
49 -1943 1948 0
49 -1944 1949 0
49 -1945 1950 0
49 -1946 1951 0
49 -1947 1952 0
49 -1943 -2518 0
49 -1943 -2519 0
49 -1943 -2520 0
49 -1944 -2522 0
49 -1944 -2523 0
49 -1944 -2524 0
49 -1945 -2523 0
49 -1945 -2524 0
49 -1946 -2524 0
49 -1943 -2526 0
49 -1943 -2527 0
49 -1943 -2528 0
49 -1943 -2529 0
49 -1943 -2530 0
49 -1943 -2531 0
49 -1943 -2532 0
49 -1944 -2530 0
49 -1944 -2531 0
49 -1944 -2532 0
49 -1945 -2531 0
49 -1945 -2532 0
49 -1946 -2532 0
49 -1949 -2517 0
49 -1949 -2518 0
49 -1949 -2519 0
49 -1949 -2520 0
49 -1950 -2517 0
49 -1950 -2518 0
49 -1950 -2519 0
49 -1950 -2520 0
49 -1950 -2521 0
49 -1951 -2517 0
49 -1951 -2518 0
49 -1951 -2519 0
49 -1951 -2520 0
49 -1951 -2521 0
49 -1951 -2522 0
49 -1952 -2517 0
49 -1952 -2518 0
49 -1952 -2519 0
49 -1952 -2520 0
49 -1952 -2521 0
49 -1952 -2522 0
49 -1952 -2523 0
49 -1948 -2526 0
49 -1948 -2527 0
49 -1948 -2528 0
49 -1949 -2530 0
49 -1949 -2531 0
49 -1949 -2532 0
49 -1950 -2531 0
49 -1950 -2532 0
49 -1951 -2532 0
49 -1953 1961 0
49 -1954 1962 0
49 -1955 1963 0
49 -1956 1964 0
49 -1957 1965 0
49 -1958 1966 0
49 -1959 1967 0
49 -1960 1968 0
49 -1969 1972 0
49 -1970 1973 0
49 -1971 1974 0
49 -1975 1976 0
49 -1977 1978 0
49 -1979 1987 0
49 -1980 1988 0
49 -1981 1989 0
49 -1982 1990 0
49 -1983 1991 0
49 -1984 1992 0
49 -1985 1993 0
49 -1986 1994 0
49 -1995 1996 0
49 -1997 2011 0
49 -1998 2012 0
49 -1999 2013 0
49 -2000 2014 0
49 -2001 2015 0
49 -2002 2016 0
49 -2003 2017 0
49 -2004 2018 0
49 -2005 2019 0
49 -2006 2020 0
49 -2007 2021 0
49 -2008 2022 0
49 -2009 2023 0
49 -2010 2024 0
49 -2001 -2377 0
49 -2002 -2377 0
49 -2002 -2378 0
49 -2003 -2377 0
49 -2003 -2378 0
49 -2003 -2379 0
49 -2004 -2378 0
49 -2004 -2379 0
49 -2004 -2380 0
49 -2005 -2379 0
49 -2005 -2380 0
49 -2005 -2381 0
49 -2006 -2380 0
49 -2006 -2381 0
49 -2006 -2382 0
49 -2007 -2381 0
49 -2007 -2382 0
49 -2007 -2383 0
49 -2008 -2382 0
49 -2008 -2383 0
49 -2008 -2384 0
49 -2009 -2383 0
49 -2009 -2384 0
49 -2010 -2384 0
49 -2011 -2203 0
49 -2011 -2204 0
49 -2012 -2203 0
49 -2012 -2204 0
49 -2012 -2205 0
49 -2013 -2204 0
49 -2013 -2205 0
49 -2013 -2206 0
49 -2015 -2385 0
49 -2016 -2385 0
49 -2016 -2386 0
49 -2017 -2385 0
49 -2017 -2386 0
49 -2017 -2387 0
49 -2018 -2386 0
49 -2018 -2387 0
49 -2018 -2388 0
49 -2019 -2387 0
49 -2019 -2388 0
49 -2019 -2389 0
49 -2020 -2388 0
49 -2020 -2389 0
49 -2020 -2390 0
49 -2021 -2389 0
49 -2021 -2390 0
49 -2021 -2391 0
49 -2022 -2390 0
49 -2022 -2391 0
49 -2022 -2392 0
49 -2023 -2391 0
49 -2023 -2392 0
49 -2024 -2392 0
49 -2025 2026 0
49 -2027 2035 0
49 -2028 2036 0
49 -2029 2037 0
49 -2030 2038 0
49 -2031 2039 0
49 -2032 2040 0
49 -2033 2041 0
49 -2034 2042 0
49 -2028 -2415 0
49 -2029 -2415 0
49 -2029 -2416 0
49 -2030 -2415 0
49 -2030 -2416 0
49 -2030 -2417 0
49 -2031 -2415 0
49 -2031 -2416 0
49 -2031 -2417 0
49 -2031 -2418 0
49 -2032 -2415 0
49 -2032 -2416 0
49 -2032 -2417 0
49 -2032 -2418 0
49 -2032 -2419 0
49 -2033 -2416 0
49 -2033 -2417 0
49 -2033 -2418 0
49 -2033 -2419 0
49 -2033 -2420 0
49 -2034 -2417 0
49 -2034 -2418 0
49 -2034 -2419 0
49 -2034 -2420 0
49 -2034 -2421 0
49 -2027 -2424 0
49 -2027 -2425 0
49 -2027 -2426 0
49 -2027 -2427 0
49 -2027 -2428 0
49 -2027 -2429 0
49 -2027 -2430 0
49 -2028 -2425 0
49 -2028 -2426 0
49 -2028 -2427 0
49 -2028 -2428 0
49 -2028 -2429 0
49 -2028 -2430 0
49 -2029 -2426 0
49 -2029 -2427 0
49 -2029 -2428 0
49 -2029 -2429 0
49 -2029 -2430 0
49 -2030 -2427 0
49 -2030 -2428 0
49 -2030 -2429 0
49 -2030 -2430 0
49 -2031 -2428 0
49 -2031 -2429 0
49 -2031 -2430 0
49 -2032 -2429 0
49 -2032 -2430 0
49 -2033 -2430 0
49 -2036 -2415 0
49 -2037 -2415 0
49 -2037 -2416 0
49 -2038 -2415 0
49 -2038 -2416 0
49 -2038 -2417 0
49 -2039 -2415 0
49 -2039 -2416 0
49 -2039 -2417 0
49 -2039 -2418 0
49 -2040 -2415 0
49 -2040 -2416 0
49 -2040 -2417 0
49 -2040 -2418 0
49 -2040 -2419 0
49 -2041 -2415 0
49 -2041 -2416 0
49 -2041 -2417 0
49 -2041 -2418 0
49 -2041 -2419 0
49 -2041 -2420 0
49 -2042 -2415 0
49 -2042 -2416 0
49 -2042 -2417 0
49 -2042 -2418 0
49 -2042 -2419 0
49 -2042 -2420 0
49 -2042 -2421 0
49 -2036 -2423 0
49 -2037 -2423 0
49 -2037 -2424 0
49 -2038 -2423 0
49 -2038 -2424 0
49 -2038 -2425 0
49 -2039 -2423 0
49 -2039 -2424 0
49 -2039 -2425 0
49 -2039 -2426 0
49 -2040 -2423 0
49 -2040 -2424 0
49 -2040 -2425 0
49 -2040 -2426 0
49 -2040 -2427 0
49 -2041 -2424 0
49 -2041 -2425 0
49 -2041 -2426 0
49 -2041 -2427 0
49 -2041 -2428 0
49 -2042 -2425 0
49 -2042 -2426 0
49 -2042 -2427 0
49 -2042 -2428 0
49 -2042 -2429 0
49 -2043 2044 0
49 -2045 2049 0
49 -2046 2050 0
49 -2047 2051 0
49 -2048 2052 0
49 -2049 -2550 0
49 -2049 -2551 0
49 -2050 -2550 0
49 -2050 -2551 0
49 -2051 -2551 0
49 -2053 2054 0
49 -2055 2056 0
49 -2057 2058 0
49 -2059 2060 0
49 -2061 2062 0
49 -2063 2064 0
49 -2065 2074 0
49 -2066 2075 0
49 -2067 2076 0
49 -2068 2077 0
49 -2069 2078 0
49 -2070 2079 0
49 -2071 2080 0
49 -2072 2081 0
49 -2073 2082 0
49 -2083 2084 0
49 -2085 2086 0
49 -2087 2095 0
49 -2088 2096 0
49 -2089 2097 0
49 -2090 2098 0
49 -2091 2099 0
49 -2092 2100 0
49 -2093 2101 0
49 -2094 2102 0
49 -2096 -2727 0
49 -2097 -2727 0
49 -2097 -2728 0
49 -2098 -2727 0
49 -2098 -2728 0
49 -2098 -2729 0
49 -2099 -2727 0
49 -2099 -2728 0
49 -2099 -2729 0
49 -2099 -2730 0
49 -2100 -2727 0
49 -2100 -2728 0
49 -2100 -2729 0
49 -2100 -2730 0
49 -2100 -2731 0
49 -2101 -2727 0
49 -2101 -2728 0
49 -2101 -2729 0
49 -2101 -2730 0
49 -2101 -2731 0
49 -2101 -2732 0
49 -2102 -2727 0
49 -2102 -2728 0
49 -2102 -2729 0
49 -2102 -2730 0
49 -2102 -2731 0
49 -2102 -2732 0
49 -2102 -2733 0
49 -2103 2104 0
49 -2105 2106 0
49 -2107 2108 0
49 -2109 2110 0
49 -2111 2118 0
49 -2112 2119 0
49 -2113 2120 0
49 -2114 2121 0
49 -2115 2122 0
49 -2116 2123 0
49 -2117 2124 0
49 -2125 2129 0
49 -2126 2130 0
49 -2127 2131 0
49 -2128 2132 0
49 -2133 2141 0
49 -2134 2142 0
49 -2135 2143 0
49 -2136 2144 0
49 -2137 2145 0
49 -2138 2146 0
49 -2139 2147 0
49 -2140 2148 0
49 -2133 -2698 0
49 -2133 -2699 0
49 -2133 -2700 0
49 -2133 -2701 0
49 -2133 -2702 0
49 -2133 -2703 0
49 -2133 -2704 0
49 -2134 -2699 0
49 -2134 -2700 0
49 -2134 -2701 0
49 -2134 -2702 0
49 -2134 -2703 0
49 -2134 -2704 0
49 -2135 -2700 0
49 -2135 -2701 0
49 -2135 -2702 0
49 -2135 -2703 0
49 -2135 -2704 0
49 -2136 -2701 0
49 -2136 -2702 0
49 -2136 -2703 0
49 -2136 -2704 0
49 -2137 -2702 0
49 -2137 -2703 0
49 -2137 -2704 0
49 -2138 -2703 0
49 -2138 -2704 0
49 -2139 -2704 0
49 -2141 -2636 0
49 -2142 -2637 0
49 -2143 -2638 0
49 -2144 -2639 0
49 -2145 -2640 0
49 -2146 -2641 0
49 -2147 -2642 0
49 -2149 2150 0
49 -2151 2152 0
49 -2153 2154 0
49 -2155 2156 0
49 -2157 2158 0
49 -2159 2160 0
49 -2161 2162 0
49 -2163 2171 0
49 -2164 2172 0
49 -2165 2173 0
49 -2166 2174 0
49 -2167 2175 0
49 -2168 2176 0
49 -2169 2177 0
49 -2170 2178 0
49 -2164 -2335 0
49 -2165 -2335 0
49 -2165 -2336 0
49 -2166 -2335 0
49 -2166 -2336 0
49 -2166 -2337 0
49 -2167 -2336 0
49 -2167 -2337 0
49 -2167 -2338 0
49 -2168 -2337 0
49 -2168 -2338 0
49 -2168 -2339 0
49 -2169 -2338 0
49 -2169 -2339 0
49 -2169 -2340 0
49 -2170 -2339 0
49 -2170 -2340 0
49 -2170 -2341 0
49 -2163 -2344 0
49 -2163 -2345 0
49 -2163 -2346 0
49 -2163 -2347 0
49 -2163 -2348 0
49 -2163 -2349 0
49 -2163 -2350 0
49 -2164 -2345 0
49 -2164 -2346 0
49 -2164 -2347 0
49 -2164 -2348 0
49 -2164 -2349 0
49 -2164 -2350 0
49 -2165 -2346 0
49 -2165 -2347 0
49 -2165 -2348 0
49 -2165 -2349 0
49 -2165 -2350 0
49 -2166 -2347 0
49 -2166 -2348 0
49 -2166 -2349 0
49 -2166 -2350 0
49 -2167 -2348 0
49 -2167 -2349 0
49 -2167 -2350 0
49 -2168 -2349 0
49 -2168 -2350 0
49 -2169 -2350 0
49 -2172 -2335 0
49 -2173 -2335 0
49 -2173 -2336 0
49 -2174 -2335 0
49 -2174 -2336 0
49 -2174 -2337 0
49 -2175 -2335 0
49 -2175 -2336 0
49 -2175 -2337 0
49 -2175 -2338 0
49 -2176 -2335 0
49 -2176 -2336 0
49 -2176 -2337 0
49 -2176 -2338 0
49 -2176 -2339 0
49 -2177 -2335 0
49 -2177 -2336 0
49 -2177 -2337 0
49 -2177 -2338 0
49 -2177 -2339 0
49 -2177 -2340 0
49 -2178 -2335 0
49 -2178 -2336 0
49 -2178 -2337 0
49 -2178 -2338 0
49 -2178 -2339 0
49 -2178 -2340 0
49 -2178 -2341 0
49 -2172 -2343 0
49 -2173 -2343 0
49 -2173 -2344 0
49 -2174 -2343 0
49 -2174 -2344 0
49 -2174 -2345 0
49 -2175 -2344 0
49 -2175 -2345 0
49 -2175 -2346 0
49 -2176 -2345 0
49 -2176 -2346 0
49 -2176 -2347 0
49 -2177 -2346 0
49 -2177 -2347 0
49 -2177 -2348 0
49 -2178 -2347 0
49 -2178 -2348 0
49 -2178 -2349 0
49 -2179 2180 0
49 -2181 2182 0
49 -2183 2186 0
49 -2184 2187 0
49 -2185 2188 0
49 -2184 -2400 0
49 -2185 -2401 0
49 -2183 -2404 0
49 -2183 -2405 0
49 -2183 -2406 0
49 -2183 -2407 0
49 -2183 -2408 0
49 -2184 -2408 0
49 -2187 -2397 0
49 -2187 -2398 0
49 -2187 -2399 0
49 -2187 -2400 0
49 -2188 -2397 0
49 -2188 -2398 0
49 -2188 -2399 0
49 -2188 -2400 0
49 -2188 -2401 0
49 -2187 -2406 0
49 -2188 -2407 0
49 -2189 2190 0
49 -2191 2192 0
49 -2193 2194 0
49 -2195 2196 0
49 -2197 2203 0
49 -2198 2204 0
49 -2199 2205 0
49 -2200 2206 0
49 -2201 2207 0
49 -2202 2208 0
49 -2209 2210 0
49 -2211 2212 0
49 -2213 2214 0
49 -2215 2223 0
49 -2216 2224 0
49 -2217 2225 0
49 -2218 2226 0
49 -2219 2227 0
49 -2220 2228 0
49 -2221 2229 0
49 -2222 2230 0
49 -2231 2232 0
49 -2233 2234 0
49 -2235 2236 0
49 -2237 2245 0
49 -2238 2246 0
49 -2239 2247 0
49 -2240 2248 0
49 -2241 2249 0
49 -2242 2250 0
49 -2243 2251 0
49 -2244 2252 0
49 -2237 -2568 0
49 -2237 -2569 0
49 -2237 -2570 0
49 -2237 -2571 0
49 -2237 -2572 0
49 -2237 -2573 0
49 -2237 -2574 0
49 -2238 -2569 0
49 -2238 -2570 0
49 -2238 -2571 0
49 -2238 -2572 0
49 -2238 -2573 0
49 -2238 -2574 0
49 -2239 -2570 0
49 -2239 -2571 0
49 -2239 -2572 0
49 -2239 -2573 0
49 -2239 -2574 0
49 -2240 -2571 0
49 -2240 -2572 0
49 -2240 -2573 0
49 -2240 -2574 0
49 -2241 -2572 0
49 -2241 -2573 0
49 -2241 -2574 0
49 -2242 -2573 0
49 -2242 -2574 0
49 -2243 -2574 0
49 -2246 -2559 0
49 -2247 -2559 0
49 -2247 -2560 0
49 -2248 -2559 0
49 -2248 -2560 0
49 -2248 -2561 0
49 -2249 -2559 0
49 -2249 -2560 0
49 -2249 -2561 0
49 -2249 -2562 0
49 -2250 -2559 0
49 -2250 -2560 0
49 -2250 -2561 0
49 -2250 -2562 0
49 -2250 -2563 0
49 -2251 -2559 0
49 -2251 -2560 0
49 -2251 -2561 0
49 -2251 -2562 0
49 -2251 -2563 0
49 -2251 -2564 0
49 -2252 -2559 0
49 -2252 -2560 0
49 -2252 -2561 0
49 -2252 -2562 0
49 -2252 -2563 0
49 -2252 -2564 0
49 -2252 -2565 0
49 -2246 -2567 0
49 -2247 -2568 0
49 -2248 -2569 0
49 -2249 -2570 0
49 -2250 -2571 0
49 -2251 -2572 0
49 -2252 -2573 0
49 -2246 -2859 0
49 -2247 -2859 0
49 -2247 -2860 0
49 -2248 -2859 0
49 -2248 -2860 0
49 -2248 -2861 0
49 -2249 -2859 0
49 -2249 -2860 0
49 -2249 -2861 0
49 -2249 -2862 0
49 -2250 -2859 0
49 -2250 -2860 0
49 -2250 -2861 0
49 -2250 -2862 0
49 -2250 -2863 0
49 -2251 -2859 0
49 -2251 -2860 0
49 -2251 -2861 0
49 -2251 -2862 0
49 -2251 -2863 0
49 -2251 -2864 0
49 -2252 -2859 0
49 -2252 -2860 0
49 -2252 -2861 0
49 -2252 -2862 0
49 -2252 -2863 0
49 -2252 -2864 0
49 -2252 -2865 0
49 -2246 -2867 0
49 -2247 -2868 0
49 -2248 -2869 0
49 -2249 -2870 0
49 -2250 -2871 0
49 -2251 -2872 0
49 -2252 -2873 0
49 -2253 2254 0
49 -2255 2256 0
49 -2257 2258 0
49 -2259 2260 0
49 -2261 2262 0
49 -2263 2271 0
49 -2264 2272 0
49 -2265 2273 0
49 -2266 2274 0
49 -2267 2275 0
49 -2268 2276 0
49 -2269 2277 0
49 -2270 2278 0
49 -2264 -2473 0
49 -2265 -2473 0
49 -2265 -2474 0
49 -2266 -2473 0
49 -2266 -2474 0
49 -2266 -2475 0
49 -2267 -2474 0
49 -2267 -2475 0
49 -2267 -2476 0
49 -2268 -2475 0
49 -2268 -2476 0
49 -2268 -2477 0
49 -2269 -2476 0
49 -2269 -2477 0
49 -2269 -2478 0
49 -2270 -2477 0
49 -2270 -2478 0
49 -2270 -2479 0
49 -2263 -2482 0
49 -2263 -2483 0
49 -2263 -2484 0
49 -2263 -2485 0
49 -2263 -2486 0
49 -2263 -2487 0
49 -2263 -2488 0
49 -2264 -2483 0
49 -2264 -2484 0
49 -2264 -2485 0
49 -2264 -2486 0
49 -2264 -2487 0
49 -2264 -2488 0
49 -2265 -2484 0
49 -2265 -2485 0
49 -2265 -2486 0
49 -2265 -2487 0
49 -2265 -2488 0
49 -2266 -2485 0
49 -2266 -2486 0
49 -2266 -2487 0
49 -2266 -2488 0
49 -2267 -2486 0
49 -2267 -2487 0
49 -2267 -2488 0
49 -2268 -2487 0
49 -2268 -2488 0
49 -2269 -2488 0
49 -2272 -2473 0
49 -2273 -2473 0
49 -2273 -2474 0
49 -2274 -2473 0
49 -2274 -2474 0
49 -2274 -2475 0
49 -2275 -2473 0
49 -2275 -2474 0
49 -2275 -2475 0
49 -2275 -2476 0
49 -2276 -2473 0
49 -2276 -2474 0
49 -2276 -2475 0
49 -2276 -2476 0
49 -2276 -2477 0
49 -2277 -2473 0
49 -2277 -2474 0
49 -2277 -2475 0
49 -2277 -2476 0
49 -2277 -2477 0
49 -2277 -2478 0
49 -2278 -2473 0
49 -2278 -2474 0
49 -2278 -2475 0
49 -2278 -2476 0
49 -2278 -2477 0
49 -2278 -2478 0
49 -2278 -2479 0
49 -2272 -2481 0
49 -2273 -2481 0
49 -2273 -2482 0
49 -2274 -2481 0
49 -2274 -2482 0
49 -2274 -2483 0
49 -2275 -2482 0
49 -2275 -2483 0
49 -2275 -2484 0
49 -2276 -2483 0
49 -2276 -2484 0
49 -2276 -2485 0
49 -2277 -2484 0
49 -2277 -2485 0
49 -2277 -2486 0
49 -2278 -2485 0
49 -2278 -2486 0
49 -2278 -2487 0
49 -2279 2281 0
49 -2280 2282 0
49 -2283 2284 0
49 -2285 2286 0
49 -2287 2288 0
49 -2289 2290 0
49 -2291 2292 0
49 -2293 2294 0
49 -2295 2304 0
49 -2296 2305 0
49 -2297 2306 0
49 -2298 2307 0
49 -2299 2308 0
49 -2300 2309 0
49 -2301 2310 0
49 -2302 2311 0
49 -2303 2312 0
49 -2303 -2389 0
49 -2303 -2390 0
49 -2303 -2391 0
49 -2303 -2392 0
49 -2312 -2388 0
49 -2312 -2389 0
49 -2312 -2390 0
49 -2312 -2391 0
49 -2312 -2392 0
49 -2313 2314 0
49 -2315 2316 0
49 -2317 2325 0
49 -2318 2326 0
49 -2319 2327 0
49 -2320 2328 0
49 -2321 2329 0
49 -2322 2330 0
49 -2323 2331 0
49 -2324 2332 0
49 -2317 -2588 0
49 -2317 -2589 0
49 -2317 -2590 0
49 -2317 -2591 0
49 -2317 -2592 0
49 -2318 -2589 0
49 -2318 -2590 0
49 -2318 -2591 0
49 -2318 -2592 0
49 -2318 -2593 0
49 -2319 -2590 0
49 -2319 -2591 0
49 -2319 -2592 0
49 -2319 -2593 0
49 -2319 -2594 0
49 -2320 -2591 0
49 -2320 -2592 0
49 -2320 -2593 0
49 -2320 -2594 0
49 -2321 -2592 0
49 -2321 -2593 0
49 -2321 -2594 0
49 -2322 -2593 0
49 -2322 -2594 0
49 -2323 -2594 0
49 -2317 -2596 0
49 -2317 -2597 0
49 -2317 -2598 0
49 -2317 -2599 0
49 -2317 -2600 0
49 -2317 -2601 0
49 -2317 -2602 0
49 -2318 -2597 0
49 -2318 -2598 0
49 -2318 -2599 0
49 -2318 -2600 0
49 -2318 -2601 0
49 -2318 -2602 0
49 -2319 -2598 0
49 -2319 -2599 0
49 -2319 -2600 0
49 -2319 -2601 0
49 -2319 -2602 0
49 -2320 -2599 0
49 -2320 -2600 0
49 -2320 -2601 0
49 -2320 -2602 0
49 -2321 -2600 0
49 -2321 -2601 0
49 -2321 -2602 0
49 -2322 -2601 0
49 -2322 -2602 0
49 -2323 -2602 0
49 -2317 -2644 0
49 -2317 -2645 0
49 -2317 -2646 0
49 -2318 -2645 0
49 -2318 -2646 0
49 -2318 -2647 0
49 -2319 -2646 0
49 -2319 -2647 0
49 -2319 -2648 0
49 -2320 -2647 0
49 -2320 -2648 0
49 -2320 -2649 0
49 -2321 -2648 0
49 -2321 -2649 0
49 -2321 -2650 0
49 -2322 -2649 0
49 -2322 -2650 0
49 -2323 -2650 0
49 -2317 -2652 0
49 -2317 -2653 0
49 -2317 -2654 0
49 -2317 -2655 0
49 -2317 -2656 0
49 -2317 -2657 0
49 -2317 -2658 0
49 -2318 -2653 0
49 -2318 -2654 0
49 -2318 -2655 0
49 -2318 -2656 0
49 -2318 -2657 0
49 -2318 -2658 0
49 -2319 -2654 0
49 -2319 -2655 0
49 -2319 -2656 0
49 -2319 -2657 0
49 -2319 -2658 0
49 -2320 -2655 0
49 -2320 -2656 0
49 -2320 -2657 0
49 -2320 -2658 0
49 -2321 -2656 0
49 -2321 -2657 0
49 -2321 -2658 0
49 -2322 -2657 0
49 -2322 -2658 0
49 -2323 -2658 0
49 -2326 -2587 0
49 -2327 -2587 0
49 -2327 -2588 0
49 -2328 -2587 0
49 -2328 -2588 0
49 -2328 -2589 0
49 -2329 -2587 0
49 -2329 -2588 0
49 -2329 -2589 0
49 -2329 -2590 0
49 -2330 -2587 0
49 -2330 -2588 0
49 -2330 -2589 0
49 -2330 -2590 0
49 -2330 -2591 0
49 -2331 -2587 0
49 -2331 -2588 0
49 -2331 -2589 0
49 -2331 -2590 0
49 -2331 -2591 0
49 -2331 -2592 0
49 -2332 -2587 0
49 -2332 -2588 0
49 -2332 -2589 0
49 -2332 -2590 0
49 -2332 -2591 0
49 -2332 -2592 0
49 -2332 -2593 0
49 -2325 -2596 0
49 -2325 -2597 0
49 -2325 -2598 0
49 -2325 -2599 0
49 -2325 -2600 0
49 -2326 -2597 0
49 -2326 -2598 0
49 -2326 -2599 0
49 -2326 -2600 0
49 -2326 -2601 0
49 -2327 -2598 0
49 -2327 -2599 0
49 -2327 -2600 0
49 -2327 -2601 0
49 -2327 -2602 0
49 -2328 -2599 0
49 -2328 -2600 0
49 -2328 -2601 0
49 -2328 -2602 0
49 -2329 -2600 0
49 -2329 -2601 0
49 -2329 -2602 0
49 -2330 -2601 0
49 -2330 -2602 0
49 -2331 -2602 0
49 -2326 -2643 0
49 -2327 -2643 0
49 -2327 -2644 0
49 -2328 -2643 0
49 -2328 -2644 0
49 -2328 -2645 0
49 -2329 -2643 0
49 -2329 -2644 0
49 -2329 -2645 0
49 -2329 -2646 0
49 -2330 -2643 0
49 -2330 -2644 0
49 -2330 -2645 0
49 -2330 -2646 0
49 -2330 -2647 0
49 -2331 -2643 0
49 -2331 -2644 0
49 -2331 -2645 0
49 -2331 -2646 0
49 -2331 -2647 0
49 -2331 -2648 0
49 -2332 -2643 0
49 -2332 -2644 0
49 -2332 -2645 0
49 -2332 -2646 0
49 -2332 -2647 0
49 -2332 -2648 0
49 -2332 -2649 0
49 -2325 -2652 0
49 -2325 -2653 0
49 -2325 -2654 0
49 -2326 -2653 0
49 -2326 -2654 0
49 -2326 -2655 0
49 -2327 -2654 0
49 -2327 -2655 0
49 -2327 -2656 0
49 -2328 -2655 0
49 -2328 -2656 0
49 -2328 -2657 0
49 -2329 -2656 0
49 -2329 -2657 0
49 -2329 -2658 0
49 -2330 -2657 0
49 -2330 -2658 0
49 -2331 -2658 0
49 -2333 2334 0
49 -2335 2343 0
49 -2336 2344 0
49 -2337 2345 0
49 -2338 2346 0
49 -2339 2347 0
49 -2340 2348 0
49 -2341 2349 0
49 -2342 2350 0
49 -2351 2352 0
49 -2353 2354 0
49 -2355 2356 0
49 -2357 2365 0
49 -2358 2366 0
49 -2359 2367 0
49 -2360 2368 0
49 -2361 2369 0
49 -2362 2370 0
49 -2363 2371 0
49 -2364 2372 0
49 -2357 -2644 0
49 -2357 -2645 0
49 -2357 -2646 0
49 -2358 -2645 0
49 -2358 -2646 0
49 -2358 -2647 0
49 -2359 -2646 0
49 -2359 -2647 0
49 -2359 -2648 0
49 -2360 -2647 0
49 -2360 -2648 0
49 -2360 -2649 0
49 -2361 -2648 0
49 -2361 -2649 0
49 -2361 -2650 0
49 -2362 -2649 0
49 -2362 -2650 0
49 -2363 -2650 0
49 -2357 -2652 0
49 -2357 -2653 0
49 -2357 -2654 0
49 -2357 -2655 0
49 -2357 -2656 0
49 -2357 -2657 0
49 -2357 -2658 0
49 -2358 -2653 0
49 -2358 -2654 0
49 -2358 -2655 0
49 -2358 -2656 0
49 -2358 -2657 0
49 -2358 -2658 0
49 -2359 -2654 0
49 -2359 -2655 0
49 -2359 -2656 0
49 -2359 -2657 0
49 -2359 -2658 0
49 -2360 -2655 0
49 -2360 -2656 0
49 -2360 -2657 0
49 -2360 -2658 0
49 -2361 -2656 0
49 -2361 -2657 0
49 -2361 -2658 0
49 -2362 -2657 0
49 -2362 -2658 0
49 -2363 -2658 0
49 -2357 -2836 0
49 -2357 -2837 0
49 -2357 -2838 0
49 -2357 -2839 0
49 -2357 -2840 0
49 -2357 -2841 0
49 -2357 -2842 0
49 -2358 -2837 0
49 -2358 -2838 0
49 -2358 -2839 0
49 -2358 -2840 0
49 -2358 -2841 0
49 -2358 -2842 0
49 -2359 -2838 0
49 -2359 -2839 0
49 -2359 -2840 0
49 -2359 -2841 0
49 -2359 -2842 0
49 -2360 -2839 0
49 -2360 -2840 0
49 -2360 -2841 0
49 -2360 -2842 0
49 -2361 -2840 0
49 -2361 -2841 0
49 -2361 -2842 0
49 -2362 -2841 0
49 -2362 -2842 0
49 -2363 -2842 0
49 -2365 -2715 0
49 -2365 -2716 0
49 -2365 -2717 0
49 -2365 -2718 0
49 -2365 -2719 0
49 -2365 -2720 0
49 -2366 -2716 0
49 -2366 -2717 0
49 -2366 -2718 0
49 -2366 -2719 0
49 -2366 -2720 0
49 -2367 -2717 0
49 -2367 -2718 0
49 -2367 -2719 0
49 -2367 -2720 0
49 -2368 -2717 0
49 -2368 -2718 0
49 -2368 -2719 0
49 -2368 -2720 0
49 -2369 -2718 0
49 -2369 -2719 0
49 -2369 -2720 0
49 -2370 -2719 0
49 -2370 -2720 0
49 -2371 -2720 0
49 -2366 -2827 0
49 -2367 -2827 0
49 -2367 -2828 0
49 -2368 -2827 0
49 -2368 -2828 0
49 -2368 -2829 0
49 -2369 -2827 0
49 -2369 -2828 0
49 -2369 -2829 0
49 -2369 -2830 0
49 -2370 -2827 0
49 -2370 -2828 0
49 -2370 -2829 0
49 -2370 -2830 0
49 -2370 -2831 0
49 -2371 -2827 0
49 -2371 -2828 0
49 -2371 -2829 0
49 -2371 -2830 0
49 -2371 -2831 0
49 -2371 -2832 0
49 -2372 -2827 0
49 -2372 -2828 0
49 -2372 -2829 0
49 -2372 -2830 0
49 -2372 -2831 0
49 -2372 -2832 0
49 -2372 -2833 0
49 -2373 2374 0
49 -2375 2376 0
49 -2377 2385 0
49 -2378 2386 0
49 -2379 2387 0
49 -2380 2388 0
49 -2381 2389 0
49 -2382 2390 0
49 -2383 2391 0
49 -2384 2392 0
49 -2393 2394 0
49 -2395 2396 0
49 -2397 2403 0
49 -2398 2404 0
49 -2399 2405 0
49 -2400 2406 0
49 -2401 2407 0
49 -2402 2408 0
49 -2409 2410 0
49 -2411 2412 0
49 -2413 2414 0
49 -2415 2423 0
49 -2416 2424 0
49 -2417 2425 0
49 -2418 2426 0
49 -2419 2427 0
49 -2420 2428 0
49 -2421 2429 0
49 -2422 2430 0
49 -2431 2432 0
49 -2433 2437 0
49 -2434 2438 0
49 -2435 2439 0
49 -2436 2440 0
49 -2441 2442 0
49 -2443 2444 0
49 -2445 2446 0
49 -2447 2448 0
49 -2449 2457 0
49 -2450 2458 0
49 -2451 2459 0
49 -2452 2460 0
49 -2453 2461 0
49 -2454 2462 0
49 -2455 2463 0
49 -2456 2464 0
49 -2465 2466 0
49 -2467 2468 0
49 -2469 2471 0
49 -2470 2472 0
49 -2470 -2708 0
49 -2473 2481 0
49 -2474 2482 0
49 -2475 2483 0
49 -2476 2484 0
49 -2477 2485 0
49 -2478 2486 0
49 -2479 2487 0
49 -2480 2488 0
49 -2489 2500 0
49 -2490 2501 0
49 -2491 2502 0
49 -2492 2503 0
49 -2493 2504 0
49 -2494 2505 0
49 -2495 2506 0
49 -2496 2507 0
49 -2497 2508 0
49 -2498 2509 0
49 -2499 2510 0
49 -2489 -2752 0
49 -2489 -2753 0
49 -2489 -2754 0
49 -2489 -2755 0
49 -2489 -2756 0
49 -2489 -2757 0
49 -2489 -2758 0
49 -2490 -2753 0
49 -2490 -2754 0
49 -2490 -2755 0
49 -2490 -2756 0
49 -2490 -2757 0
49 -2490 -2758 0
49 -2491 -2754 0
49 -2491 -2755 0
49 -2491 -2756 0
49 -2491 -2757 0
49 -2491 -2758 0
49 -2492 -2755 0
49 -2492 -2756 0
49 -2492 -2757 0
49 -2492 -2758 0
49 -2493 -2756 0
49 -2493 -2757 0
49 -2493 -2758 0
49 -2494 -2757 0
49 -2494 -2758 0
49 -2495 -2758 0
49 -2511 2512 0
49 -2513 2514 0
49 -2515 2516 0
49 -2517 2525 0
49 -2518 2526 0
49 -2519 2527 0
49 -2520 2528 0
49 -2521 2529 0
49 -2522 2530 0
49 -2523 2531 0
49 -2524 2532 0
49 -2533 2534 0
49 -2535 2536 0
49 -2537 2541 0
49 -2538 2542 0
49 -2539 2543 0
49 -2540 2544 0
49 -2545 2546 0
49 -2547 2550 0
49 -2548 2551 0
49 -2549 2552 0
49 -2553 2554 0
49 -2555 2556 0
49 -2557 2558 0
49 -2559 2567 0
49 -2560 2568 0
49 -2561 2569 0
49 -2562 2570 0
49 -2563 2571 0
49 -2564 2572 0
49 -2565 2573 0
49 -2566 2574 0
49 -2575 2576 0
49 -2577 2578 0
49 -2579 2580 0
49 -2581 2582 0
49 -2583 2584 0
49 -2585 2586 0
49 -2587 2595 0
49 -2588 2596 0
49 -2589 2597 0
49 -2590 2598 0
49 -2591 2599 0
49 -2592 2600 0
49 -2593 2601 0
49 -2594 2602 0
49 -2588 -2643 0
49 -2589 -2644 0
49 -2590 -2645 0
49 -2591 -2646 0
49 -2592 -2647 0
49 -2593 -2648 0
49 -2594 -2649 0
49 -2587 -2652 0
49 -2587 -2653 0
49 -2587 -2654 0
49 -2587 -2655 0
49 -2587 -2656 0
49 -2587 -2657 0
49 -2587 -2658 0
49 -2588 -2653 0
49 -2588 -2654 0
49 -2588 -2655 0
49 -2588 -2656 0
49 -2588 -2657 0
49 -2588 -2658 0
49 -2589 -2654 0
49 -2589 -2655 0
49 -2589 -2656 0
49 -2589 -2657 0
49 -2589 -2658 0
49 -2590 -2655 0
49 -2590 -2656 0
49 -2590 -2657 0
49 -2590 -2658 0
49 -2591 -2656 0
49 -2591 -2657 0
49 -2591 -2658 0
49 -2592 -2657 0
49 -2592 -2658 0
49 -2593 -2658 0
49 -2596 -2643 0
49 -2597 -2643 0
49 -2597 -2644 0
49 -2598 -2643 0
49 -2598 -2644 0
49 -2598 -2645 0
49 -2599 -2643 0
49 -2599 -2644 0
49 -2599 -2645 0
49 -2599 -2646 0
49 -2600 -2643 0
49 -2600 -2644 0
49 -2600 -2645 0
49 -2600 -2646 0
49 -2600 -2647 0
49 -2601 -2643 0
49 -2601 -2644 0
49 -2601 -2645 0
49 -2601 -2646 0
49 -2601 -2647 0
49 -2601 -2648 0
49 -2602 -2643 0
49 -2602 -2644 0
49 -2602 -2645 0
49 -2602 -2646 0
49 -2602 -2647 0
49 -2602 -2648 0
49 -2602 -2649 0
49 -2596 -2651 0
49 -2597 -2652 0
49 -2598 -2653 0
49 -2599 -2654 0
49 -2600 -2655 0
49 -2601 -2656 0
49 -2602 -2657 0
49 -2596 -2827 0
49 -2597 -2827 0
49 -2597 -2828 0
49 -2598 -2827 0
49 -2598 -2828 0
49 -2598 -2829 0
49 -2599 -2827 0
49 -2599 -2828 0
49 -2599 -2829 0
49 -2599 -2830 0
49 -2600 -2827 0
49 -2600 -2828 0
49 -2600 -2829 0
49 -2600 -2830 0
49 -2600 -2831 0
49 -2601 -2827 0
49 -2601 -2828 0
49 -2601 -2829 0
49 -2601 -2830 0
49 -2601 -2831 0
49 -2601 -2832 0
49 -2602 -2827 0
49 -2602 -2828 0
49 -2602 -2829 0
49 -2602 -2830 0
49 -2602 -2831 0
49 -2602 -2832 0
49 -2602 -2833 0
49 -2596 -2835 0
49 -2597 -2835 0
49 -2597 -2836 0
49 -2598 -2835 0
49 -2598 -2836 0
49 -2598 -2837 0
49 -2599 -2836 0
49 -2599 -2837 0
49 -2599 -2838 0
49 -2600 -2837 0
49 -2600 -2838 0
49 -2600 -2839 0
49 -2601 -2838 0
49 -2601 -2839 0
49 -2601 -2840 0
49 -2602 -2839 0
49 -2602 -2840 0
49 -2602 -2841 0
49 -2603 2604 0
49 -2605 2606 0
49 -2607 2617 0
49 -2608 2618 0
49 -2609 2619 0
49 -2610 2620 0
49 -2611 2621 0
49 -2612 2622 0
49 -2613 2623 0
49 -2614 2624 0
49 -2615 2625 0
49 -2616 2626 0
49 -2608 -2627 0
49 -2609 -2628 0
49 -2610 -2629 0
49 -2611 -2630 0
49 -2612 -2631 0
49 -2613 -2632 0
49 -2614 -2633 0
49 -2615 -2634 0
49 -2607 -2636 0
49 -2607 -2637 0
49 -2607 -2638 0
49 -2607 -2639 0
49 -2607 -2640 0
49 -2607 -2641 0
49 -2607 -2642 0
49 -2608 -2637 0
49 -2608 -2638 0
49 -2608 -2639 0
49 -2608 -2640 0
49 -2608 -2641 0
49 -2608 -2642 0
49 -2609 -2638 0
49 -2609 -2639 0
49 -2609 -2640 0
49 -2609 -2641 0
49 -2609 -2642 0
49 -2610 -2639 0
49 -2610 -2640 0
49 -2610 -2641 0
49 -2610 -2642 0
49 -2611 -2640 0
49 -2611 -2641 0
49 -2611 -2642 0
49 -2612 -2641 0
49 -2612 -2642 0
49 -2613 -2642 0
49 -2627 2635 0
49 -2628 2636 0
49 -2629 2637 0
49 -2630 2638 0
49 -2631 2639 0
49 -2632 2640 0
49 -2633 2641 0
49 -2634 2642 0
49 -2643 2651 0
49 -2644 2652 0
49 -2645 2653 0
49 -2646 2654 0
49 -2647 2655 0
49 -2648 2656 0
49 -2649 2657 0
49 -2650 2658 0
49 -2652 -2827 0
49 -2653 -2827 0
49 -2653 -2828 0
49 -2654 -2827 0
49 -2654 -2828 0
49 -2654 -2829 0
49 -2655 -2827 0
49 -2655 -2828 0
49 -2655 -2829 0
49 -2655 -2830 0
49 -2656 -2827 0
49 -2656 -2828 0
49 -2656 -2829 0
49 -2656 -2830 0
49 -2656 -2831 0
49 -2657 -2827 0
49 -2657 -2828 0
49 -2657 -2829 0
49 -2657 -2830 0
49 -2657 -2831 0
49 -2657 -2832 0
49 -2658 -2827 0
49 -2658 -2828 0
49 -2658 -2829 0
49 -2658 -2830 0
49 -2658 -2831 0
49 -2658 -2832 0
49 -2658 -2833 0
49 -2652 -2835 0
49 -2653 -2836 0
49 -2654 -2837 0
49 -2655 -2838 0
49 -2656 -2839 0
49 -2657 -2840 0
49 -2658 -2841 0
49 -2659 2660 0
49 -2661 2662 0
49 -2663 2664 0
49 -2665 2688 0
49 -2666 2677 0
49 -2667 2678 0
49 -2668 2679 0
49 -2669 2680 0
49 -2670 2681 0
49 -2671 2682 0
49 -2672 2683 0
49 -2673 2684 0
49 -2674 2685 0
49 -2675 2686 0
49 -2676 2687 0
49 -2689 2697 0
49 -2690 2698 0
49 -2691 2699 0
49 -2692 2700 0
49 -2693 2701 0
49 -2694 2702 0
49 -2695 2703 0
49 -2696 2704 0
49 -2698 -2743 0
49 -2699 -2743 0
49 -2699 -2744 0
49 -2700 -2743 0
49 -2700 -2744 0
49 -2700 -2745 0
49 -2701 -2743 0
49 -2701 -2744 0
49 -2701 -2745 0
49 -2701 -2746 0
49 -2702 -2743 0
49 -2702 -2744 0
49 -2702 -2745 0
49 -2702 -2746 0
49 -2702 -2747 0
49 -2703 -2743 0
49 -2703 -2744 0
49 -2703 -2745 0
49 -2703 -2746 0
49 -2703 -2747 0
49 -2703 -2748 0
49 -2704 -2743 0
49 -2704 -2744 0
49 -2704 -2745 0
49 -2704 -2746 0
49 -2704 -2747 0
49 -2704 -2748 0
49 -2704 -2749 0
49 -2698 -2751 0
49 -2699 -2751 0
49 -2699 -2752 0
49 -2700 -2751 0
49 -2700 -2752 0
49 -2700 -2753 0
49 -2701 -2752 0
49 -2701 -2753 0
49 -2701 -2754 0
49 -2702 -2753 0
49 -2702 -2754 0
49 -2702 -2755 0
49 -2703 -2754 0
49 -2703 -2755 0
49 -2703 -2756 0
49 -2704 -2755 0
49 -2704 -2756 0
49 -2704 -2757 0
49 -2705 2706 0
49 -2707 2714 0
49 -2708 2715 0
49 -2709 2716 0
49 -2710 2717 0
49 -2711 2718 0
49 -2712 2719 0
49 -2713 2720 0
49 -2721 2722 0
49 -2723 2724 0
49 -2725 2726 0
49 -2727 2735 0
49 -2728 2736 0
49 -2729 2737 0
49 -2730 2738 0
49 -2731 2739 0
49 -2732 2740 0
49 -2733 2741 0
49 -2734 2742 0
49 -2743 2751 0
49 -2744 2752 0
49 -2745 2753 0
49 -2746 2754 0
49 -2747 2755 0
49 -2748 2756 0
49 -2749 2757 0
49 -2750 2758 0
49 -2759 2764 0
49 -2760 2765 0
49 -2761 2766 0
49 -2762 2767 0
49 -2763 2768 0
49 -2769 2770 0
49 -2771 2772 0
49 -2773 2774 0
49 -2775 2776 0
49 -2777 2778 0
49 -2779 2780 0
49 -2781 2784 0
49 -2782 2785 0
49 -2783 2786 0
49 -2787 2788 0
49 -2789 2790 0
49 -2791 2792 0
49 -2793 2801 0
49 -2794 2802 0
49 -2795 2803 0
49 -2796 2804 0
49 -2797 2805 0
49 -2798 2806 0
49 -2799 2807 0
49 -2800 2808 0
49 -2809 2810 0
49 -2811 2819 0
49 -2812 2820 0
49 -2813 2821 0
49 -2814 2822 0
49 -2815 2823 0
49 -2816 2824 0
49 -2817 2825 0
49 -2818 2826 0
49 -2827 2835 0
49 -2828 2836 0
49 -2829 2837 0
49 -2830 2838 0
49 -2831 2839 0
49 -2832 2840 0
49 -2833 2841 0
49 -2834 2842 0
49 -2836 -2845 0
49 -2837 -2845 0
49 -2838 -2845 0
49 -2839 -2845 0
49 -2839 -2846 0
49 -2840 -2845 0
49 -2840 -2846 0
49 -2840 -2847 0
49 -2841 -2845 0
49 -2841 -2846 0
49 -2841 -2847 0
49 -2841 -2848 0
49 -2842 -2845 0
49 -2842 -2846 0
49 -2842 -2847 0
49 -2842 -2848 0
49 -2842 -2849 0
49 -2836 -2851 0
49 -2839 -2852 0
49 -2840 -2853 0
49 -2841 -2854 0
49 -2842 -2855 0
49 -2843 2844 0
49 -2845 2851 0
49 -2846 2852 0
49 -2847 2853 0
49 -2848 2854 0
49 -2849 2855 0
49 -2850 2856 0
49 -2851 -2868 0
49 -2851 -2869 0
49 -2851 -2870 0
49 -2852 -2871 0
49 -2852 -2872 0
49 -2852 -2873 0
49 -2853 -2872 0
49 -2853 -2873 0
49 -2853 -2874 0
49 -2854 -2873 0
49 -2854 -2874 0
49 -2855 -2874 0
49 -2857 2858 0
49 -2859 2867 0
49 -2860 2868 0
49 -2861 2869 0
49 -2862 2870 0
49 -2863 2871 0
49 -2864 2872 0
49 -2865 2873 0
49 -2866 2874 0
49 -2868 -2875 0
49 -2869 -2875 0
49 -2870 -2875 0
49 -2871 -2875 0
49 -2871 -2876 0
49 -2872 -2875 0
49 -2872 -2876 0
49 -2872 -2877 0
49 -2873 -2875 0
49 -2873 -2876 0
49 -2873 -2877 0
49 -2873 -2878 0
49 -2874 -2875 0
49 -2874 -2876 0
49 -2874 -2877 0
49 -2874 -2878 0
49 -2874 -2879 0
49 -2868 -2881 0
49 -2869 -2881 0
49 -2870 -2881 0
49 -2871 -2882 0
49 -2872 -2882 0
49 -2872 -2883 0
49 -2873 -2882 0
49 -2873 -2883 0
49 -2873 -2884 0
49 -2874 -2883 0
49 -2874 -2884 0
49 -2874 -2885 0
49 -2875 2881 0
49 -2876 2882 0
49 -2877 2883 0
49 -2878 2884 0
49 -2879 2885 0
49 -2880 2886 0
49 -1 5459 0
49 -2 5472 0
49 -3 5457 0
49 -4 5470 0
49 -5 5489 0
49 -6 5490 0
49 -7 5491 0
49 -8 5492 0
49 -9 5493 0
49 -10 5494 0
49 -11 5495 0
49 -12 5477 0
49 -13 5478 0
49 -14 5479 0
49 -15 5480 0
49 -16 5482 0
49 -17 5483 0
49 -18 5484 0
49 -19 5460 0
49 -20 5473 0
49 -21 5456 0
49 -22 5469 0
49 -23 5458 0
49 -24 5471 0
49 -25 5456 0
49 -26 5469 0
49 -27 5456 0
49 -28 5469 0
49 -29 5463 0
49 -30 5481 0
49 -31 5451 0
49 -32 5452 0
49 -33 5453 0
49 -34 5454 0
49 -35 5455 0
49 -36 5464 0
49 -37 5465 0
49 -38 5466 0
49 -39 5467 0
49 -40 5468 0
49 -41 5460 0
49 -42 5473 0
49 -43 5488 0
49 -44 5489 0
49 -45 5490 0
49 -46 5491 0
49 -47 5492 0
49 -48 5493 0
49 -49 5494 0
49 -50 5495 0
49 -51 5496 0
49 -52 5497 0
49 -53 5498 0
49 -54 5476 0
49 -55 5477 0
49 -56 5478 0
49 -57 5479 0
49 -58 5480 0
49 -59 5482 0
49 -60 5483 0
49 -61 5484 0
49 -62 5485 0
49 -63 5486 0
49 -64 5487 0
49 -65 5491 0
49 -66 5492 0
49 -67 5493 0
49 -68 5494 0
49 -69 5495 0
49 -70 5496 0
49 -71 5497 0
49 -72 5498 0
49 -73 5479 0
49 -74 5480 0
49 -75 5482 0
49 -76 5483 0
49 -77 5484 0
49 -78 5485 0
49 -79 5486 0
49 -80 5487 0
49 -81 5490 0
49 -82 5492 0
49 -83 5494 0
49 -84 5496 0
49 -85 5478 0
49 -86 5480 0
49 -87 5483 0
49 -88 5485 0
49 -89 5455 0
49 -90 5468 0
49 -91 5455 0
49 -92 5468 0
49 -93 5489 0
49 -94 5490 0
49 -95 5491 0
49 -96 5492 0
49 -97 5493 0
49 -98 5494 0
49 -99 5495 0
49 -100 5496 0
49 -101 5477 0
49 -102 5478 0
49 -103 5479 0
49 -104 5480 0
49 -105 5482 0
49 -106 5483 0
49 -107 5484 0
49 -108 5485 0
49 -109 5462 0
49 -110 5463 0
49 -111 5475 0
49 -112 5481 0
49 -113 5455 0
49 -114 5468 0
49 -115 5461 0
49 -116 5474 0
49 -117 5461 0
49 -118 5474 0
49 -119 5456 0
49 -120 5495 0
49 -121 5496 0
49 -122 5497 0
49 -123 5498 0
49 -124 5469 0
49 -125 5484 0
49 -126 5485 0
49 -127 5486 0
49 -128 5487 0
49 -129 5455 0
49 -130 5468 0
49 -131 5456 0
49 -132 5469 0
49 -133 5491 0
49 -134 5492 0
49 -135 5493 0
49 -136 5494 0
49 -137 5495 0
49 -138 5496 0
49 -139 5497 0
49 -140 5498 0
49 -141 5479 0
49 -142 5480 0
49 -143 5482 0
49 -144 5483 0
49 -145 5484 0
49 -146 5485 0
49 -147 5486 0
49 -148 5487 0
49 -149 5452 0
49 -150 5454 0
49 -151 5456 0
49 -152 5458 0
49 -153 5465 0
49 -154 5467 0
49 -155 5469 0
49 -156 5471 0
49 -157 5452 0
49 -158 5453 0
49 -159 5454 0
49 -160 5460 0
49 -161 5490 0
49 -162 5491 0
49 -163 5492 0
49 -164 5465 0
49 -165 5466 0
49 -166 5467 0
49 -167 5473 0
49 -168 5478 0
49 -169 5479 0
49 -170 5480 0
49 -171 5459 0
49 -172 5488 0
49 -173 5489 0
49 -174 5490 0
49 -175 5491 0
49 -176 5492 0
49 -177 5472 0
49 -178 5476 0
49 -179 5477 0
49 -180 5478 0
49 -181 5479 0
49 -182 5480 0
49 -183 5488 0
49 -184 5489 0
49 -185 5490 0
49 -186 5491 0
49 -187 5492 0
49 -188 5493 0
49 -189 5494 0
49 -190 5495 0
49 -191 5496 0
49 -192 5497 0
49 -193 5498 0
49 -194 5476 0
49 -195 5477 0
49 -196 5478 0
49 -197 5479 0
49 -198 5480 0
49 -199 5482 0
49 -200 5483 0
49 -201 5484 0
49 -202 5485 0
49 -203 5486 0
49 -204 5487 0
49 -205 5456 0
49 -206 5469 0
49 -207 5460 0
49 -208 5473 0
49 -209 5488 0
49 -210 5489 0
49 -211 5490 0
49 -212 5491 0
49 -213 5492 0
49 -214 5493 0
49 -215 5494 0
49 -216 5495 0
49 -217 5496 0
49 -218 5497 0
49 -219 5498 0
49 -220 5476 0
49 -221 5477 0
49 -222 5478 0
49 -223 5479 0
49 -224 5480 0
49 -225 5482 0
49 -226 5483 0
49 -227 5484 0
49 -228 5485 0
49 -229 5486 0
49 -230 5487 0
49 -231 5491 0
49 -232 5492 0
49 -233 5493 0
49 -234 5494 0
49 -235 5495 0
49 -236 5496 0
49 -237 5497 0
49 -238 5498 0
49 -239 5479 0
49 -240 5480 0
49 -241 5482 0
49 -242 5483 0
49 -243 5484 0
49 -244 5485 0
49 -245 5486 0
49 -246 5487 0
49 -247 5458 0
49 -248 5471 0
49 -249 5459 0
49 -250 5472 0
49 -251 5461 0
49 -252 5474 0
49 -253 5456 0
49 -254 5469 0
49 -255 5462 0
49 -256 5475 0
49 -257 5460 0
49 -258 5473 0
49 -259 5488 0
49 -260 5489 0
49 -261 5490 0
49 -262 5491 0
49 -263 5492 0
49 -264 5493 0
49 -265 5494 0
49 -266 5495 0
49 -267 5476 0
49 -268 5477 0
49 -269 5478 0
49 -270 5479 0
49 -271 5480 0
49 -272 5482 0
49 -273 5483 0
49 -274 5484 0
49 -275 5462 0
49 -276 5475 0
49 -277 5460 0
49 -278 5473 0
49 -279 5488 0
49 -280 5489 0
49 -281 5490 0
49 -282 5491 0
49 -283 5492 0
49 -284 5493 0
49 -285 5494 0
49 -286 5476 0
49 -287 5477 0
49 -288 5478 0
49 -289 5479 0
49 -290 5480 0
49 -291 5482 0
49 -292 5483 0
49 -293 5461 0
49 -294 5474 0
49 -295 5462 0
49 -296 5475 0
49 -297 5455 0
49 -298 5456 0
49 -299 5457 0
49 -300 5458 0
49 -301 5459 0
49 -302 5460 0
49 -303 5461 0
49 -304 5468 0
49 -305 5469 0
49 -306 5470 0
49 -307 5471 0
49 -308 5472 0
49 -309 5473 0
49 -310 5474 0
49 -311 5491 0
49 -312 5479 0
49 -313 5461 0
49 -314 5474 0
49 -315 5458 0
49 -316 5471 0
49 -317 5455 0
49 -318 5468 0
49 -319 5460 0
49 -320 5473 0
49 -321 5491 0
49 -322 5492 0
49 -323 5493 0
49 -324 5494 0
49 -325 5495 0
49 -326 5496 0
49 -327 5497 0
49 -328 5498 0
49 -329 5479 0
49 -330 5480 0
49 -331 5482 0
49 -332 5483 0
49 -333 5484 0
49 -334 5485 0
49 -335 5486 0
49 -336 5487 0
49 -337 5458 0
49 -338 5471 0
49 -339 5491 0
49 -340 5492 0
49 -341 5493 0
49 -342 5494 0
49 -343 5495 0
49 -344 5496 0
49 -345 5497 0
49 -346 5498 0
49 -347 5479 0
49 -348 5480 0
49 -349 5482 0
49 -350 5483 0
49 -351 5484 0
49 -352 5485 0
49 -353 5486 0
49 -354 5487 0
49 -355 5457 0
49 -356 5470 0
49 -357 5451 0
49 -358 5452 0
49 -359 5453 0
49 -360 5454 0
49 -361 5455 0
49 -362 5456 0
49 -363 5457 0
49 -364 5458 0
49 -365 5464 0
49 -366 5465 0
49 -367 5466 0
49 -368 5467 0
49 -369 5468 0
49 -370 5469 0
49 -371 5470 0
49 -372 5471 0
49 -373 5455 0
49 -374 5468 0
49 -375 5461 0
49 -376 5474 0
49 -377 5461 0
49 -378 5492 0
49 -379 5493 0
49 -380 5474 0
49 -381 5480 0
49 -382 5482 0
49 -383 5458 0
49 -384 5490 0
49 -385 5471 0
49 -386 5478 0
49 -387 5457 0
49 -388 5470 0
49 -389 5459 0
49 -390 5472 0
49 -391 5457 0
49 -392 5470 0
49 -393 5460 0
49 -394 5490 0
49 -395 5491 0
49 -396 5492 0
49 -397 5473 0
49 -398 5478 0
49 -399 5479 0
49 -400 5480 0
49 -401 5458 0
49 -402 5471 0
49 -403 5491 0
49 -404 5492 0
49 -405 5493 0
49 -406 5494 0
49 -407 5495 0
49 -408 5496 0
49 -409 5497 0
49 -410 5498 0
49 -411 5479 0
49 -412 5480 0
49 -413 5482 0
49 -414 5483 0
49 -415 5484 0
49 -416 5485 0
49 -417 5486 0
49 -418 5487 0
49 -419 5463 0
49 -420 5481 0
49 -421 5489 0
49 -422 5490 0
49 -423 5491 0
49 -424 5492 0
49 -425 5493 0
49 -426 5494 0
49 -427 5495 0
49 -428 5496 0
49 -429 5477 0
49 -430 5478 0
49 -431 5479 0
49 -432 5480 0
49 -433 5482 0
49 -434 5483 0
49 -435 5484 0
49 -436 5485 0
49 -437 5459 0
49 -438 5472 0
49 -439 5460 0
49 -440 5473 0
49 -441 5490 0
49 -442 5496 0
49 -443 5498 0
49 -444 5478 0
49 -445 5485 0
49 -446 5487 0
49 -447 5460 0
49 -448 5473 0
49 -449 5459 0
49 -450 5461 0
49 -451 5498 0
49 -452 5472 0
49 -453 5474 0
49 -454 5487 0
49 -455 5462 0
49 -456 5463 0
49 -457 5475 0
49 -458 5481 0
49 -459 5491 0
49 -460 5492 0
49 -461 5493 0
49 -462 5494 0
49 -463 5495 0
49 -464 5496 0
49 -465 5497 0
49 -466 5498 0
49 -467 5479 0
49 -468 5480 0
49 -469 5482 0
49 -470 5483 0
49 -471 5484 0
49 -472 5485 0
49 -473 5486 0
49 -474 5487 0
49 -475 5457 0
49 -476 5470 0
49 -477 5490 0
49 -478 5492 0
49 -479 5494 0
49 -480 5496 0
49 -481 5478 0
49 -482 5480 0
49 -483 5483 0
49 -484 5485 0
49 -485 5452 0
49 -486 5453 0
49 -487 5454 0
49 -488 5455 0
49 -489 5456 0
49 -490 5460 0
49 -491 5496 0
49 -492 5497 0
49 -493 5465 0
49 -494 5466 0
49 -495 5467 0
49 -496 5468 0
49 -497 5469 0
49 -498 5473 0
49 -499 5485 0
49 -500 5486 0
49 -501 5488 0
49 -502 5489 0
49 -503 5490 0
49 -504 5491 0
49 -505 5492 0
49 -506 5493 0
49 -507 5494 0
49 -508 5495 0
49 -509 5496 0
49 -510 5497 0
49 -511 5498 0
49 -512 5476 0
49 -513 5477 0
49 -514 5478 0
49 -515 5479 0
49 -516 5480 0
49 -517 5482 0
49 -518 5483 0
49 -519 5484 0
49 -520 5485 0
49 -521 5486 0
49 -522 5487 0
49 -523 5489 0
49 -524 5490 0
49 -525 5491 0
49 -526 5492 0
49 -527 5493 0
49 -528 5494 0
49 -529 5495 0
49 -530 5477 0
49 -531 5478 0
49 -532 5479 0
49 -533 5480 0
49 -534 5482 0
49 -535 5483 0
49 -536 5484 0
49 -537 5458 0
49 -538 5471 0
49 -539 5451 0
49 -540 5452 0
49 -541 5453 0
49 -542 5454 0
49 -543 5456 0
49 -544 5464 0
49 -545 5465 0
49 -546 5466 0
49 -547 5467 0
49 -548 5469 0
49 -549 5490 0
49 -550 5491 0
49 -551 5492 0
49 -552 5493 0
49 -553 5494 0
49 -554 5495 0
49 -555 5496 0
49 -556 5497 0
49 -557 5478 0
49 -558 5479 0
49 -559 5480 0
49 -560 5482 0
49 -561 5483 0
49 -562 5484 0
49 -563 5485 0
49 -564 5486 0
49 -565 5490 0
49 -566 5491 0
49 -567 5492 0
49 -568 5493 0
49 -569 5494 0
49 -570 5495 0
49 -571 5496 0
49 -572 5497 0
49 -573 5478 0
49 -574 5479 0
49 -575 5480 0
49 -576 5482 0
49 -577 5483 0
49 -578 5484 0
49 -579 5485 0
49 -580 5486 0
49 -581 5458 0
49 -582 5488 0
49 -583 5489 0
49 -584 5490 0
49 -585 5471 0
49 -586 5476 0
49 -587 5477 0
49 -588 5478 0
49 -589 5457 0
49 -590 5470 0
49 -591 5490 0
49 -592 5478 0
49 -593 5455 0
49 -594 5468 0
49 -595 5452 0
49 -596 5460 0
49 -597 5490 0
49 -598 5491 0
49 -599 5492 0
49 -600 5493 0
49 -601 5494 0
49 -602 5495 0
49 -603 5496 0
49 -604 5497 0
49 -605 5465 0
49 -606 5473 0
49 -607 5478 0
49 -608 5479 0
49 -609 5480 0
49 -610 5482 0
49 -611 5483 0
49 -612 5484 0
49 -613 5485 0
49 -614 5486 0
49 -615 5462 0
49 -616 5463 0
49 -617 5475 0
49 -618 5481 0
49 -619 5452 0
49 -620 5453 0
49 -621 5459 0
49 -622 5465 0
49 -623 5466 0
49 -624 5472 0
49 -625 5459 0
49 -626 5472 0
49 -627 5461 0
49 -628 5474 0
49 -629 5456 0
49 -630 5469 0
49 -631 5458 0
49 -632 5471 0
49 -633 5455 0
49 -634 5468 0
49 -635 5457 0
49 -636 5470 0
49 -637 5456 0
49 -638 5469 0
49 -639 5459 0
49 -640 5472 0
49 -641 5460 0
49 -642 5473 0
49 -643 5455 0
49 -644 5468 0
49 -645 5461 0
49 -646 5492 0
49 -647 5493 0
49 -648 5494 0
49 -649 5495 0
49 -650 5496 0
49 -651 5497 0
49 -652 5498 0
49 -653 5474 0
49 -654 5480 0
49 -655 5482 0
49 -656 5483 0
49 -657 5484 0
49 -658 5485 0
49 -659 5486 0
49 -660 5487 0
49 -661 5453 0
49 -662 5454 0
49 -663 5455 0
49 -664 5456 0
49 -665 5466 0
49 -666 5467 0
49 -667 5468 0
49 -668 5469 0
49 -669 5457 0
49 -670 5470 0
49 -671 5452 0
49 -672 5454 0
49 -673 5456 0
49 -674 5465 0
49 -675 5467 0
49 -676 5469 0
49 -677 5463 0
49 -678 5481 0
49 -679 5461 0
49 -680 5474 0
49 -681 5454 0
49 -682 5455 0
49 -683 5456 0
49 -684 5457 0
49 -685 5467 0
49 -686 5468 0
49 -687 5469 0
49 -688 5470 0
49 -689 5491 0
49 -690 5492 0
49 -691 5493 0
49 -692 5494 0
49 -693 5495 0
49 -694 5496 0
49 -695 5497 0
49 -696 5498 0
49 -697 5479 0
49 -698 5480 0
49 -699 5482 0
49 -700 5483 0
49 -701 5484 0
49 -702 5485 0
49 -703 5486 0
49 -704 5487 0
49 -705 5462 0
49 -706 5475 0
49 -707 5460 0
49 -708 5473 0
49 -709 5463 0
49 -710 5481 0
49 -711 5462 0
49 -712 5475 0
49 -713 5455 0
49 -714 5468 0
49 -715 5459 0
49 -716 5472 0
49 -717 5459 0
49 -718 5472 0
49 -719 5462 0
49 -720 5475 0
49 -721 5459 0
49 -722 5472 0
49 -723 5452 0
49 -724 5453 0
49 -725 5454 0
49 -726 5455 0
49 -727 5465 0
49 -728 5466 0
49 -729 5467 0
49 -730 5468 0
49 -731 5491 0
49 -732 5494 0
49 -733 5495 0
49 -734 5496 0
49 -735 5497 0
49 -736 5498 0
49 -737 5479 0
49 -738 5483 0
49 -739 5484 0
49 -740 5485 0
49 -741 5486 0
49 -742 5487 0
49 -743 5489 0
49 -744 5490 0
49 -745 5491 0
49 -746 5492 0
49 -747 5493 0
49 -748 5494 0
49 -749 5495 0
49 -750 5496 0
49 -751 5497 0
49 -752 5498 0
49 -753 5477 0
49 -754 5478 0
49 -755 5479 0
49 -756 5480 0
49 -757 5482 0
49 -758 5483 0
49 -759 5484 0
49 -760 5485 0
49 -761 5486 0
49 -762 5487 0
49 -763 5490 0
49 -764 5495 0
49 -765 5496 0
49 -766 5497 0
49 -767 5478 0
49 -768 5484 0
49 -769 5485 0
49 -770 5486 0
49 -771 5491 0
49 -772 5492 0
49 -773 5493 0
49 -774 5494 0
49 -775 5495 0
49 -776 5496 0
49 -777 5497 0
49 -778 5498 0
49 -779 5479 0
49 -780 5480 0
49 -781 5482 0
49 -782 5483 0
49 -783 5484 0
49 -784 5485 0
49 -785 5486 0
49 -786 5487 0
49 -787 5455 0
49 -788 5468 0
49 -789 5462 0
49 -790 5475 0
49 -791 5491 0
49 -792 5492 0
49 -793 5493 0
49 -794 5494 0
49 -795 5495 0
49 -796 5496 0
49 -797 5497 0
49 -798 5498 0
49 -799 5479 0
49 -800 5480 0
49 -801 5482 0
49 -802 5483 0
49 -803 5484 0
49 -804 5485 0
49 -805 5486 0
49 -806 5487 0
49 -807 5456 0
49 -808 5469 0
49 -809 5457 0
49 -810 5470 0
49 -811 5459 0
49 -812 5472 0
49 -813 5456 0
49 -814 5469 0
49 -815 5462 0
49 -816 5475 0
49 -817 5461 0
49 -818 5490 0
49 -819 5491 0
49 -820 5474 0
49 -821 5478 0
49 -822 5479 0
49 -823 5462 0
49 -824 5475 0
49 -825 5455 0
49 -826 5468 0
49 -827 5460 0
49 -828 5473 0
49 -829 5457 0
49 -830 5458 0
49 -831 5459 0
49 -832 5460 0
49 -833 5465 0
49 -834 5466 0
49 -835 5467 0
49 -836 5468 0
49 -837 5469 0
49 -838 5470 0
49 -839 5471 0
49 -840 5472 0
49 -841 5473 0
49 -842 5489 0
49 -843 5490 0
49 -844 5452 0
49 -845 5453 0
49 -846 5454 0
49 -847 5455 0
49 -848 5456 0
49 -849 5457 0
49 -850 5458 0
49 -851 5459 0
49 -852 5460 0
49 -853 5470 0
49 -854 5471 0
49 -855 5472 0
49 -856 5473 0
49 -857 5477 0
49 -858 5478 0
49 -859 5452 0
49 -860 5453 0
49 -861 5454 0
49 -862 5455 0
49 -863 5459 0
49 -864 5465 0
49 -865 5466 0
49 -866 5467 0
49 -867 5468 0
49 -868 5472 0
49 -869 5455 0
49 -870 5468 0
49 -871 5456 0
49 -872 5469 0
49 -873 5455 0
49 -874 5468 0
49 -875 5456 0
49 -876 5457 0
49 -877 5458 0
49 -878 5459 0
49 -879 5460 0
49 -880 5461 0
49 -881 5476 0
49 -882 5477 0
49 -883 5478 0
49 -884 5479 0
49 -885 5480 0
49 -886 5482 0
49 -887 5483 0
49 -888 5484 0
49 -889 5485 0
49 -890 5486 0
49 -891 5487 0
49 -892 5488 0
49 -893 5489 0
49 -894 5490 0
49 -895 5491 0
49 -896 5492 0
49 -897 5493 0
49 -898 5494 0
49 -899 5495 0
49 -900 5496 0
49 -901 5497 0
49 -902 5498 0
49 -903 5469 0
49 -904 5470 0
49 -905 5471 0
49 -906 5472 0
49 -907 5473 0
49 -908 5474 0
49 -909 5476 0
49 -910 5477 0
49 -911 5478 0
49 -912 5479 0
49 -913 5480 0
49 -914 5482 0
49 -915 5483 0
49 -916 5484 0
49 -917 5485 0
49 -918 5486 0
49 -919 5487 0
49 -920 5488 0
49 -921 5489 0
49 -922 5490 0
49 -923 5491 0
49 -924 5492 0
49 -925 5493 0
49 -926 5494 0
49 -927 5495 0
49 -928 5496 0
49 -929 5497 0
49 -930 5498 0
49 -931 5452 0
49 -932 5453 0
49 -933 5454 0
49 -934 5455 0
49 -935 5456 0
49 -936 5457 0
49 -937 5465 0
49 -938 5466 0
49 -939 5467 0
49 -940 5468 0
49 -941 5469 0
49 -942 5470 0
49 -943 5458 0
49 -944 5471 0
49 -945 5462 0
49 -946 5475 0
49 -947 5451 0
49 -948 5452 0
49 -949 5453 0
49 -950 5454 0
49 -951 5455 0
49 -952 5456 0
49 -953 5458 0
49 -954 5464 0
49 -955 5451 0
49 -956 5464 0
49 -957 5465 0
49 -958 5466 0
49 -959 5467 0
49 -960 5468 0
49 -961 5469 0
49 -962 5471 0
49 -963 5491 0
49 -964 5492 0
49 -965 5493 0
49 -966 5494 0
49 -967 5495 0
49 -968 5496 0
49 -969 5497 0
49 -970 5498 0
49 -971 5479 0
49 -972 5480 0
49 -973 5482 0
49 -974 5483 0
49 -975 5484 0
49 -976 5485 0
49 -977 5486 0
49 -978 5487 0
49 -979 5491 0
49 -980 5492 0
49 -981 5493 0
49 -982 5494 0
49 -983 5495 0
49 -984 5496 0
49 -985 5497 0
49 -986 5498 0
49 -987 5479 0
49 -988 5480 0
49 -989 5482 0
49 -990 5483 0
49 -991 5484 0
49 -992 5485 0
49 -993 5486 0
49 -994 5487 0
49 -995 5489 0
49 -996 5490 0
49 -997 5491 0
49 -998 5492 0
49 -999 5493 0
49 -1000 5494 0
49 -1001 5495 0
49 -1002 5496 0
49 -1003 5477 0
49 -1004 5478 0
49 -1005 5479 0
49 -1006 5480 0
49 -1007 5482 0
49 -1008 5483 0
49 -1009 5484 0
49 -1010 5485 0
49 -1011 5458 0
49 -1012 5471 0
49 -1013 5457 0
49 -1014 5470 0
49 -1015 5463 0
49 -1016 5481 0
49 -1017 5461 0
49 -1018 5474 0
49 -1019 5457 0
49 -1020 5470 0
49 -1021 5491 0
49 -1022 5492 0
49 -1023 5493 0
49 -1024 5494 0
49 -1025 5495 0
49 -1026 5496 0
49 -1027 5497 0
49 -1028 5498 0
49 -1029 5479 0
49 -1030 5480 0
49 -1031 5482 0
49 -1032 5483 0
49 -1033 5484 0
49 -1034 5485 0
49 -1035 5486 0
49 -1036 5487 0
49 -1037 5490 0
49 -1038 5478 0
49 -1039 5491 0
49 -1040 5492 0
49 -1041 5493 0
49 -1042 5494 0
49 -1043 5495 0
49 -1044 5496 0
49 -1045 5497 0
49 -1046 5498 0
49 -1047 5479 0
49 -1048 5480 0
49 -1049 5482 0
49 -1050 5483 0
49 -1051 5484 0
49 -1052 5485 0
49 -1053 5486 0
49 -1054 5487 0
49 -1055 5463 0
49 -1056 5481 0
49 -1057 5455 0
49 -1058 5468 0
49 -1059 5459 0
49 -1060 5472 0
49 -1061 5491 0
49 -1062 5479 0
49 -1063 5489 0
49 -1064 5490 0
49 -1065 5491 0
49 -1066 5492 0
49 -1067 5493 0
49 -1068 5494 0
49 -1069 5495 0
49 -1070 5496 0
49 -1071 5477 0
49 -1072 5478 0
49 -1073 5479 0
49 -1074 5480 0
49 -1075 5482 0
49 -1076 5483 0
49 -1077 5484 0
49 -1078 5485 0
49 -1079 5491 0
49 -1080 5492 0
49 -1081 5493 0
49 -1082 5494 0
49 -1083 5495 0
49 -1084 5496 0
49 -1085 5497 0
49 -1086 5498 0
49 -1087 5479 0
49 -1088 5480 0
49 -1089 5482 0
49 -1090 5483 0
49 -1091 5484 0
49 -1092 5485 0
49 -1093 5486 0
49 -1094 5487 0
49 -1095 5459 0
49 -1096 5472 0
49 -1097 5455 0
49 -1098 5468 0
49 -1099 5488 0
49 -1100 5476 0
49 -1101 5455 0
49 -1102 5468 0
49 -1103 5490 0
49 -1104 5478 0
49 -1105 5459 0
49 -1106 5472 0
49 -1107 5490 0
49 -1108 5496 0
49 -1109 5497 0
49 -1110 5478 0
49 -1111 5485 0
49 -1112 5486 0
49 -1113 5458 0
49 -1114 5471 0
49 -1115 5490 0
49 -1116 5491 0
49 -1117 5492 0
49 -1118 5493 0
49 -1119 5494 0
49 -1120 5495 0
49 -1121 5496 0
49 -1122 5497 0
49 -1123 5478 0
49 -1124 5479 0
49 -1125 5480 0
49 -1126 5482 0
49 -1127 5483 0
49 -1128 5484 0
49 -1129 5485 0
49 -1130 5486 0
49 -1131 5459 0
49 -1132 5472 0
49 -1133 5463 0
49 -1134 5481 0
49 -1135 5491 0
49 -1136 5492 0
49 -1137 5493 0
49 -1138 5494 0
49 -1139 5495 0
49 -1140 5496 0
49 -1141 5497 0
49 -1142 5498 0
49 -1143 5479 0
49 -1144 5480 0
49 -1145 5482 0
49 -1146 5483 0
49 -1147 5484 0
49 -1148 5485 0
49 -1149 5486 0
49 -1150 5487 0
49 -1151 5460 0
49 -1152 5489 0
49 -1153 5490 0
49 -1154 5491 0
49 -1155 5473 0
49 -1156 5477 0
49 -1157 5478 0
49 -1158 5479 0
49 -1159 5451 0
49 -1160 5457 0
49 -1161 5461 0
49 -1162 5464 0
49 -1163 5465 0
49 -1164 5466 0
49 -1165 5467 0
49 -1166 5468 0
49 -1167 5469 0
49 -1168 5470 0
49 -1169 5471 0
49 -1170 5472 0
49 -1171 5473 0
49 -1172 5474 0
49 -1173 5451 0
49 -1174 5452 0
49 -1175 5453 0
49 -1176 5454 0
49 -1177 5455 0
49 -1178 5456 0
49 -1179 5457 0
49 -1180 5458 0
49 -1181 5459 0
49 -1182 5460 0
49 -1183 5461 0
49 -1184 5464 0
49 -1185 5470 0
49 -1186 5474 0
49 -1187 5460 0
49 -1188 5462 0
49 -1189 5463 0
49 -1190 5473 0
49 -1191 5475 0
49 -1192 5481 0
49 -1193 5489 0
49 -1194 5477 0
49 -1195 5452 0
49 -1196 5453 0
49 -1197 5454 0
49 -1198 5455 0
49 -1199 5456 0
49 -1200 5457 0
49 -1201 5465 0
49 -1202 5466 0
49 -1203 5467 0
49 -1204 5468 0
49 -1205 5469 0
49 -1206 5470 0
49 -1207 5460 0
49 -1208 5473 0
49 -1209 5462 0
49 -1210 5475 0
49 -1211 5461 0
49 -1212 5464 0
49 -1213 5465 0
49 -1214 5466 0
49 -1215 5467 0
49 -1216 5468 0
49 -1217 5469 0
49 -1218 5451 0
49 -1219 5452 0
49 -1220 5453 0
49 -1221 5454 0
49 -1222 5455 0
49 -1223 5456 0
49 -1224 5474 0
49 -1225 5459 0
49 -1226 5472 0
49 -1227 5462 0
49 -1228 5463 0
49 -1229 5475 0
49 -1230 5481 0
49 -1231 5463 0
49 -1232 5481 0
49 -1233 5455 0
49 -1234 5468 0
49 -1235 5489 0
49 -1236 5491 0
49 -1237 5492 0
49 -1238 5493 0
49 -1239 5494 0
49 -1240 5495 0
49 -1241 5496 0
49 -1242 5477 0
49 -1243 5479 0
49 -1244 5480 0
49 -1245 5482 0
49 -1246 5483 0
49 -1247 5484 0
49 -1248 5485 0
49 -1249 5452 0
49 -1250 5453 0
49 -1251 5454 0
49 -1252 5455 0
49 -1253 5465 0
49 -1254 5466 0
49 -1255 5467 0
49 -1256 5468 0
49 -1257 5458 0
49 -1258 5471 0
49 -1259 5457 0
49 -1260 5470 0
49 -1261 5456 0
49 -1262 5493 0
49 -1263 5494 0
49 -1264 5495 0
49 -1265 5496 0
49 -1266 5497 0
49 -1267 5498 0
49 -1268 5469 0
49 -1269 5482 0
49 -1270 5483 0
49 -1271 5484 0
49 -1272 5485 0
49 -1273 5486 0
49 -1274 5487 0
49 -1275 5490 0
49 -1276 5491 0
49 -1277 5492 0
49 -1278 5493 0
49 -1279 5494 0
49 -1280 5495 0
49 -1281 5496 0
49 -1282 5497 0
49 -1283 5478 0
49 -1284 5479 0
49 -1285 5480 0
49 -1286 5482 0
49 -1287 5483 0
49 -1288 5484 0
49 -1289 5485 0
49 -1290 5486 0
49 -1291 5461 0
49 -1292 5494 0
49 -1293 5495 0
49 -1294 5496 0
49 -1295 5497 0
49 -1296 5498 0
49 -1297 5474 0
49 -1298 5483 0
49 -1299 5484 0
49 -1300 5485 0
49 -1301 5486 0
49 -1302 5487 0
49 -1303 5461 0
49 -1304 5474 0
49 -1305 5490 0
49 -1306 5495 0
49 -1307 5496 0
49 -1308 5497 0
49 -1309 5478 0
49 -1310 5484 0
49 -1311 5485 0
49 -1312 5486 0
49 -1313 5460 0
49 -1314 5473 0
49 -1315 5459 0
49 -1316 5472 0
49 -1317 5459 0
49 -1318 5472 0
49 -1319 5459 0
49 -1320 5472 0
49 -1321 5491 0
49 -1322 5494 0
49 -1323 5495 0
49 -1324 5496 0
49 -1325 5497 0
49 -1326 5498 0
49 -1327 5479 0
49 -1328 5483 0
49 -1329 5484 0
49 -1330 5485 0
49 -1331 5486 0
49 -1332 5487 0
49 -1333 5462 0
49 -1334 5475 0
49 -1335 5461 0
49 -1336 5474 0
49 -1337 5488 0
49 -1338 5476 0
49 -1339 5463 0
49 -1340 5481 0
49 -1341 5491 0
49 -1342 5492 0
49 -1343 5493 0
49 -1344 5494 0
49 -1345 5495 0
49 -1346 5496 0
49 -1347 5497 0
49 -1348 5498 0
49 -1349 5479 0
49 -1350 5480 0
49 -1351 5482 0
49 -1352 5483 0
49 -1353 5484 0
49 -1354 5485 0
49 -1355 5486 0
49 -1356 5487 0
49 -1357 5463 0
49 -1358 5481 0
49 -1359 5463 0
49 -1360 5481 0
49 -1361 5461 0
49 -1362 5474 0
49 -1363 5461 0
49 -1364 5474 0
49 -1365 5460 0
49 -1366 5496 0
49 -1367 5497 0
49 -1368 5473 0
49 -1369 5485 0
49 -1370 5486 0
49 -1371 5461 0
49 -1372 5487 0
49 -1373 5488 0
49 -1374 5489 0
49 -1375 5490 0
49 -1376 5491 0
49 -1377 5492 0
49 -1378 5493 0
49 -1379 5496 0
49 -1380 5497 0
49 -1381 5498 0
49 -1382 5474 0
49 -1383 5476 0
49 -1384 5477 0
49 -1385 5478 0
49 -1386 5479 0
49 -1387 5480 0
49 -1388 5482 0
49 -1389 5485 0
49 -1390 5486 0
49 -1391 5487 0
49 -1392 5498 0
49 -1393 5458 0
49 -1394 5471 0
49 -1395 5455 0
49 -1396 5486 0
49 -1397 5487 0
49 -1398 5488 0
49 -1399 5489 0
49 -1400 5490 0
49 -1401 5491 0
49 -1402 5492 0
49 -1403 5493 0
49 -1404 5494 0
49 -1405 5495 0
49 -1406 5496 0
49 -1407 5497 0
49 -1408 5498 0
49 -1409 5468 0
49 -1410 5476 0
49 -1411 5477 0
49 -1412 5478 0
49 -1413 5479 0
49 -1414 5480 0
49 -1415 5482 0
49 -1416 5483 0
49 -1417 5484 0
49 -1418 5485 0
49 -1419 5486 0
49 -1420 5487 0
49 -1421 5497 0
49 -1422 5498 0
49 -1423 5457 0
49 -1424 5470 0
49 -1425 5460 0
49 -1426 5473 0
49 -1427 5460 0
49 -1428 5473 0
49 -1429 5455 0
49 -1430 5495 0
49 -1431 5496 0
49 -1432 5497 0
49 -1433 5498 0
49 -1434 5468 0
49 -1435 5484 0
49 -1436 5485 0
49 -1437 5486 0
49 -1438 5487 0
49 -1439 5461 0
49 -1440 5474 0
49 -1441 5457 0
49 -1442 5470 0
49 -1443 5491 0
49 -1444 5494 0
49 -1445 5495 0
49 -1446 5496 0
49 -1447 5497 0
49 -1448 5498 0
49 -1449 5479 0
49 -1450 5483 0
49 -1451 5484 0
49 -1452 5485 0
49 -1453 5486 0
49 -1454 5487 0
49 -1455 5454 0
49 -1456 5455 0
49 -1457 5456 0
49 -1458 5457 0
49 -1459 5458 0
49 -1460 5459 0
49 -1461 5460 0
49 -1462 5467 0
49 -1463 5468 0
49 -1464 5469 0
49 -1465 5470 0
49 -1466 5471 0
49 -1467 5472 0
49 -1468 5473 0
49 -1469 5459 0
49 -1470 5472 0
49 -1471 5455 0
49 -1472 5468 0
49 -1473 5491 0
49 -1474 5492 0
49 -1475 5493 0
49 -1476 5494 0
49 -1477 5495 0
49 -1478 5496 0
49 -1479 5497 0
49 -1480 5498 0
49 -1481 5479 0
49 -1482 5480 0
49 -1483 5482 0
49 -1484 5483 0
49 -1485 5484 0
49 -1486 5485 0
49 -1487 5486 0
49 -1488 5487 0
49 -1489 5491 0
49 -1490 5492 0
49 -1491 5493 0
49 -1492 5494 0
49 -1493 5495 0
49 -1494 5496 0
49 -1495 5497 0
49 -1496 5498 0
49 -1497 5479 0
49 -1498 5480 0
49 -1499 5482 0
49 -1500 5483 0
49 -1501 5484 0
49 -1502 5485 0
49 -1503 5486 0
49 -1504 5487 0
49 -1505 5488 0
49 -1506 5476 0
49 -1507 5489 0
49 -1508 5490 0
49 -1509 5491 0
49 -1510 5492 0
49 -1511 5493 0
49 -1512 5494 0
49 -1513 5495 0
49 -1514 5496 0
49 -1515 5497 0
49 -1516 5498 0
49 -1517 5477 0
49 -1518 5478 0
49 -1519 5479 0
49 -1520 5480 0
49 -1521 5482 0
49 -1522 5483 0
49 -1523 5484 0
49 -1524 5485 0
49 -1525 5486 0
49 -1526 5487 0
49 -1527 5452 0
49 -1528 5453 0
49 -1529 5454 0
49 -1530 5455 0
49 -1531 5456 0
49 -1532 5457 0
49 -1533 5473 0
49 -1534 5477 0
49 -1535 5478 0
49 -1536 5479 0
49 -1537 5480 0
49 -1538 5482 0
49 -1539 5483 0
49 -1540 5484 0
49 -1541 5485 0
49 -1542 5486 0
49 -1543 5494 0
49 -1544 5495 0
49 -1545 5496 0
49 -1546 5497 0
49 -1547 5460 0
49 -1548 5465 0
49 -1549 5466 0
49 -1550 5467 0
49 -1551 5468 0
49 -1552 5469 0
49 -1553 5470 0
49 -1554 5483 0
49 -1555 5484 0
49 -1556 5485 0
49 -1557 5486 0
49 -1558 5489 0
49 -1559 5490 0
49 -1560 5491 0
49 -1561 5492 0
49 -1562 5493 0
49 -1563 5494 0
49 -1564 5495 0
49 -1565 5496 0
49 -1566 5497 0
49 -1567 5491 0
49 -1568 5492 0
49 -1569 5493 0
49 -1570 5494 0
49 -1571 5495 0
49 -1572 5496 0
49 -1573 5497 0
49 -1574 5498 0
49 -1575 5479 0
49 -1576 5480 0
49 -1577 5482 0
49 -1578 5483 0
49 -1579 5484 0
49 -1580 5485 0
49 -1581 5486 0
49 -1582 5487 0
49 -1583 5488 0
49 -1584 5489 0
49 -1585 5490 0
49 -1586 5491 0
49 -1587 5492 0
49 -1588 5493 0
49 -1589 5494 0
49 -1590 5495 0
49 -1591 5476 0
49 -1592 5477 0
49 -1593 5478 0
49 -1594 5479 0
49 -1595 5480 0
49 -1596 5482 0
49 -1597 5483 0
49 -1598 5484 0
49 -1599 5458 0
49 -1600 5471 0
49 -1601 5491 0
49 -1602 5494 0
49 -1603 5495 0
49 -1604 5496 0
49 -1605 5497 0
49 -1606 5498 0
49 -1607 5479 0
49 -1608 5483 0
49 -1609 5484 0
49 -1610 5485 0
49 -1611 5486 0
49 -1612 5487 0
49 -1613 5460 0
49 -1614 5473 0
49 -1615 5488 0
49 -1616 5489 0
49 -1617 5490 0
49 -1618 5491 0
49 -1619 5492 0
49 -1620 5493 0
49 -1621 5494 0
49 -1622 5495 0
49 -1623 5476 0
49 -1624 5477 0
49 -1625 5478 0
49 -1626 5479 0
49 -1627 5480 0
49 -1628 5482 0
49 -1629 5483 0
49 -1630 5484 0
49 -1631 5462 0
49 -1632 5475 0
49 -1633 5461 0
49 -1634 5474 0
49 -1635 5489 0
49 -1636 5477 0
49 -1637 5458 0
49 -1638 5471 0
49 -1639 5490 0
49 -1640 5478 0
49 -1641 5451 0
49 -1642 5452 0
49 -1643 5458 0
49 -1644 5488 0
49 -1645 5489 0
49 -1646 5490 0
49 -1647 5464 0
49 -1648 5465 0
49 -1649 5471 0
49 -1650 5476 0
49 -1651 5477 0
49 -1652 5478 0
49 -1653 5457 0
49 -1654 5470 0
49 -1655 5490 0
49 -1656 5491 0
49 -1657 5492 0
49 -1658 5493 0
49 -1659 5494 0
49 -1660 5495 0
49 -1661 5496 0
49 -1662 5497 0
49 -1663 5478 0
49 -1664 5479 0
49 -1665 5480 0
49 -1666 5482 0
49 -1667 5483 0
49 -1668 5484 0
49 -1669 5485 0
49 -1670 5486 0
49 -1671 5456 0
49 -1672 5469 0
49 -1673 5489 0
49 -1674 5496 0
49 -1675 5477 0
49 -1676 5485 0
49 -1677 5491 0
49 -1678 5492 0
49 -1679 5493 0
49 -1680 5494 0
49 -1681 5495 0
49 -1682 5496 0
49 -1683 5497 0
49 -1684 5498 0
49 -1685 5479 0
49 -1686 5480 0
49 -1687 5482 0
49 -1688 5483 0
49 -1689 5484 0
49 -1690 5485 0
49 -1691 5486 0
49 -1692 5487 0
49 -1693 5460 0
49 -1694 5473 0
49 -1695 5458 0
49 -1696 5471 0
49 -1697 5460 0
49 -1698 5497 0
49 -1699 5473 0
49 -1700 5486 0
49 -1701 5490 0
49 -1702 5491 0
49 -1703 5492 0
49 -1704 5493 0
49 -1705 5494 0
49 -1706 5495 0
49 -1707 5496 0
49 -1708 5497 0
49 -1709 5478 0
49 -1710 5479 0
49 -1711 5480 0
49 -1712 5482 0
49 -1713 5483 0
49 -1714 5484 0
49 -1715 5485 0
49 -1716 5486 0
49 -1717 5455 0
49 -1718 5468 0
49 -1719 5457 0
49 -1720 5470 0
49 -1721 5491 0
49 -1722 5479 0
49 -1723 5463 0
49 -1724 5481 0
49 -1725 5463 0
49 -1726 5481 0
49 -1727 5462 0
49 -1728 5475 0
49 -1729 5489 0
49 -1730 5490 0
49 -1731 5491 0
49 -1732 5492 0
49 -1733 5493 0
49 -1734 5494 0
49 -1735 5495 0
49 -1736 5496 0
49 -1737 5477 0
49 -1738 5478 0
49 -1739 5479 0
49 -1740 5480 0
49 -1741 5482 0
49 -1742 5483 0
49 -1743 5484 0
49 -1744 5485 0
49 -1745 5462 0
49 -1746 5475 0
49 -1747 5456 0
49 -1748 5469 0
49 -1749 5489 0
49 -1750 5490 0
49 -1751 5491 0
49 -1752 5492 0
49 -1753 5493 0
49 -1754 5494 0
49 -1755 5495 0
49 -1756 5496 0
49 -1757 5477 0
49 -1758 5478 0
49 -1759 5479 0
49 -1760 5480 0
49 -1761 5482 0
49 -1762 5483 0
49 -1763 5484 0
49 -1764 5485 0
49 -1765 5460 0
49 -1766 5473 0
49 -1767 5460 0
49 -1768 5473 0
49 -1769 5460 0
49 -1770 5462 0
49 -1771 5473 0
49 -1772 5475 0
49 -1773 5463 0
49 -1774 5481 0
49 -1775 5460 0
49 -1776 5473 0
49 -1777 5452 0
49 -1778 5453 0
49 -1779 5457 0
49 -1780 5459 0
49 -1781 5460 0
49 -1782 5465 0
49 -1783 5466 0
49 -1784 5486 0
49 -1785 5489 0
49 -1786 5452 0
49 -1787 5453 0
49 -1788 5465 0
49 -1789 5466 0
49 -1790 5470 0
49 -1791 5472 0
49 -1792 5473 0
49 -1793 5477 0
49 -1794 5497 0
49 -1795 5451 0
49 -1796 5452 0
49 -1797 5453 0
49 -1798 5454 0
49 -1799 5458 0
49 -1800 5464 0
49 -1801 5465 0
49 -1802 5466 0
49 -1803 5467 0
49 -1804 5471 0
49 -1805 5463 0
49 -1806 5473 0
49 -1807 5460 0
49 -1808 5481 0
49 -1809 5459 0
49 -1810 5472 0
49 -1811 5462 0
49 -1812 5475 0
49 -1813 5457 0
49 -1814 5470 0
49 -1815 5463 0
49 -1816 5481 0
49 -1817 5488 0
49 -1818 5489 0
49 -1819 5490 0
49 -1820 5491 0
49 -1821 5492 0
49 -1822 5493 0
49 -1823 5494 0
49 -1824 5495 0
49 -1825 5496 0
49 -1826 5497 0
49 -1827 5498 0
49 -1828 5476 0
49 -1829 5477 0
49 -1830 5478 0
49 -1831 5479 0
49 -1832 5480 0
49 -1833 5482 0
49 -1834 5483 0
49 -1835 5484 0
49 -1836 5485 0
49 -1837 5486 0
49 -1838 5487 0
49 -1839 5490 0
49 -1840 5478 0
49 -1841 5491 0
49 -1842 5479 0
49 -1843 5456 0
49 -1844 5469 0
49 -1845 5456 0
49 -1846 5469 0
49 -1847 5458 0
49 -1848 5471 0
49 -1849 5491 0
49 -1850 5492 0
49 -1851 5493 0
49 -1852 5494 0
49 -1853 5495 0
49 -1854 5496 0
49 -1855 5497 0
49 -1856 5498 0
49 -1857 5479 0
49 -1858 5480 0
49 -1859 5482 0
49 -1860 5483 0
49 -1861 5484 0
49 -1862 5485 0
49 -1863 5486 0
49 -1864 5487 0
49 -1865 5456 0
49 -1866 5469 0
49 -1867 5488 0
49 -1868 5497 0
49 -1869 5498 0
49 -1870 5476 0
49 -1871 5486 0
49 -1872 5487 0
49 -1873 5462 0
49 -1874 5475 0
49 -1875 5455 0
49 -1876 5468 0
49 -1877 5462 0
49 -1878 5475 0
49 -1879 5459 0
49 -1880 5472 0
49 -1881 5489 0
49 -1882 5497 0
49 -1883 5498 0
49 -1884 5477 0
49 -1885 5486 0
49 -1886 5487 0
49 -1887 5490 0
49 -1888 5478 0
49 -1889 5461 0
49 -1890 5474 0
49 -1891 5462 0
49 -1892 5475 0
49 -1893 5491 0
49 -1894 5479 0
49 -1895 5463 0
49 -1896 5481 0
49 -1897 5459 0
49 -1898 5472 0
49 -1899 5462 0
49 -1900 5475 0
49 -1901 5455 0
49 -1902 5468 0
49 -1903 5457 0
49 -1904 5470 0
49 -1905 5463 0
49 -1906 5481 0
49 -1907 5455 0
49 -1908 5468 0
49 -1909 5459 0
49 -1910 5489 0
49 -1911 5490 0
49 -1912 5491 0
49 -1913 5492 0
49 -1914 5493 0
49 -1915 5494 0
49 -1916 5495 0
49 -1917 5496 0
49 -1918 5497 0
49 -1919 5498 0
49 -1920 5472 0
49 -1921 5477 0
49 -1922 5478 0
49 -1923 5479 0
49 -1924 5480 0
49 -1925 5482 0
49 -1926 5483 0
49 -1927 5484 0
49 -1928 5485 0
49 -1929 5486 0
49 -1930 5487 0
49 -1931 5488 0
49 -1932 5476 0
49 -1933 5456 0
49 -1934 5469 0
49 -1935 5461 0
49 -1936 5474 0
49 -1937 5462 0
49 -1938 5475 0
49 -1939 5455 0
49 -1940 5468 0
49 -1941 5456 0
49 -1942 5469 0
49 -1943 5491 0
49 -1944 5495 0
49 -1945 5496 0
49 -1946 5497 0
49 -1947 5498 0
49 -1948 5479 0
49 -1949 5484 0
49 -1950 5485 0
49 -1951 5486 0
49 -1952 5487 0
49 -1953 5490 0
49 -1954 5491 0
49 -1955 5492 0
49 -1956 5493 0
49 -1957 5494 0
49 -1958 5495 0
49 -1959 5496 0
49 -1960 5497 0
49 -1961 5478 0
49 -1962 5479 0
49 -1963 5480 0
49 -1964 5482 0
49 -1965 5483 0
49 -1966 5484 0
49 -1967 5485 0
49 -1968 5486 0
49 -1969 5490 0
49 -1970 5495 0
49 -1971 5496 0
49 -1972 5478 0
49 -1973 5484 0
49 -1974 5485 0
49 -1975 5455 0
49 -1976 5468 0
49 -1977 5458 0
49 -1978 5471 0
49 -1979 5491 0
49 -1980 5492 0
49 -1981 5493 0
49 -1982 5494 0
49 -1983 5495 0
49 -1984 5496 0
49 -1985 5497 0
49 -1986 5498 0
49 -1987 5479 0
49 -1988 5480 0
49 -1989 5482 0
49 -1990 5483 0
49 -1991 5484 0
49 -1992 5485 0
49 -1993 5486 0
49 -1994 5487 0
49 -1995 5463 0
49 -1996 5481 0
49 -1997 5451 0
49 -1998 5452 0
49 -1999 5453 0
49 -2000 5488 0
49 -2001 5489 0
49 -2002 5490 0
49 -2003 5491 0
49 -2004 5492 0
49 -2005 5493 0
49 -2006 5494 0
49 -2007 5495 0
49 -2008 5496 0
49 -2009 5497 0
49 -2010 5498 0
49 -2011 5464 0
49 -2012 5465 0
49 -2013 5466 0
49 -2014 5476 0
49 -2015 5477 0
49 -2016 5478 0
49 -2017 5479 0
49 -2018 5480 0
49 -2019 5482 0
49 -2020 5483 0
49 -2021 5484 0
49 -2022 5485 0
49 -2023 5486 0
49 -2024 5487 0
49 -2025 5462 0
49 -2026 5475 0
49 -2027 5488 0
49 -2028 5489 0
49 -2029 5490 0
49 -2030 5491 0
49 -2031 5492 0
49 -2032 5493 0
49 -2033 5494 0
49 -2034 5495 0
49 -2035 5476 0
49 -2036 5477 0
49 -2037 5478 0
49 -2038 5479 0
49 -2039 5480 0
49 -2040 5482 0
49 -2041 5483 0
49 -2042 5484 0
49 -2043 5456 0
49 -2044 5469 0
49 -2045 5452 0
49 -2046 5453 0
49 -2047 5454 0
49 -2048 5455 0
49 -2049 5465 0
49 -2050 5466 0
49 -2051 5467 0
49 -2052 5468 0
49 -2053 5463 0
49 -2054 5481 0
49 -2055 5461 0
49 -2056 5474 0
49 -2057 5460 0
49 -2058 5473 0
49 -2059 5460 0
49 -2060 5473 0
49 -2061 5455 0
49 -2062 5468 0
49 -2063 5456 0
49 -2064 5469 0
49 -2065 5460 0
49 -2066 5490 0
49 -2067 5491 0
49 -2068 5492 0
49 -2069 5493 0
49 -2070 5494 0
49 -2071 5495 0
49 -2072 5496 0
49 -2073 5497 0
49 -2074 5473 0
49 -2075 5478 0
49 -2076 5479 0
49 -2077 5480 0
49 -2078 5482 0
49 -2079 5483 0
49 -2080 5484 0
49 -2081 5485 0
49 -2082 5486 0
49 -2083 5460 0
49 -2084 5473 0
49 -2085 5459 0
49 -2086 5472 0
49 -2087 5488 0
49 -2088 5489 0
49 -2089 5490 0
49 -2090 5491 0
49 -2091 5492 0
49 -2092 5493 0
49 -2093 5494 0
49 -2094 5495 0
49 -2095 5476 0
49 -2096 5477 0
49 -2097 5478 0
49 -2098 5479 0
49 -2099 5480 0
49 -2100 5482 0
49 -2101 5483 0
49 -2102 5484 0
49 -2103 5455 0
49 -2104 5468 0
49 -2105 5455 0
49 -2106 5468 0
49 -2107 5462 0
49 -2108 5475 0
49 -2109 5455 0
49 -2110 5468 0
49 -2111 5456 0
49 -2112 5490 0
49 -2113 5491 0
49 -2114 5495 0
49 -2115 5496 0
49 -2116 5497 0
49 -2117 5498 0
49 -2118 5469 0
49 -2119 5478 0
49 -2120 5479 0
49 -2121 5484 0
49 -2122 5485 0
49 -2123 5486 0
49 -2124 5487 0
49 -2125 5490 0
49 -2126 5495 0
49 -2127 5496 0
49 -2128 5497 0
49 -2129 5478 0
49 -2130 5484 0
49 -2131 5485 0
49 -2132 5486 0
49 -2133 5491 0
49 -2134 5492 0
49 -2135 5493 0
49 -2136 5494 0
49 -2137 5495 0
49 -2138 5496 0
49 -2139 5497 0
49 -2140 5498 0
49 -2141 5479 0
49 -2142 5480 0
49 -2143 5482 0
49 -2144 5483 0
49 -2145 5484 0
49 -2146 5485 0
49 -2147 5486 0
49 -2148 5487 0
49 -2149 5455 0
49 -2150 5468 0
49 -2151 5488 0
49 -2152 5476 0
49 -2153 5459 0
49 -2154 5472 0
49 -2155 5458 0
49 -2156 5471 0
49 -2157 5460 0
49 -2158 5473 0
49 -2159 5456 0
49 -2160 5469 0
49 -2161 5458 0
49 -2162 5471 0
49 -2163 5489 0
49 -2164 5490 0
49 -2165 5491 0
49 -2166 5492 0
49 -2167 5493 0
49 -2168 5494 0
49 -2169 5495 0
49 -2170 5496 0
49 -2171 5477 0
49 -2172 5478 0
49 -2173 5479 0
49 -2174 5480 0
49 -2175 5482 0
49 -2176 5483 0
49 -2177 5484 0
49 -2178 5485 0
49 -2179 5462 0
49 -2180 5475 0
49 -2181 5491 0
49 -2182 5479 0
49 -2183 5490 0
49 -2184 5496 0
49 -2185 5497 0
49 -2186 5478 0
49 -2187 5485 0
49 -2188 5486 0
49 -2189 5461 0
49 -2190 5474 0
49 -2191 5455 0
49 -2192 5468 0
49 -2193 5462 0
49 -2194 5475 0
49 -2195 5461 0
49 -2196 5474 0
49 -2197 5451 0
49 -2198 5452 0
49 -2199 5453 0
49 -2200 5454 0
49 -2201 5455 0
49 -2202 5461 0
49 -2203 5464 0
49 -2204 5465 0
49 -2205 5466 0
49 -2206 5467 0
49 -2207 5468 0
49 -2208 5474 0
49 -2209 5456 0
49 -2210 5469 0
49 -2211 5459 0
49 -2212 5472 0
49 -2213 5463 0
49 -2214 5481 0
49 -2215 5490 0
49 -2216 5491 0
49 -2217 5492 0
49 -2218 5493 0
49 -2219 5494 0
49 -2220 5495 0
49 -2221 5496 0
49 -2222 5497 0
49 -2223 5478 0
49 -2224 5479 0
49 -2225 5480 0
49 -2226 5482 0
49 -2227 5483 0
49 -2228 5484 0
49 -2229 5485 0
49 -2230 5486 0
49 -2231 5459 0
49 -2232 5472 0
49 -2233 5463 0
49 -2234 5481 0
49 -2235 5461 0
49 -2236 5474 0
49 -2237 5488 0
49 -2238 5489 0
49 -2239 5490 0
49 -2240 5491 0
49 -2241 5492 0
49 -2242 5493 0
49 -2243 5494 0
49 -2244 5495 0
49 -2245 5476 0
49 -2246 5477 0
49 -2247 5478 0
49 -2248 5479 0
49 -2249 5480 0
49 -2250 5482 0
49 -2251 5483 0
49 -2252 5484 0
49 -2253 5460 0
49 -2254 5473 0
49 -2255 5460 0
49 -2256 5473 0
49 -2257 5460 0
49 -2258 5473 0
49 -2259 5459 0
49 -2260 5472 0
49 -2261 5459 0
49 -2262 5472 0
49 -2263 5489 0
49 -2264 5490 0
49 -2265 5491 0
49 -2266 5492 0
49 -2267 5493 0
49 -2268 5494 0
49 -2269 5495 0
49 -2270 5496 0
49 -2271 5477 0
49 -2272 5478 0
49 -2273 5479 0
49 -2274 5480 0
49 -2275 5482 0
49 -2276 5483 0
49 -2277 5484 0
49 -2278 5485 0
49 -2279 5488 0
49 -2280 5498 0
49 -2281 5476 0
49 -2282 5487 0
49 -2283 5458 0
49 -2284 5471 0
49 -2285 5491 0
49 -2286 5479 0
49 -2287 5457 0
49 -2288 5470 0
49 -2289 5459 0
49 -2290 5472 0
49 -2291 5463 0
49 -2292 5481 0
49 -2293 5488 0
49 -2294 5476 0
49 -2295 5452 0
49 -2296 5453 0
49 -2297 5454 0
49 -2298 5455 0
49 -2299 5456 0
49 -2300 5457 0
49 -2301 5458 0
49 -2302 5459 0
49 -2303 5498 0
49 -2304 5465 0
49 -2305 5466 0
49 -2306 5467 0
49 -2307 5468 0
49 -2308 5469 0
49 -2309 5470 0
49 -2310 5471 0
49 -2311 5472 0
49 -2312 5487 0
49 -2313 5455 0
49 -2314 5468 0
49 -2315 5457 0
49 -2316 5470 0
49 -2317 5491 0
49 -2318 5492 0
49 -2319 5493 0
49 -2320 5494 0
49 -2321 5495 0
49 -2322 5496 0
49 -2323 5497 0
49 -2324 5498 0
49 -2325 5479 0
49 -2326 5480 0
49 -2327 5482 0
49 -2328 5483 0
49 -2329 5484 0
49 -2330 5485 0
49 -2331 5486 0
49 -2332 5487 0
49 -2333 5462 0
49 -2334 5475 0
49 -2335 5491 0
49 -2336 5492 0
49 -2337 5493 0
49 -2338 5494 0
49 -2339 5495 0
49 -2340 5496 0
49 -2341 5497 0
49 -2342 5498 0
49 -2343 5479 0
49 -2344 5480 0
49 -2345 5482 0
49 -2346 5483 0
49 -2347 5484 0
49 -2348 5485 0
49 -2349 5486 0
49 -2350 5487 0
49 -2351 5455 0
49 -2352 5468 0
49 -2353 5460 0
49 -2354 5473 0
49 -2355 5455 0
49 -2356 5468 0
49 -2357 5491 0
49 -2358 5492 0
49 -2359 5493 0
49 -2360 5494 0
49 -2361 5495 0
49 -2362 5496 0
49 -2363 5497 0
49 -2364 5498 0
49 -2365 5479 0
49 -2366 5480 0
49 -2367 5482 0
49 -2368 5483 0
49 -2369 5484 0
49 -2370 5485 0
49 -2371 5486 0
49 -2372 5487 0
49 -2373 5488 0
49 -2374 5476 0
49 -2375 5461 0
49 -2376 5474 0
49 -2377 5490 0
49 -2378 5491 0
49 -2379 5492 0
49 -2380 5493 0
49 -2381 5494 0
49 -2382 5495 0
49 -2383 5496 0
49 -2384 5497 0
49 -2385 5478 0
49 -2386 5479 0
49 -2387 5480 0
49 -2388 5482 0
49 -2389 5483 0
49 -2390 5484 0
49 -2391 5485 0
49 -2392 5486 0
49 -2393 5456 0
49 -2394 5469 0
49 -2395 5463 0
49 -2396 5481 0
49 -2397 5491 0
49 -2398 5494 0
49 -2399 5495 0
49 -2400 5496 0
49 -2401 5497 0
49 -2402 5498 0
49 -2403 5479 0
49 -2404 5483 0
49 -2405 5484 0
49 -2406 5485 0
49 -2407 5486 0
49 -2408 5487 0
49 -2409 5455 0
49 -2410 5468 0
49 -2411 5489 0
49 -2412 5477 0
49 -2413 5462 0
49 -2414 5475 0
49 -2415 5491 0
49 -2416 5492 0
49 -2417 5493 0
49 -2418 5494 0
49 -2419 5495 0
49 -2420 5496 0
49 -2421 5497 0
49 -2422 5498 0
49 -2423 5479 0
49 -2424 5480 0
49 -2425 5482 0
49 -2426 5483 0
49 -2427 5484 0
49 -2428 5485 0
49 -2429 5486 0
49 -2430 5487 0
49 -2431 5488 0
49 -2432 5476 0
49 -2433 5452 0
49 -2434 5453 0
49 -2435 5454 0
49 -2436 5455 0
49 -2437 5465 0
49 -2438 5466 0
49 -2439 5467 0
49 -2440 5468 0
49 -2441 5461 0
49 -2442 5474 0
49 -2443 5458 0
49 -2444 5471 0
49 -2445 5456 0
49 -2446 5469 0
49 -2447 5463 0
49 -2448 5481 0
49 -2449 5490 0
49 -2450 5491 0
49 -2451 5492 0
49 -2452 5493 0
49 -2453 5494 0
49 -2454 5495 0
49 -2455 5496 0
49 -2456 5497 0
49 -2457 5478 0
49 -2458 5479 0
49 -2459 5480 0
49 -2460 5482 0
49 -2461 5483 0
49 -2462 5484 0
49 -2463 5485 0
49 -2464 5486 0
49 -2465 5456 0
49 -2466 5469 0
49 -2467 5458 0
49 -2468 5471 0
49 -2469 5452 0
49 -2470 5460 0
49 -2471 5465 0
49 -2472 5473 0
49 -2473 5491 0
49 -2474 5492 0
49 -2475 5493 0
49 -2476 5494 0
49 -2477 5495 0
49 -2478 5496 0
49 -2479 5497 0
49 -2480 5498 0
49 -2481 5479 0
49 -2482 5480 0
49 -2483 5482 0
49 -2484 5483 0
49 -2485 5484 0
49 -2486 5485 0
49 -2487 5486 0
49 -2488 5487 0
49 -2489 5488 0
49 -2490 5489 0
49 -2491 5490 0
49 -2492 5491 0
49 -2493 5492 0
49 -2494 5493 0
49 -2495 5494 0
49 -2496 5495 0
49 -2497 5496 0
49 -2498 5497 0
49 -2499 5498 0
49 -2500 5476 0
49 -2501 5477 0
49 -2502 5478 0
49 -2503 5479 0
49 -2504 5480 0
49 -2505 5482 0
49 -2506 5483 0
49 -2507 5484 0
49 -2508 5485 0
49 -2509 5486 0
49 -2510 5487 0
49 -2511 5461 0
49 -2512 5474 0
49 -2513 5456 0
49 -2514 5469 0
49 -2515 5490 0
49 -2516 5478 0
49 -2517 5489 0
49 -2518 5490 0
49 -2519 5491 0
49 -2520 5492 0
49 -2521 5493 0
49 -2522 5494 0
49 -2523 5495 0
49 -2524 5496 0
49 -2525 5477 0
49 -2526 5478 0
49 -2527 5479 0
49 -2528 5480 0
49 -2529 5482 0
49 -2530 5483 0
49 -2531 5484 0
49 -2532 5485 0
49 -2533 5463 0
49 -2534 5481 0
49 -2535 5459 0
49 -2536 5472 0
49 -2537 5452 0
49 -2538 5453 0
49 -2539 5454 0
49 -2540 5455 0
49 -2541 5465 0
49 -2542 5466 0
49 -2543 5467 0
49 -2544 5468 0
49 -2545 5491 0
49 -2546 5479 0
49 -2547 5451 0
49 -2548 5452 0
49 -2549 5458 0
49 -2550 5464 0
49 -2551 5465 0
49 -2552 5471 0
49 -2553 5455 0
49 -2554 5468 0
49 -2555 5458 0
49 -2556 5471 0
49 -2557 5458 0
49 -2558 5471 0
49 -2559 5489 0
49 -2560 5490 0
49 -2561 5491 0
49 -2562 5492 0
49 -2563 5493 0
49 -2564 5494 0
49 -2565 5495 0
49 -2566 5496 0
49 -2567 5477 0
49 -2568 5478 0
49 -2569 5479 0
49 -2570 5480 0
49 -2571 5482 0
49 -2572 5483 0
49 -2573 5484 0
49 -2574 5485 0
49 -2575 5456 0
49 -2576 5469 0
49 -2577 5460 0
49 -2578 5473 0
49 -2579 5457 0
49 -2580 5470 0
49 -2581 5462 0
49 -2582 5475 0
49 -2583 5456 0
49 -2584 5469 0
49 -2585 5461 0
49 -2586 5474 0
49 -2587 5488 0
49 -2588 5489 0
49 -2589 5490 0
49 -2590 5491 0
49 -2591 5492 0
49 -2592 5493 0
49 -2593 5494 0
49 -2594 5495 0
49 -2595 5476 0
49 -2596 5477 0
49 -2597 5478 0
49 -2598 5479 0
49 -2599 5480 0
49 -2600 5482 0
49 -2601 5483 0
49 -2602 5484 0
49 -2603 5459 0
49 -2604 5472 0
49 -2605 5455 0
49 -2606 5468 0
49 -2607 5489 0
49 -2608 5490 0
49 -2609 5491 0
49 -2610 5492 0
49 -2611 5493 0
49 -2612 5494 0
49 -2613 5495 0
49 -2614 5496 0
49 -2615 5497 0
49 -2616 5498 0
49 -2617 5477 0
49 -2618 5478 0
49 -2619 5479 0
49 -2620 5480 0
49 -2621 5482 0
49 -2622 5483 0
49 -2623 5484 0
49 -2624 5485 0
49 -2625 5486 0
49 -2626 5487 0
49 -2627 5490 0
49 -2628 5491 0
49 -2629 5492 0
49 -2630 5493 0
49 -2631 5494 0
49 -2632 5495 0
49 -2633 5496 0
49 -2634 5497 0
49 -2635 5478 0
49 -2636 5479 0
49 -2637 5480 0
49 -2638 5482 0
49 -2639 5483 0
49 -2640 5484 0
49 -2641 5485 0
49 -2642 5486 0
49 -2643 5489 0
49 -2644 5490 0
49 -2645 5491 0
49 -2646 5492 0
49 -2647 5493 0
49 -2648 5494 0
49 -2649 5495 0
49 -2650 5496 0
49 -2651 5477 0
49 -2652 5478 0
49 -2653 5479 0
49 -2654 5480 0
49 -2655 5482 0
49 -2656 5483 0
49 -2657 5484 0
49 -2658 5485 0
49 -2659 5455 0
49 -2660 5468 0
49 -2661 5455 0
49 -2662 5468 0
49 -2663 5458 0
49 -2664 5471 0
49 -2665 5461 0
49 -2666 5464 0
49 -2667 5465 0
49 -2668 5466 0
49 -2669 5467 0
49 -2670 5468 0
49 -2671 5469 0
49 -2672 5470 0
49 -2673 5471 0
49 -2674 5472 0
49 -2675 5473 0
49 -2676 5474 0
49 -2677 5451 0
49 -2678 5452 0
49 -2679 5453 0
49 -2680 5454 0
49 -2681 5455 0
49 -2682 5456 0
49 -2683 5457 0
49 -2684 5458 0
49 -2685 5459 0
49 -2686 5460 0
49 -2687 5461 0
49 -2688 5474 0
49 -2689 5488 0
49 -2690 5489 0
49 -2691 5490 0
49 -2692 5491 0
49 -2693 5492 0
49 -2694 5493 0
49 -2695 5494 0
49 -2696 5495 0
49 -2697 5476 0
49 -2698 5477 0
49 -2699 5478 0
49 -2700 5479 0
49 -2701 5480 0
49 -2702 5482 0
49 -2703 5483 0
49 -2704 5484 0
49 -2705 5490 0
49 -2706 5478 0
49 -2707 5459 0
49 -2708 5460 0
49 -2709 5461 0
49 -2710 5488 0
49 -2711 5489 0
49 -2712 5490 0
49 -2713 5491 0
49 -2714 5472 0
49 -2715 5473 0
49 -2716 5474 0
49 -2717 5476 0
49 -2718 5477 0
49 -2719 5478 0
49 -2720 5479 0
49 -2721 5455 0
49 -2722 5468 0
49 -2723 5459 0
49 -2724 5472 0
49 -2725 5462 0
49 -2726 5475 0
49 -2727 5491 0
49 -2728 5492 0
49 -2729 5493 0
49 -2730 5494 0
49 -2731 5495 0
49 -2732 5496 0
49 -2733 5497 0
49 -2734 5498 0
49 -2735 5479 0
49 -2736 5480 0
49 -2737 5482 0
49 -2738 5483 0
49 -2739 5484 0
49 -2740 5485 0
49 -2741 5486 0
49 -2742 5487 0
49 -2743 5490 0
49 -2744 5491 0
49 -2745 5492 0
49 -2746 5493 0
49 -2747 5494 0
49 -2748 5495 0
49 -2749 5496 0
49 -2750 5497 0
49 -2751 5478 0
49 -2752 5479 0
49 -2753 5480 0
49 -2754 5482 0
49 -2755 5483 0
49 -2756 5484 0
49 -2757 5485 0
49 -2758 5486 0
49 -2759 5491 0
49 -2760 5495 0
49 -2761 5496 0
49 -2762 5497 0
49 -2763 5498 0
49 -2764 5479 0
49 -2765 5484 0
49 -2766 5485 0
49 -2767 5486 0
49 -2768 5487 0
49 -2769 5491 0
49 -2770 5479 0
49 -2771 5488 0
49 -2772 5476 0
49 -2773 5462 0
49 -2774 5475 0
49 -2775 5463 0
49 -2776 5481 0
49 -2777 5456 0
49 -2778 5469 0
49 -2779 5457 0
49 -2780 5470 0
49 -2781 5452 0
49 -2782 5453 0
49 -2783 5459 0
49 -2784 5465 0
49 -2785 5466 0
49 -2786 5472 0
49 -2787 5491 0
49 -2788 5479 0
49 -2789 5461 0
49 -2790 5474 0
49 -2791 5455 0
49 -2792 5468 0
49 -2793 5491 0
49 -2794 5492 0
49 -2795 5493 0
49 -2796 5494 0
49 -2797 5495 0
49 -2798 5496 0
49 -2799 5497 0
49 -2800 5498 0
49 -2801 5479 0
49 -2802 5480 0
49 -2803 5482 0
49 -2804 5483 0
49 -2805 5484 0
49 -2806 5485 0
49 -2807 5486 0
49 -2808 5487 0
49 -2809 5461 0
49 -2810 5474 0
49 -2811 5491 0
49 -2812 5492 0
49 -2813 5493 0
49 -2814 5494 0
49 -2815 5495 0
49 -2816 5496 0
49 -2817 5497 0
49 -2818 5498 0
49 -2819 5479 0
49 -2820 5480 0
49 -2821 5482 0
49 -2822 5483 0
49 -2823 5484 0
49 -2824 5485 0
49 -2825 5486 0
49 -2826 5487 0
49 -2827 5490 0
49 -2828 5491 0
49 -2829 5492 0
49 -2830 5493 0
49 -2831 5494 0
49 -2832 5495 0
49 -2833 5496 0
49 -2834 5497 0
49 -2835 5478 0
49 -2836 5479 0
49 -2837 5480 0
49 -2838 5482 0
49 -2839 5483 0
49 -2840 5484 0
49 -2841 5485 0
49 -2842 5486 0
49 -2843 5459 0
49 -2844 5472 0
49 -2845 5491 0
49 -2846 5494 0
49 -2847 5495 0
49 -2848 5496 0
49 -2849 5497 0
49 -2850 5498 0
49 -2851 5479 0
49 -2852 5483 0
49 -2853 5484 0
49 -2854 5485 0
49 -2855 5486 0
49 -2856 5487 0
49 -2857 5455 0
49 -2858 5468 0
49 -2859 5489 0
49 -2860 5490 0
49 -2861 5491 0
49 -2862 5492 0
49 -2863 5493 0
49 -2864 5494 0
49 -2865 5495 0
49 -2866 5496 0
49 -2867 5477 0
49 -2868 5478 0
49 -2869 5479 0
49 -2870 5480 0
49 -2871 5482 0
49 -2872 5483 0
49 -2873 5484 0
49 -2874 5485 0
49 -2875 5491 0
49 -2876 5494 0
49 -2877 5495 0
49 -2878 5496 0
49 -2879 5497 0
49 -2880 5498 0
49 -2881 5479 0
49 -2882 5483 0
49 -2883 5484 0
49 -2884 5485 0
49 -2885 5486 0
49 -2886 5487 0
