c Dataset: TUD200.2
c Encoding: DSE
c DecisionVars: 200
c OrderVars: 0
c CardinalityAuxVars: 0
c LabelVars: 48
c TotalVars: 248
c OrderClauses: 0
c CardinalityClauses: 200
c DistanceClauses: 100
c LabelLinkClauses: 200
c SoftClauses: 48
c HardClauses: 500
c TotalClauses: 548
p wcnf 248 548 49
1 -201 0
1 -202 0
1 -203 0
1 -204 0
1 -205 0
1 -206 0
1 -207 0
1 -208 0
1 -209 0
1 -210 0
1 -211 0
1 -212 0
1 -213 0
1 -214 0
1 -215 0
1 -216 0
1 -217 0
1 -218 0
1 -219 0
1 -220 0
1 -221 0
1 -222 0
1 -223 0
1 -224 0
1 -225 0
1 -226 0
1 -227 0
1 -228 0
1 -229 0
1 -230 0
1 -231 0
1 -232 0
1 -233 0
1 -234 0
1 -235 0
1 -236 0
1 -237 0
1 -238 0
1 -239 0
1 -240 0
1 -241 0
1 -242 0
1 -243 0
1 -244 0
1 -245 0
1 -246 0
1 -247 0
1 -248 0
49 1 0
49 2 0
49 3 0
49 4 0
49 5 0
49 6 0
49 7 0
49 8 0
49 9 0
49 10 0
49 11 0
49 12 0
49 13 0
49 14 0
49 15 0
49 16 0
49 17 0
49 18 0
49 19 0
49 20 0
49 21 0
49 22 0
49 23 0
49 24 0
49 25 0
49 26 0
49 27 0
49 28 0
49 29 0
49 30 0
49 31 0
49 32 0
49 33 0
49 34 0
49 35 0
49 36 0
49 37 0
49 38 0
49 39 0
49 40 0
49 41 0
49 42 0
49 43 0
49 44 0
49 45 0
49 46 0
49 47 0
49 48 0
49 49 0
49 50 0
49 51 0
49 52 0
49 53 0
49 54 0
49 55 0
49 56 0
49 57 0
49 58 0
49 59 0
49 60 0
49 61 0
49 62 0
49 63 0
49 64 0
49 65 0
49 66 0
49 67 0
49 68 0
49 69 0
49 70 0
49 71 0
49 72 0
49 73 0
49 74 0
49 75 0
49 76 0
49 77 0
49 78 0
49 79 0
49 80 0
49 81 0
49 82 0
49 83 0
49 84 0
49 85 0
49 86 0
49 87 0
49 88 0
49 89 0
49 90 0
49 91 0
49 92 0
49 93 0
49 94 0
49 95 0
49 96 0
49 97 0
49 98 0
49 99 0
49 100 0
49 101 0
49 102 0
49 103 0
49 104 0
49 105 0
49 106 0
49 107 0
49 108 0
49 109 0
49 110 0
49 111 0
49 112 0
49 113 0
49 114 0
49 115 0
49 116 0
49 117 0
49 118 0
49 119 0
49 120 0
49 121 0
49 122 0
49 123 0
49 124 0
49 125 0
49 126 0
49 127 0
49 128 0
49 129 0
49 130 0
49 131 0
49 132 0
49 133 0
49 134 0
49 135 0
49 136 0
49 137 0
49 138 0
49 139 0
49 140 0
49 141 0
49 142 0
49 143 0
49 144 0
49 145 0
49 146 0
49 147 0
49 148 0
49 149 0
49 150 0
49 151 0
49 152 0
49 153 0
49 154 0
49 155 0
49 156 0
49 157 0
49 158 0
49 159 0
49 160 0
49 161 0
49 162 0
49 163 0
49 164 0
49 165 0
49 166 0
49 167 0
49 168 0
49 169 0
49 170 0
49 171 0
49 172 0
49 173 0
49 174 0
49 175 0
49 176 0
49 177 0
49 178 0
49 179 0
49 180 0
49 181 0
49 182 0
49 183 0
49 184 0
49 185 0
49 186 0
49 187 0
49 188 0
49 189 0
49 190 0
49 191 0
49 192 0
49 193 0
49 194 0
49 195 0
49 196 0
49 197 0
49 198 0
49 199 0
49 200 0
49 -1 2 0
49 -3 4 0
49 -5 6 0
49 -7 8 0
49 -9 10 0
49 -11 12 0
49 -13 14 0
49 -15 16 0
49 -17 18 0
49 -19 20 0
49 -21 22 0
49 -23 24 0
49 -25 26 0
49 -27 28 0
49 -29 30 0
49 -31 32 0
49 -33 34 0
49 -35 36 0
49 -37 38 0
49 -39 40 0
49 -41 42 0
49 -43 44 0
49 -45 46 0
49 -47 48 0
49 -49 50 0
49 -51 52 0
49 -53 54 0
49 -55 56 0
49 -57 58 0
49 -59 60 0
49 -61 62 0
49 -63 64 0
49 -65 66 0
49 -67 68 0
49 -69 70 0
49 -71 72 0
49 -73 74 0
49 -75 76 0
49 -77 78 0
49 -79 80 0
49 -81 82 0
49 -83 84 0
49 -85 86 0
49 -87 88 0
49 -89 90 0
49 -91 92 0
49 -93 94 0
49 -95 96 0
49 -97 98 0
49 -99 100 0
49 -101 102 0
49 -103 104 0
49 -105 106 0
49 -107 108 0
49 -109 110 0
49 -111 112 0
49 -113 114 0
49 -115 116 0
49 -117 118 0
49 -119 120 0
49 -121 122 0
49 -123 124 0
49 -125 126 0
49 -127 128 0
49 -129 130 0
49 -131 132 0
49 -133 134 0
49 -135 136 0
49 -137 138 0
49 -139 140 0
49 -141 142 0
49 -143 144 0
49 -145 146 0
49 -147 148 0
49 -149 150 0
49 -151 152 0
49 -153 154 0
49 -155 156 0
49 -157 158 0
49 -159 160 0
49 -161 162 0
49 -163 164 0
49 -165 166 0
49 -167 168 0
49 -169 170 0
49 -171 172 0
49 -173 174 0
49 -175 176 0
49 -177 178 0
49 -179 180 0
49 -181 182 0
49 -183 184 0
49 -185 186 0
49 -187 188 0
49 -189 190 0
49 -191 192 0
49 -193 194 0
49 -195 196 0
49 -197 198 0
49 -199 200 0
49 -1 242 0
49 -2 230 0
49 -3 247 0
49 -4 236 0
49 -5 201 0
49 -6 214 0
49 -7 201 0
49 -8 214 0
49 -9 202 0
49 -10 215 0
49 -11 206 0
49 -12 219 0
49 -13 240 0
49 -14 228 0
49 -15 201 0
49 -16 214 0
49 -17 213 0
49 -18 231 0
49 -19 208 0
49 -20 221 0
49 -21 211 0
49 -22 224 0
49 -23 242 0
49 -24 230 0
49 -25 201 0
49 -26 214 0
49 -27 201 0
49 -28 214 0
49 -29 243 0
49 -30 232 0
49 -31 246 0
49 -32 235 0
49 -33 248 0
49 -34 237 0
49 -35 201 0
49 -36 214 0
49 -37 240 0
49 -38 228 0
49 -39 243 0
49 -40 232 0
49 -41 201 0
49 -42 214 0
49 -43 238 0
49 -44 226 0
49 -45 239 0
49 -46 227 0
49 -47 201 0
49 -48 214 0
49 -49 208 0
49 -50 221 0
49 -51 244 0
49 -52 233 0
49 -53 213 0
49 -54 231 0
49 -55 242 0
49 -56 230 0
49 -57 238 0
49 -58 226 0
49 -59 241 0
49 -60 229 0
49 -61 201 0
49 -62 214 0
49 -63 212 0
49 -64 225 0
49 -65 245 0
49 -66 234 0
49 -67 248 0
49 -68 237 0
49 -69 206 0
49 -70 219 0
49 -71 203 0
49 -72 216 0
49 -73 238 0
49 -74 226 0
49 -75 209 0
49 -76 222 0
49 -77 238 0
49 -78 226 0
49 -79 240 0
49 -80 228 0
49 -81 248 0
49 -82 237 0
49 -83 248 0
49 -84 237 0
49 -85 209 0
49 -86 222 0
49 -87 201 0
49 -88 214 0
49 -89 209 0
49 -90 222 0
49 -91 246 0
49 -92 235 0
49 -93 248 0
49 -94 237 0
49 -95 245 0
49 -96 234 0
49 -97 210 0
49 -98 223 0
49 -99 243 0
49 -100 232 0
49 -101 208 0
49 -102 221 0
49 -103 201 0
49 -104 214 0
49 -105 211 0
49 -106 224 0
49 -107 246 0
49 -108 235 0
49 -109 202 0
49 -110 215 0
49 -111 248 0
49 -112 237 0
49 -113 242 0
49 -114 230 0
49 -115 238 0
49 -116 226 0
49 -117 247 0
49 -118 236 0
49 -119 212 0
49 -120 225 0
49 -121 201 0
49 -122 214 0
49 -123 242 0
49 -124 230 0
49 -125 248 0
49 -126 237 0
49 -127 201 0
49 -128 214 0
49 -129 248 0
49 -130 237 0
49 -131 203 0
49 -132 216 0
49 -133 248 0
49 -134 237 0
49 -135 201 0
49 -136 214 0
49 -137 211 0
49 -138 224 0
49 -139 202 0
49 -140 215 0
49 -141 211 0
49 -142 224 0
49 -143 247 0
49 -144 236 0
49 -145 206 0
49 -146 219 0
49 -147 245 0
49 -148 234 0
49 -149 238 0
49 -150 226 0
49 -151 239 0
49 -152 227 0
49 -153 202 0
49 -154 215 0
49 -155 248 0
49 -156 237 0
49 -157 240 0
49 -158 228 0
49 -159 248 0
49 -160 237 0
49 -161 210 0
49 -162 223 0
49 -163 201 0
49 -164 214 0
49 -165 206 0
49 -166 219 0
49 -167 248 0
49 -168 237 0
49 -169 201 0
49 -170 214 0
49 -171 239 0
49 -172 227 0
49 -173 239 0
49 -174 227 0
49 -175 248 0
49 -176 237 0
49 -177 243 0
49 -178 232 0
49 -179 238 0
49 -180 226 0
49 -181 204 0
49 -182 217 0
49 -183 248 0
49 -184 237 0
49 -185 248 0
49 -186 237 0
49 -187 206 0
49 -188 219 0
49 -189 205 0
49 -190 218 0
49 -191 210 0
49 -192 223 0
49 -193 248 0
49 -194 237 0
49 -195 240 0
49 -196 228 0
49 -197 201 0
49 -198 214 0
49 -199 248 0
49 -200 237 0
