c Dataset: TUD200.4
c Encoding: DSE
c DecisionVars: 624
c OrderVars: 0
c CardinalityAuxVars: 418
c LabelVars: 48
c TotalVars: 1090
c OrderClauses: 0
c CardinalityClauses: 1416
c DistanceClauses: 4675
c LabelLinkClauses: 624
c SoftClauses: 48
c HardClauses: 6715
c TotalClauses: 6763
p wcnf 1090 6763 49
1 -1043 0
1 -1044 0
1 -1045 0
1 -1046 0
1 -1047 0
1 -1048 0
1 -1049 0
1 -1050 0
1 -1051 0
1 -1052 0
1 -1053 0
1 -1054 0
1 -1055 0
1 -1056 0
1 -1057 0
1 -1058 0
1 -1059 0
1 -1060 0
1 -1061 0
1 -1062 0
1 -1063 0
1 -1064 0
1 -1065 0
1 -1066 0
1 -1067 0
1 -1068 0
1 -1069 0
1 -1070 0
1 -1071 0
1 -1072 0
1 -1073 0
1 -1074 0
1 -1075 0
1 -1076 0
1 -1077 0
1 -1078 0
1 -1079 0
1 -1080 0
1 -1081 0
1 -1082 0
1 -1083 0
1 -1084 0
1 -1085 0
1 -1086 0
1 -1087 0
1 -1088 0
1 -1089 0
1 -1090 0
49 1 0
49 2 0
49 3 0
49 4 0
49 5 6 7 8 9 10 11 12 13 14 15 16 17 18 19 20 21 22 23 24 25 26 27 28 29 30 31 32 33 34 35 36 0
49 -5 625 0
49 -625 626 0
49 -6 -625 0
49 -6 626 0
49 -626 627 0
49 -7 -626 0
49 -7 627 0
49 -627 628 0
49 -8 -627 0
49 -8 628 0
49 -628 629 0
49 -9 -628 0
49 -9 629 0
49 -629 630 0
49 -10 -629 0
49 -10 630 0
49 -630 631 0
49 -11 -630 0
49 -11 631 0
49 -631 632 0
49 -12 -631 0
49 -12 632 0
49 -632 633 0
49 -13 -632 0
49 -13 633 0
49 -633 634 0
49 -14 -633 0
49 -14 634 0
49 -634 635 0
49 -15 -634 0
49 -15 635 0
49 -635 636 0
49 -16 -635 0
49 -16 636 0
49 -636 637 0
49 -17 -636 0
49 -17 637 0
49 -637 638 0
49 -18 -637 0
49 -18 638 0
49 -638 639 0
49 -19 -638 0
49 -19 639 0
49 -639 640 0
49 -20 -639 0
49 -20 640 0
49 -640 641 0
49 -21 -640 0
49 -21 641 0
49 -641 642 0
49 -22 -641 0
49 -22 642 0
49 -642 643 0
49 -23 -642 0
49 -23 643 0
49 -643 644 0
49 -24 -643 0
49 -24 644 0
49 -644 645 0
49 -25 -644 0
49 -25 645 0
49 -645 646 0
49 -26 -645 0
49 -26 646 0
49 -646 647 0
49 -27 -646 0
49 -27 647 0
49 -647 648 0
49 -28 -647 0
49 -28 648 0
49 -648 649 0
49 -29 -648 0
49 -29 649 0
49 -649 650 0
49 -30 -649 0
49 -30 650 0
49 -650 651 0
49 -31 -650 0
49 -31 651 0
49 -651 652 0
49 -32 -651 0
49 -32 652 0
49 -652 653 0
49 -33 -652 0
49 -33 653 0
49 -653 654 0
49 -34 -653 0
49 -34 654 0
49 -654 655 0
49 -35 -654 0
49 -35 655 0
49 -36 -655 0
49 37 38 39 40 41 42 43 44 45 46 47 48 49 50 51 52 53 54 55 56 57 58 59 60 61 62 63 64 65 66 67 68 0
49 -37 656 0
49 -656 657 0
49 -38 -656 0
49 -38 657 0
49 -657 658 0
49 -39 -657 0
49 -39 658 0
49 -658 659 0
49 -40 -658 0
49 -40 659 0
49 -659 660 0
49 -41 -659 0
49 -41 660 0
49 -660 661 0
49 -42 -660 0
49 -42 661 0
49 -661 662 0
49 -43 -661 0
49 -43 662 0
49 -662 663 0
49 -44 -662 0
49 -44 663 0
49 -663 664 0
49 -45 -663 0
49 -45 664 0
49 -664 665 0
49 -46 -664 0
49 -46 665 0
49 -665 666 0
49 -47 -665 0
49 -47 666 0
49 -666 667 0
49 -48 -666 0
49 -48 667 0
49 -667 668 0
49 -49 -667 0
49 -49 668 0
49 -668 669 0
49 -50 -668 0
49 -50 669 0
49 -669 670 0
49 -51 -669 0
49 -51 670 0
49 -670 671 0
49 -52 -670 0
49 -52 671 0
49 -671 672 0
49 -53 -671 0
49 -53 672 0
49 -672 673 0
49 -54 -672 0
49 -54 673 0
49 -673 674 0
49 -55 -673 0
49 -55 674 0
49 -674 675 0
49 -56 -674 0
49 -56 675 0
49 -675 676 0
49 -57 -675 0
49 -57 676 0
49 -676 677 0
49 -58 -676 0
49 -58 677 0
49 -677 678 0
49 -59 -677 0
49 -59 678 0
49 -678 679 0
49 -60 -678 0
49 -60 679 0
49 -679 680 0
49 -61 -679 0
49 -61 680 0
49 -680 681 0
49 -62 -680 0
49 -62 681 0
49 -681 682 0
49 -63 -681 0
49 -63 682 0
49 -682 683 0
49 -64 -682 0
49 -64 683 0
49 -683 684 0
49 -65 -683 0
49 -65 684 0
49 -684 685 0
49 -66 -684 0
49 -66 685 0
49 -685 686 0
49 -67 -685 0
49 -67 686 0
49 -68 -686 0
49 69 0
49 70 0
49 71 72 73 74 75 76 77 78 79 80 81 82 83 84 85 86 87 88 89 90 91 92 93 94 95 96 97 98 99 100 101 102 103 104 105 106 0
49 -71 687 0
49 -687 688 0
49 -72 -687 0
49 -72 688 0
49 -688 689 0
49 -73 -688 0
49 -73 689 0
49 -689 690 0
49 -74 -689 0
49 -74 690 0
49 -690 691 0
49 -75 -690 0
49 -75 691 0
49 -691 692 0
49 -76 -691 0
49 -76 692 0
49 -692 693 0
49 -77 -692 0
49 -77 693 0
49 -693 694 0
49 -78 -693 0
49 -78 694 0
49 -694 695 0
49 -79 -694 0
49 -79 695 0
49 -695 696 0
49 -80 -695 0
49 -80 696 0
49 -696 697 0
49 -81 -696 0
49 -81 697 0
49 -697 698 0
49 -82 -697 0
49 -82 698 0
49 -698 699 0
49 -83 -698 0
49 -83 699 0
49 -699 700 0
49 -84 -699 0
49 -84 700 0
49 -700 701 0
49 -85 -700 0
49 -85 701 0
49 -701 702 0
49 -86 -701 0
49 -86 702 0
49 -702 703 0
49 -87 -702 0
49 -87 703 0
49 -703 704 0
49 -88 -703 0
49 -88 704 0
49 -704 705 0
49 -89 -704 0
49 -89 705 0
49 -705 706 0
49 -90 -705 0
49 -90 706 0
49 -706 707 0
49 -91 -706 0
49 -91 707 0
49 -707 708 0
49 -92 -707 0
49 -92 708 0
49 -708 709 0
49 -93 -708 0
49 -93 709 0
49 -709 710 0
49 -94 -709 0
49 -94 710 0
49 -710 711 0
49 -95 -710 0
49 -95 711 0
49 -711 712 0
49 -96 -711 0
49 -96 712 0
49 -712 713 0
49 -97 -712 0
49 -97 713 0
49 -713 714 0
49 -98 -713 0
49 -98 714 0
49 -714 715 0
49 -99 -714 0
49 -99 715 0
49 -715 716 0
49 -100 -715 0
49 -100 716 0
49 -716 717 0
49 -101 -716 0
49 -101 717 0
49 -717 718 0
49 -102 -717 0
49 -102 718 0
49 -718 719 0
49 -103 -718 0
49 -103 719 0
49 -719 720 0
49 -104 -719 0
49 -104 720 0
49 -720 721 0
49 -105 -720 0
49 -105 721 0
49 -106 -721 0
49 107 108 109 110 111 112 113 114 115 116 117 118 119 120 121 122 123 124 125 126 127 128 129 130 131 132 133 134 135 136 137 138 139 140 141 142 0
49 -107 722 0
49 -722 723 0
49 -108 -722 0
49 -108 723 0
49 -723 724 0
49 -109 -723 0
49 -109 724 0
49 -724 725 0
49 -110 -724 0
49 -110 725 0
49 -725 726 0
49 -111 -725 0
49 -111 726 0
49 -726 727 0
49 -112 -726 0
49 -112 727 0
49 -727 728 0
49 -113 -727 0
49 -113 728 0
49 -728 729 0
49 -114 -728 0
49 -114 729 0
49 -729 730 0
49 -115 -729 0
49 -115 730 0
49 -730 731 0
49 -116 -730 0
49 -116 731 0
49 -731 732 0
49 -117 -731 0
49 -117 732 0
49 -732 733 0
49 -118 -732 0
49 -118 733 0
49 -733 734 0
49 -119 -733 0
49 -119 734 0
49 -734 735 0
49 -120 -734 0
49 -120 735 0
49 -735 736 0
49 -121 -735 0
49 -121 736 0
49 -736 737 0
49 -122 -736 0
49 -122 737 0
49 -737 738 0
49 -123 -737 0
49 -123 738 0
49 -738 739 0
49 -124 -738 0
49 -124 739 0
49 -739 740 0
49 -125 -739 0
49 -125 740 0
49 -740 741 0
49 -126 -740 0
49 -126 741 0
49 -741 742 0
49 -127 -741 0
49 -127 742 0
49 -742 743 0
49 -128 -742 0
49 -128 743 0
49 -743 744 0
49 -129 -743 0
49 -129 744 0
49 -744 745 0
49 -130 -744 0
49 -130 745 0
49 -745 746 0
49 -131 -745 0
49 -131 746 0
49 -746 747 0
49 -132 -746 0
49 -132 747 0
49 -747 748 0
49 -133 -747 0
49 -133 748 0
49 -748 749 0
49 -134 -748 0
49 -134 749 0
49 -749 750 0
49 -135 -749 0
49 -135 750 0
49 -750 751 0
49 -136 -750 0
49 -136 751 0
49 -751 752 0
49 -137 -751 0
49 -137 752 0
49 -752 753 0
49 -138 -752 0
49 -138 753 0
49 -753 754 0
49 -139 -753 0
49 -139 754 0
49 -754 755 0
49 -140 -754 0
49 -140 755 0
49 -755 756 0
49 -141 -755 0
49 -141 756 0
49 -142 -756 0
49 143 144 145 146 147 148 149 150 151 152 153 0
49 -143 757 0
49 -757 758 0
49 -144 -757 0
49 -144 758 0
49 -758 759 0
49 -145 -758 0
49 -145 759 0
49 -759 760 0
49 -146 -759 0
49 -146 760 0
49 -760 761 0
49 -147 -760 0
49 -147 761 0
49 -761 762 0
49 -148 -761 0
49 -148 762 0
49 -762 763 0
49 -149 -762 0
49 -149 763 0
49 -763 764 0
49 -150 -763 0
49 -150 764 0
49 -764 765 0
49 -151 -764 0
49 -151 765 0
49 -765 766 0
49 -152 -765 0
49 -152 766 0
49 -153 -766 0
49 154 155 156 157 158 159 160 161 162 163 164 0
49 -154 767 0
49 -767 768 0
49 -155 -767 0
49 -155 768 0
49 -768 769 0
49 -156 -768 0
49 -156 769 0
49 -769 770 0
49 -157 -769 0
49 -157 770 0
49 -770 771 0
49 -158 -770 0
49 -158 771 0
49 -771 772 0
49 -159 -771 0
49 -159 772 0
49 -772 773 0
49 -160 -772 0
49 -160 773 0
49 -773 774 0
49 -161 -773 0
49 -161 774 0
49 -774 775 0
49 -162 -774 0
49 -162 775 0
49 -775 776 0
49 -163 -775 0
49 -163 776 0
49 -164 -776 0
49 165 0
49 166 0
49 167 168 0
49 -167 -168 0
49 169 170 0
49 -169 -170 0
49 171 0
49 172 0
49 173 0
49 174 0
49 175 0
49 176 0
49 177 0
49 178 0
49 179 0
49 180 0
49 181 182 183 0
49 -181 777 0
49 -777 778 0
49 -182 -777 0
49 -182 778 0
49 -183 -778 0
49 184 185 186 0
49 -184 779 0
49 -779 780 0
49 -185 -779 0
49 -185 780 0
49 -186 -780 0
49 187 0
49 188 0
49 189 0
49 190 0
49 191 0
49 192 0
49 193 0
49 194 0
49 195 0
49 196 0
49 197 0
49 198 0
49 199 200 201 202 203 204 205 206 207 208 209 210 211 212 213 214 215 216 217 218 219 220 221 222 223 224 225 226 227 228 0
49 -199 781 0
49 -781 782 0
49 -200 -781 0
49 -200 782 0
49 -782 783 0
49 -201 -782 0
49 -201 783 0
49 -783 784 0
49 -202 -783 0
49 -202 784 0
49 -784 785 0
49 -203 -784 0
49 -203 785 0
49 -785 786 0
49 -204 -785 0
49 -204 786 0
49 -786 787 0
49 -205 -786 0
49 -205 787 0
49 -787 788 0
49 -206 -787 0
49 -206 788 0
49 -788 789 0
49 -207 -788 0
49 -207 789 0
49 -789 790 0
49 -208 -789 0
49 -208 790 0
49 -790 791 0
49 -209 -790 0
49 -209 791 0
49 -791 792 0
49 -210 -791 0
49 -210 792 0
49 -792 793 0
49 -211 -792 0
49 -211 793 0
49 -793 794 0
49 -212 -793 0
49 -212 794 0
49 -794 795 0
49 -213 -794 0
49 -213 795 0
49 -795 796 0
49 -214 -795 0
49 -214 796 0
49 -796 797 0
49 -215 -796 0
49 -215 797 0
49 -797 798 0
49 -216 -797 0
49 -216 798 0
49 -798 799 0
49 -217 -798 0
49 -217 799 0
49 -799 800 0
49 -218 -799 0
49 -218 800 0
49 -800 801 0
49 -219 -800 0
49 -219 801 0
49 -801 802 0
49 -220 -801 0
49 -220 802 0
49 -802 803 0
49 -221 -802 0
49 -221 803 0
49 -803 804 0
49 -222 -803 0
49 -222 804 0
49 -804 805 0
49 -223 -804 0
49 -223 805 0
49 -805 806 0
49 -224 -805 0
49 -224 806 0
49 -806 807 0
49 -225 -806 0
49 -225 807 0
49 -807 808 0
49 -226 -807 0
49 -226 808 0
49 -808 809 0
49 -227 -808 0
49 -227 809 0
49 -228 -809 0
49 229 230 231 232 233 234 235 236 237 238 239 240 241 242 243 244 245 246 247 248 249 250 251 252 253 254 255 256 257 258 0
49 -229 810 0
49 -810 811 0
49 -230 -810 0
49 -230 811 0
49 -811 812 0
49 -231 -811 0
49 -231 812 0
49 -812 813 0
49 -232 -812 0
49 -232 813 0
49 -813 814 0
49 -233 -813 0
49 -233 814 0
49 -814 815 0
49 -234 -814 0
49 -234 815 0
49 -815 816 0
49 -235 -815 0
49 -235 816 0
49 -816 817 0
49 -236 -816 0
49 -236 817 0
49 -817 818 0
49 -237 -817 0
49 -237 818 0
49 -818 819 0
49 -238 -818 0
49 -238 819 0
49 -819 820 0
49 -239 -819 0
49 -239 820 0
49 -820 821 0
49 -240 -820 0
49 -240 821 0
49 -821 822 0
49 -241 -821 0
49 -241 822 0
49 -822 823 0
49 -242 -822 0
49 -242 823 0
49 -823 824 0
49 -243 -823 0
49 -243 824 0
49 -824 825 0
49 -244 -824 0
49 -244 825 0
49 -825 826 0
49 -245 -825 0
49 -245 826 0
49 -826 827 0
49 -246 -826 0
49 -246 827 0
49 -827 828 0
49 -247 -827 0
49 -247 828 0
49 -828 829 0
49 -248 -828 0
49 -248 829 0
49 -829 830 0
49 -249 -829 0
49 -249 830 0
49 -830 831 0
49 -250 -830 0
49 -250 831 0
49 -831 832 0
49 -251 -831 0
49 -251 832 0
49 -832 833 0
49 -252 -832 0
49 -252 833 0
49 -833 834 0
49 -253 -833 0
49 -253 834 0
49 -834 835 0
49 -254 -834 0
49 -254 835 0
49 -835 836 0
49 -255 -835 0
49 -255 836 0
49 -836 837 0
49 -256 -836 0
49 -256 837 0
49 -837 838 0
49 -257 -837 0
49 -257 838 0
49 -258 -838 0
49 259 260 261 0
49 -259 839 0
49 -839 840 0
49 -260 -839 0
49 -260 840 0
49 -261 -840 0
49 262 263 264 0
49 -262 841 0
49 -841 842 0
49 -263 -841 0
49 -263 842 0
49 -264 -842 0
49 265 0
49 266 0
49 267 0
49 268 0
49 269 270 271 272 273 274 275 276 277 278 279 0
49 -269 843 0
49 -843 844 0
49 -270 -843 0
49 -270 844 0
49 -844 845 0
49 -271 -844 0
49 -271 845 0
49 -845 846 0
49 -272 -845 0
49 -272 846 0
49 -846 847 0
49 -273 -846 0
49 -273 847 0
49 -847 848 0
49 -274 -847 0
49 -274 848 0
49 -848 849 0
49 -275 -848 0
49 -275 849 0
49 -849 850 0
49 -276 -849 0
49 -276 850 0
49 -850 851 0
49 -277 -850 0
49 -277 851 0
49 -851 852 0
49 -278 -851 0
49 -278 852 0
49 -279 -852 0
49 280 281 282 283 284 285 286 287 288 289 290 0
49 -280 853 0
49 -853 854 0
49 -281 -853 0
49 -281 854 0
49 -854 855 0
49 -282 -854 0
49 -282 855 0
49 -855 856 0
49 -283 -855 0
49 -283 856 0
49 -856 857 0
49 -284 -856 0
49 -284 857 0
49 -857 858 0
49 -285 -857 0
49 -285 858 0
49 -858 859 0
49 -286 -858 0
49 -286 859 0
49 -859 860 0
49 -287 -859 0
49 -287 860 0
49 -860 861 0
49 -288 -860 0
49 -288 861 0
49 -861 862 0
49 -289 -861 0
49 -289 862 0
49 -290 -862 0
49 291 0
49 292 0
49 293 0
49 294 0
49 295 0
49 296 0
49 297 0
49 298 0
49 299 0
49 300 0
49 301 0
49 302 0
49 303 304 305 0
49 -303 863 0
49 -863 864 0
49 -304 -863 0
49 -304 864 0
49 -305 -864 0
49 306 307 308 0
49 -306 865 0
49 -865 866 0
49 -307 -865 0
49 -307 866 0
49 -308 -866 0
49 309 0
49 310 0
49 311 0
49 312 0
49 313 314 315 316 0
49 -313 867 0
49 -867 868 0
49 -314 -867 0
49 -314 868 0
49 -868 869 0
49 -315 -868 0
49 -315 869 0
49 -316 -869 0
49 317 318 319 320 0
49 -317 870 0
49 -870 871 0
49 -318 -870 0
49 -318 871 0
49 -871 872 0
49 -319 -871 0
49 -319 872 0
49 -320 -872 0
49 321 322 323 0
49 -321 873 0
49 -873 874 0
49 -322 -873 0
49 -322 874 0
49 -323 -874 0
49 324 325 326 0
49 -324 875 0
49 -875 876 0
49 -325 -875 0
49 -325 876 0
49 -326 -876 0
49 327 0
49 328 0
49 329 0
49 330 0
49 331 0
49 332 0
49 333 0
49 334 0
49 335 0
49 336 0
49 337 0
49 338 0
49 339 0
49 340 0
49 341 0
49 342 0
49 343 344 345 346 347 348 349 350 351 352 353 0
49 -343 877 0
49 -877 878 0
49 -344 -877 0
49 -344 878 0
49 -878 879 0
49 -345 -878 0
49 -345 879 0
49 -879 880 0
49 -346 -879 0
49 -346 880 0
49 -880 881 0
49 -347 -880 0
49 -347 881 0
49 -881 882 0
49 -348 -881 0
49 -348 882 0
49 -882 883 0
49 -349 -882 0
49 -349 883 0
49 -883 884 0
49 -350 -883 0
49 -350 884 0
49 -884 885 0
49 -351 -884 0
49 -351 885 0
49 -885 886 0
49 -352 -885 0
49 -352 886 0
49 -353 -886 0
49 354 355 356 357 358 359 360 361 362 363 364 0
49 -354 887 0
49 -887 888 0
49 -355 -887 0
49 -355 888 0
49 -888 889 0
49 -356 -888 0
49 -356 889 0
49 -889 890 0
49 -357 -889 0
49 -357 890 0
49 -890 891 0
49 -358 -890 0
49 -358 891 0
49 -891 892 0
49 -359 -891 0
49 -359 892 0
49 -892 893 0
49 -360 -892 0
49 -360 893 0
49 -893 894 0
49 -361 -893 0
49 -361 894 0
49 -894 895 0
49 -362 -894 0
49 -362 895 0
49 -895 896 0
49 -363 -895 0
49 -363 896 0
49 -364 -896 0
49 365 0
49 366 0
49 367 0
49 368 0
49 369 0
49 370 0
49 371 372 373 374 375 376 377 378 379 380 381 0
49 -371 897 0
49 -897 898 0
49 -372 -897 0
49 -372 898 0
49 -898 899 0
49 -373 -898 0
49 -373 899 0
49 -899 900 0
49 -374 -899 0
49 -374 900 0
49 -900 901 0
49 -375 -900 0
49 -375 901 0
49 -901 902 0
49 -376 -901 0
49 -376 902 0
49 -902 903 0
49 -377 -902 0
49 -377 903 0
49 -903 904 0
49 -378 -903 0
49 -378 904 0
49 -904 905 0
49 -379 -904 0
49 -379 905 0
49 -905 906 0
49 -380 -905 0
49 -380 906 0
49 -381 -906 0
49 382 383 384 385 386 387 388 389 390 391 392 0
49 -382 907 0
49 -907 908 0
49 -383 -907 0
49 -383 908 0
49 -908 909 0
49 -384 -908 0
49 -384 909 0
49 -909 910 0
49 -385 -909 0
49 -385 910 0
49 -910 911 0
49 -386 -910 0
49 -386 911 0
49 -911 912 0
49 -387 -911 0
49 -387 912 0
49 -912 913 0
49 -388 -912 0
49 -388 913 0
49 -913 914 0
49 -389 -913 0
49 -389 914 0
49 -914 915 0
49 -390 -914 0
49 -390 915 0
49 -915 916 0
49 -391 -915 0
49 -391 916 0
49 -392 -916 0
49 393 0
49 394 0
49 395 0
49 396 0
49 397 398 399 0
49 -397 917 0
49 -917 918 0
49 -398 -917 0
49 -398 918 0
49 -399 -918 0
49 400 401 402 0
49 -400 919 0
49 -919 920 0
49 -401 -919 0
49 -401 920 0
49 -402 -920 0
49 403 0
49 404 0
49 405 0
49 406 0
49 407 408 0
49 -407 -408 0
49 409 410 0
49 -409 -410 0
49 411 0
49 412 0
49 413 0
49 414 0
49 415 0
49 416 0
49 417 0
49 418 0
49 419 0
49 420 0
49 421 0
49 422 0
49 423 0
49 424 0
49 425 0
49 426 0
49 427 0
49 428 0
49 429 0
49 430 0
49 431 432 433 434 435 436 437 438 439 440 441 0
49 -431 921 0
49 -921 922 0
49 -432 -921 0
49 -432 922 0
49 -922 923 0
49 -433 -922 0
49 -433 923 0
49 -923 924 0
49 -434 -923 0
49 -434 924 0
49 -924 925 0
49 -435 -924 0
49 -435 925 0
49 -925 926 0
49 -436 -925 0
49 -436 926 0
49 -926 927 0
49 -437 -926 0
49 -437 927 0
49 -927 928 0
49 -438 -927 0
49 -438 928 0
49 -928 929 0
49 -439 -928 0
49 -439 929 0
49 -929 930 0
49 -440 -929 0
49 -440 930 0
49 -441 -930 0
49 442 443 444 445 446 447 448 449 450 451 452 0
49 -442 931 0
49 -931 932 0
49 -443 -931 0
49 -443 932 0
49 -932 933 0
49 -444 -932 0
49 -444 933 0
49 -933 934 0
49 -445 -933 0
49 -445 934 0
49 -934 935 0
49 -446 -934 0
49 -446 935 0
49 -935 936 0
49 -447 -935 0
49 -447 936 0
49 -936 937 0
49 -448 -936 0
49 -448 937 0
49 -937 938 0
49 -449 -937 0
49 -449 938 0
49 -938 939 0
49 -450 -938 0
49 -450 939 0
49 -939 940 0
49 -451 -939 0
49 -451 940 0
49 -452 -940 0
49 453 454 455 456 457 458 459 460 461 462 463 0
49 -453 941 0
49 -941 942 0
49 -454 -941 0
49 -454 942 0
49 -942 943 0
49 -455 -942 0
49 -455 943 0
49 -943 944 0
49 -456 -943 0
49 -456 944 0
49 -944 945 0
49 -457 -944 0
49 -457 945 0
49 -945 946 0
49 -458 -945 0
49 -458 946 0
49 -946 947 0
49 -459 -946 0
49 -459 947 0
49 -947 948 0
49 -460 -947 0
49 -460 948 0
49 -948 949 0
49 -461 -948 0
49 -461 949 0
49 -949 950 0
49 -462 -949 0
49 -462 950 0
49 -463 -950 0
49 464 465 466 467 468 469 470 471 472 473 474 0
49 -464 951 0
49 -951 952 0
49 -465 -951 0
49 -465 952 0
49 -952 953 0
49 -466 -952 0
49 -466 953 0
49 -953 954 0
49 -467 -953 0
49 -467 954 0
49 -954 955 0
49 -468 -954 0
49 -468 955 0
49 -955 956 0
49 -469 -955 0
49 -469 956 0
49 -956 957 0
49 -470 -956 0
49 -470 957 0
49 -957 958 0
49 -471 -957 0
49 -471 958 0
49 -958 959 0
49 -472 -958 0
49 -472 959 0
49 -959 960 0
49 -473 -959 0
49 -473 960 0
49 -474 -960 0
49 475 0
49 476 0
49 477 0
49 478 0
49 479 0
49 480 0
49 481 0
49 482 0
49 483 484 485 486 487 488 489 490 491 492 493 0
49 -483 961 0
49 -961 962 0
49 -484 -961 0
49 -484 962 0
49 -962 963 0
49 -485 -962 0
49 -485 963 0
49 -963 964 0
49 -486 -963 0
49 -486 964 0
49 -964 965 0
49 -487 -964 0
49 -487 965 0
49 -965 966 0
49 -488 -965 0
49 -488 966 0
49 -966 967 0
49 -489 -966 0
49 -489 967 0
49 -967 968 0
49 -490 -967 0
49 -490 968 0
49 -968 969 0
49 -491 -968 0
49 -491 969 0
49 -969 970 0
49 -492 -969 0
49 -492 970 0
49 -493 -970 0
49 494 495 496 497 498 499 500 501 502 503 504 0
49 -494 971 0
49 -971 972 0
49 -495 -971 0
49 -495 972 0
49 -972 973 0
49 -496 -972 0
49 -496 973 0
49 -973 974 0
49 -497 -973 0
49 -497 974 0
49 -974 975 0
49 -498 -974 0
49 -498 975 0
49 -975 976 0
49 -499 -975 0
49 -499 976 0
49 -976 977 0
49 -500 -976 0
49 -500 977 0
49 -977 978 0
49 -501 -977 0
49 -501 978 0
49 -978 979 0
49 -502 -978 0
49 -502 979 0
49 -979 980 0
49 -503 -979 0
49 -503 980 0
49 -504 -980 0
49 505 0
49 506 0
49 507 0
49 508 0
49 509 0
49 510 0
49 511 512 0
49 -511 -512 0
49 513 514 0
49 -513 -514 0
49 515 516 517 518 519 0
49 -515 981 0
49 -981 982 0
49 -516 -981 0
49 -516 982 0
49 -982 983 0
49 -517 -982 0
49 -517 983 0
49 -983 984 0
49 -518 -983 0
49 -518 984 0
49 -519 -984 0
49 520 521 522 523 524 0
49 -520 985 0
49 -985 986 0
49 -521 -985 0
49 -521 986 0
49 -986 987 0
49 -522 -986 0
49 -522 987 0
49 -987 988 0
49 -523 -987 0
49 -523 988 0
49 -524 -988 0
49 525 0
49 526 0
49 527 0
49 528 0
49 529 530 531 532 0
49 -529 989 0
49 -989 990 0
49 -530 -989 0
49 -530 990 0
49 -990 991 0
49 -531 -990 0
49 -531 991 0
49 -532 -991 0
49 533 534 535 536 0
49 -533 992 0
49 -992 993 0
49 -534 -992 0
49 -534 993 0
49 -993 994 0
49 -535 -993 0
49 -535 994 0
49 -536 -994 0
49 537 0
49 538 0
49 539 0
49 540 0
49 541 542 543 544 545 546 547 548 549 550 551 0
49 -541 995 0
49 -995 996 0
49 -542 -995 0
49 -542 996 0
49 -996 997 0
49 -543 -996 0
49 -543 997 0
49 -997 998 0
49 -544 -997 0
49 -544 998 0
49 -998 999 0
49 -545 -998 0
49 -545 999 0
49 -999 1000 0
49 -546 -999 0
49 -546 1000 0
49 -1000 1001 0
49 -547 -1000 0
49 -547 1001 0
49 -1001 1002 0
49 -548 -1001 0
49 -548 1002 0
49 -1002 1003 0
49 -549 -1002 0
49 -549 1003 0
49 -1003 1004 0
49 -550 -1003 0
49 -550 1004 0
49 -551 -1004 0
49 552 553 554 555 556 557 558 559 560 561 562 0
49 -552 1005 0
49 -1005 1006 0
49 -553 -1005 0
49 -553 1006 0
49 -1006 1007 0
49 -554 -1006 0
49 -554 1007 0
49 -1007 1008 0
49 -555 -1007 0
49 -555 1008 0
49 -1008 1009 0
49 -556 -1008 0
49 -556 1009 0
49 -1009 1010 0
49 -557 -1009 0
49 -557 1010 0
49 -1010 1011 0
49 -558 -1010 0
49 -558 1011 0
49 -1011 1012 0
49 -559 -1011 0
49 -559 1012 0
49 -1012 1013 0
49 -560 -1012 0
49 -560 1013 0
49 -1013 1014 0
49 -561 -1013 0
49 -561 1014 0
49 -562 -1014 0
49 563 564 565 0
49 -563 1015 0
49 -1015 1016 0
49 -564 -1015 0
49 -564 1016 0
49 -565 -1016 0
49 566 567 568 0
49 -566 1017 0
49 -1017 1018 0
49 -567 -1017 0
49 -567 1018 0
49 -568 -1018 0
49 569 0
49 570 0
49 571 0
49 572 0
49 573 0
49 574 0
49 575 0
49 576 0
49 577 0
49 578 0
49 579 0
49 580 0
49 581 0
49 582 0
49 583 0
49 584 0
49 585 0
49 586 0
49 587 0
49 588 0
49 589 0
49 590 0
49 591 592 593 594 595 596 597 598 0
49 -591 1019 0
49 -1019 1020 0
49 -592 -1019 0
49 -592 1020 0
49 -1020 1021 0
49 -593 -1020 0
49 -593 1021 0
49 -1021 1022 0
49 -594 -1021 0
49 -594 1022 0
49 -1022 1023 0
49 -595 -1022 0
49 -595 1023 0
49 -1023 1024 0
49 -596 -1023 0
49 -596 1024 0
49 -1024 1025 0
49 -597 -1024 0
49 -597 1025 0
49 -598 -1025 0
49 599 600 601 602 603 604 605 606 0
49 -599 1026 0
49 -1026 1027 0
49 -600 -1026 0
49 -600 1027 0
49 -1027 1028 0
49 -601 -1027 0
49 -601 1028 0
49 -1028 1029 0
49 -602 -1028 0
49 -602 1029 0
49 -1029 1030 0
49 -603 -1029 0
49 -603 1030 0
49 -1030 1031 0
49 -604 -1030 0
49 -604 1031 0
49 -1031 1032 0
49 -605 -1031 0
49 -605 1032 0
49 -606 -1032 0
49 607 0
49 608 0
49 609 0
49 610 0
49 611 0
49 612 0
49 613 614 615 616 617 618 0
49 -613 1033 0
49 -1033 1034 0
49 -614 -1033 0
49 -614 1034 0
49 -1034 1035 0
49 -615 -1034 0
49 -615 1035 0
49 -1035 1036 0
49 -616 -1035 0
49 -616 1036 0
49 -1036 1037 0
49 -617 -1036 0
49 -617 1037 0
49 -618 -1037 0
49 619 620 621 622 623 624 0
49 -619 1038 0
49 -1038 1039 0
49 -620 -1038 0
49 -620 1039 0
49 -1039 1040 0
49 -621 -1039 0
49 -621 1040 0
49 -1040 1041 0
49 -622 -1040 0
49 -622 1041 0
49 -1041 1042 0
49 -623 -1041 0
49 -623 1042 0
49 -624 -1042 0
49 -1 2 0
49 -3 4 0
49 -5 42 0
49 -6 43 0
49 -7 44 0
49 -8 45 0
49 -9 46 0
49 -10 47 0
49 -11 48 0
49 -12 49 0
49 -13 50 0
49 -14 51 0
49 -15 52 0
49 -16 37 0
49 -17 38 0
49 -18 39 0
49 -19 40 0
49 -20 41 0
49 -21 64 0
49 -22 65 0
49 -23 66 0
49 -24 67 0
49 -25 68 0
49 -26 53 0
49 -27 54 0
49 -28 55 0
49 -29 56 0
49 -30 57 0
49 -31 58 0
49 -32 59 0
49 -33 60 0
49 -34 61 0
49 -35 62 0
49 -36 63 0
49 -5 -71 0
49 -5 -72 0
49 -6 -71 0
49 -6 -72 0
49 -6 -73 0
49 -7 -71 0
49 -7 -72 0
49 -7 -73 0
49 -7 -74 0
49 -8 -71 0
49 -8 -72 0
49 -8 -73 0
49 -8 -74 0
49 -8 -75 0
49 -9 -72 0
49 -9 -73 0
49 -9 -74 0
49 -9 -75 0
49 -9 -76 0
49 -10 -73 0
49 -10 -74 0
49 -10 -75 0
49 -10 -76 0
49 -10 -77 0
49 -11 -74 0
49 -11 -75 0
49 -11 -76 0
49 -11 -77 0
49 -11 -78 0
49 -12 -75 0
49 -12 -76 0
49 -12 -77 0
49 -12 -78 0
49 -12 -79 0
49 -13 -76 0
49 -13 -77 0
49 -13 -78 0
49 -13 -79 0
49 -13 -80 0
49 -14 -77 0
49 -14 -78 0
49 -14 -79 0
49 -14 -80 0
49 -15 -78 0
49 -15 -79 0
49 -15 -80 0
49 -16 -81 0
49 -16 -82 0
49 -17 -81 0
49 -17 -82 0
49 -17 -83 0
49 -18 -81 0
49 -18 -82 0
49 -18 -83 0
49 -18 -84 0
49 -19 -81 0
49 -19 -82 0
49 -19 -83 0
49 -19 -84 0
49 -19 -85 0
49 -20 -82 0
49 -20 -83 0
49 -20 -84 0
49 -20 -85 0
49 -20 -86 0
49 -21 -89 0
49 -21 -90 0
49 -21 -91 0
49 -21 -92 0
49 -21 -93 0
49 -22 -90 0
49 -22 -91 0
49 -22 -92 0
49 -22 -93 0
49 -22 -94 0
49 -23 -91 0
49 -23 -92 0
49 -23 -93 0
49 -23 -94 0
49 -23 -95 0
49 -24 -92 0
49 -24 -93 0
49 -24 -94 0
49 -24 -95 0
49 -25 -93 0
49 -25 -94 0
49 -25 -95 0
49 -26 -96 0
49 -26 -97 0
49 -26 -98 0
49 -27 -96 0
49 -27 -97 0
49 -27 -98 0
49 -27 -99 0
49 -28 -96 0
49 -28 -97 0
49 -28 -98 0
49 -28 -99 0
49 -28 -100 0
49 -29 -97 0
49 -29 -98 0
49 -29 -99 0
49 -29 -100 0
49 -29 -101 0
49 -30 -98 0
49 -30 -99 0
49 -30 -100 0
49 -30 -101 0
49 -30 -102 0
49 -31 -99 0
49 -31 -100 0
49 -31 -101 0
49 -31 -102 0
49 -31 -103 0
49 -32 -100 0
49 -32 -101 0
49 -32 -102 0
49 -32 -103 0
49 -32 -104 0
49 -33 -101 0
49 -33 -102 0
49 -33 -103 0
49 -33 -104 0
49 -33 -105 0
49 -34 -102 0
49 -34 -103 0
49 -34 -104 0
49 -34 -105 0
49 -34 -106 0
49 -35 -103 0
49 -35 -104 0
49 -35 -105 0
49 -35 -106 0
49 -36 -104 0
49 -36 -105 0
49 -36 -106 0
49 -5 -107 0
49 -5 -108 0
49 -5 -109 0
49 -5 -110 0
49 -5 -111 0
49 -5 -112 0
49 -5 -113 0
49 -5 -114 0
49 -5 -115 0
49 -6 -107 0
49 -6 -108 0
49 -6 -109 0
49 -6 -110 0
49 -6 -111 0
49 -6 -112 0
49 -6 -113 0
49 -6 -114 0
49 -6 -115 0
49 -6 -116 0
49 -7 -107 0
49 -7 -108 0
49 -7 -109 0
49 -7 -110 0
49 -7 -111 0
49 -7 -112 0
49 -7 -113 0
49 -7 -114 0
49 -7 -115 0
49 -7 -116 0
49 -7 -117 0
49 -8 -107 0
49 -8 -108 0
49 -8 -109 0
49 -8 -110 0
49 -8 -111 0
49 -8 -112 0
49 -8 -113 0
49 -8 -114 0
49 -8 -115 0
49 -8 -116 0
49 -8 -117 0
49 -8 -118 0
49 -9 -107 0
49 -9 -108 0
49 -9 -109 0
49 -9 -110 0
49 -9 -111 0
49 -9 -112 0
49 -9 -113 0
49 -9 -114 0
49 -9 -115 0
49 -9 -116 0
49 -9 -117 0
49 -9 -118 0
49 -9 -119 0
49 -10 -107 0
49 -10 -108 0
49 -10 -109 0
49 -10 -110 0
49 -10 -111 0
49 -10 -112 0
49 -10 -113 0
49 -10 -114 0
49 -10 -115 0
49 -10 -116 0
49 -10 -117 0
49 -10 -118 0
49 -10 -119 0
49 -10 -120 0
49 -11 -107 0
49 -11 -108 0
49 -11 -109 0
49 -11 -110 0
49 -11 -111 0
49 -11 -112 0
49 -11 -113 0
49 -11 -114 0
49 -11 -115 0
49 -11 -116 0
49 -11 -117 0
49 -11 -118 0
49 -11 -119 0
49 -11 -120 0
49 -11 -121 0
49 -12 -107 0
49 -12 -108 0
49 -12 -109 0
49 -12 -110 0
49 -12 -111 0
49 -12 -112 0
49 -12 -113 0
49 -12 -114 0
49 -12 -115 0
49 -12 -116 0
49 -12 -117 0
49 -12 -118 0
49 -12 -119 0
49 -12 -120 0
49 -12 -121 0
49 -12 -122 0
49 -13 -107 0
49 -13 -108 0
49 -13 -109 0
49 -13 -110 0
49 -13 -111 0
49 -13 -112 0
49 -13 -113 0
49 -13 -114 0
49 -13 -115 0
49 -13 -116 0
49 -13 -117 0
49 -13 -118 0
49 -13 -119 0
49 -13 -120 0
49 -13 -121 0
49 -13 -122 0
49 -13 -123 0
49 -14 -107 0
49 -14 -108 0
49 -14 -109 0
49 -14 -110 0
49 -14 -111 0
49 -14 -112 0
49 -14 -113 0
49 -14 -114 0
49 -14 -115 0
49 -14 -116 0
49 -14 -117 0
49 -14 -118 0
49 -14 -119 0
49 -14 -120 0
49 -14 -121 0
49 -14 -122 0
49 -14 -123 0
49 -14 -124 0
49 -15 -107 0
49 -15 -108 0
49 -15 -109 0
49 -15 -110 0
49 -15 -111 0
49 -15 -112 0
49 -15 -113 0
49 -15 -114 0
49 -15 -115 0
49 -15 -116 0
49 -15 -117 0
49 -15 -118 0
49 -15 -119 0
49 -15 -120 0
49 -15 -121 0
49 -15 -122 0
49 -15 -123 0
49 -15 -124 0
49 -15 -125 0
49 -16 -107 0
49 -16 -108 0
49 -16 -109 0
49 -16 -110 0
49 -16 -111 0
49 -16 -112 0
49 -16 -113 0
49 -16 -114 0
49 -16 -115 0
49 -16 -116 0
49 -16 -117 0
49 -16 -118 0
49 -16 -119 0
49 -16 -120 0
49 -16 -121 0
49 -16 -122 0
49 -16 -123 0
49 -16 -124 0
49 -16 -125 0
49 -16 -126 0
49 -16 -127 0
49 -16 -128 0
49 -16 -129 0
49 -16 -130 0
49 -16 -131 0
49 -16 -132 0
49 -17 -107 0
49 -17 -108 0
49 -17 -109 0
49 -17 -110 0
49 -17 -111 0
49 -17 -112 0
49 -17 -113 0
49 -17 -114 0
49 -17 -115 0
49 -17 -116 0
49 -17 -117 0
49 -17 -118 0
49 -17 -119 0
49 -17 -120 0
49 -17 -121 0
49 -17 -122 0
49 -17 -123 0
49 -17 -124 0
49 -17 -125 0
49 -17 -126 0
49 -17 -127 0
49 -17 -128 0
49 -17 -129 0
49 -17 -130 0
49 -17 -131 0
49 -17 -132 0
49 -17 -133 0
49 -18 -107 0
49 -18 -108 0
49 -18 -109 0
49 -18 -110 0
49 -18 -111 0
49 -18 -112 0
49 -18 -113 0
49 -18 -114 0
49 -18 -115 0
49 -18 -116 0
49 -18 -117 0
49 -18 -118 0
49 -18 -119 0
49 -18 -120 0
49 -18 -121 0
49 -18 -122 0
49 -18 -123 0
49 -18 -124 0
49 -18 -125 0
49 -18 -126 0
49 -18 -127 0
49 -18 -128 0
49 -18 -129 0
49 -18 -130 0
49 -18 -131 0
49 -18 -132 0
49 -18 -133 0
49 -18 -134 0
49 -19 -107 0
49 -19 -108 0
49 -19 -109 0
49 -19 -110 0
49 -19 -111 0
49 -19 -112 0
49 -19 -113 0
49 -19 -114 0
49 -19 -115 0
49 -19 -116 0
49 -19 -117 0
49 -19 -118 0
49 -19 -119 0
49 -19 -120 0
49 -19 -121 0
49 -19 -122 0
49 -19 -123 0
49 -19 -124 0
49 -19 -125 0
49 -19 -126 0
49 -19 -127 0
49 -19 -128 0
49 -19 -129 0
49 -19 -130 0
49 -19 -131 0
49 -19 -132 0
49 -19 -133 0
49 -19 -134 0
49 -20 -108 0
49 -20 -109 0
49 -20 -110 0
49 -20 -111 0
49 -20 -112 0
49 -20 -113 0
49 -20 -114 0
49 -20 -115 0
49 -20 -116 0
49 -20 -117 0
49 -20 -118 0
49 -20 -119 0
49 -20 -120 0
49 -20 -121 0
49 -20 -122 0
49 -20 -123 0
49 -20 -124 0
49 -20 -125 0
49 -20 -126 0
49 -20 -127 0
49 -20 -128 0
49 -20 -129 0
49 -20 -130 0
49 -20 -131 0
49 -20 -132 0
49 -20 -133 0
49 -20 -134 0
49 -21 -114 0
49 -21 -115 0
49 -21 -116 0
49 -21 -117 0
49 -21 -118 0
49 -21 -119 0
49 -21 -120 0
49 -21 -121 0
49 -21 -122 0
49 -21 -123 0
49 -21 -124 0
49 -21 -125 0
49 -21 -126 0
49 -21 -127 0
49 -21 -128 0
49 -21 -129 0
49 -21 -130 0
49 -21 -131 0
49 -21 -132 0
49 -21 -133 0
49 -21 -134 0
49 -21 -135 0
49 -21 -136 0
49 -21 -137 0
49 -21 -138 0
49 -21 -139 0
49 -21 -140 0
49 -22 -114 0
49 -22 -115 0
49 -22 -116 0
49 -22 -117 0
49 -22 -118 0
49 -22 -119 0
49 -22 -120 0
49 -22 -121 0
49 -22 -122 0
49 -22 -123 0
49 -22 -124 0
49 -22 -125 0
49 -22 -126 0
49 -22 -127 0
49 -22 -128 0
49 -22 -129 0
49 -22 -130 0
49 -22 -131 0
49 -22 -132 0
49 -22 -133 0
49 -22 -134 0
49 -22 -135 0
49 -22 -136 0
49 -22 -137 0
49 -22 -138 0
49 -22 -139 0
49 -22 -140 0
49 -22 -141 0
49 -23 -114 0
49 -23 -115 0
49 -23 -116 0
49 -23 -117 0
49 -23 -118 0
49 -23 -119 0
49 -23 -120 0
49 -23 -121 0
49 -23 -122 0
49 -23 -123 0
49 -23 -124 0
49 -23 -125 0
49 -23 -126 0
49 -23 -127 0
49 -23 -128 0
49 -23 -129 0
49 -23 -130 0
49 -23 -131 0
49 -23 -132 0
49 -23 -133 0
49 -23 -134 0
49 -23 -135 0
49 -23 -136 0
49 -23 -137 0
49 -23 -138 0
49 -23 -139 0
49 -23 -140 0
49 -23 -141 0
49 -23 -142 0
49 -24 -114 0
49 -24 -115 0
49 -24 -116 0
49 -24 -117 0
49 -24 -118 0
49 -24 -119 0
49 -24 -120 0
49 -24 -121 0
49 -24 -122 0
49 -24 -123 0
49 -24 -124 0
49 -24 -125 0
49 -24 -126 0
49 -24 -127 0
49 -24 -128 0
49 -24 -129 0
49 -24 -130 0
49 -24 -131 0
49 -24 -132 0
49 -24 -133 0
49 -24 -134 0
49 -24 -135 0
49 -24 -136 0
49 -24 -137 0
49 -24 -138 0
49 -24 -139 0
49 -24 -140 0
49 -24 -141 0
49 -24 -142 0
49 -25 -115 0
49 -25 -116 0
49 -25 -117 0
49 -25 -118 0
49 -25 -119 0
49 -25 -120 0
49 -25 -121 0
49 -25 -122 0
49 -25 -123 0
49 -25 -124 0
49 -25 -125 0
49 -25 -126 0
49 -25 -127 0
49 -25 -128 0
49 -25 -129 0
49 -25 -130 0
49 -25 -131 0
49 -25 -132 0
49 -25 -133 0
49 -25 -134 0
49 -25 -135 0
49 -25 -136 0
49 -25 -137 0
49 -25 -138 0
49 -25 -139 0
49 -25 -140 0
49 -25 -141 0
49 -25 -142 0
49 -26 -122 0
49 -26 -123 0
49 -26 -124 0
49 -26 -125 0
49 -26 -126 0
49 -26 -127 0
49 -26 -128 0
49 -26 -129 0
49 -26 -130 0
49 -26 -131 0
49 -26 -132 0
49 -26 -133 0
49 -26 -134 0
49 -26 -135 0
49 -26 -136 0
49 -26 -137 0
49 -26 -138 0
49 -26 -139 0
49 -26 -140 0
49 -26 -141 0
49 -26 -142 0
49 -27 -123 0
49 -27 -124 0
49 -27 -125 0
49 -27 -126 0
49 -27 -127 0
49 -27 -128 0
49 -27 -129 0
49 -27 -130 0
49 -27 -131 0
49 -27 -132 0
49 -27 -133 0
49 -27 -134 0
49 -27 -135 0
49 -27 -136 0
49 -27 -137 0
49 -27 -138 0
49 -27 -139 0
49 -27 -140 0
49 -27 -141 0
49 -27 -142 0
49 -28 -124 0
49 -28 -125 0
49 -28 -126 0
49 -28 -127 0
49 -28 -128 0
49 -28 -129 0
49 -28 -130 0
49 -28 -131 0
49 -28 -132 0
49 -28 -133 0
49 -28 -134 0
49 -28 -135 0
49 -28 -136 0
49 -28 -137 0
49 -28 -138 0
49 -28 -139 0
49 -28 -140 0
49 -28 -141 0
49 -28 -142 0
49 -29 -125 0
49 -29 -126 0
49 -29 -127 0
49 -29 -128 0
49 -29 -129 0
49 -29 -130 0
49 -29 -131 0
49 -29 -132 0
49 -29 -133 0
49 -29 -134 0
49 -29 -135 0
49 -29 -136 0
49 -29 -137 0
49 -29 -138 0
49 -29 -139 0
49 -29 -140 0
49 -29 -141 0
49 -29 -142 0
49 -30 -126 0
49 -30 -127 0
49 -30 -128 0
49 -30 -129 0
49 -30 -130 0
49 -30 -131 0
49 -30 -132 0
49 -30 -133 0
49 -30 -134 0
49 -30 -135 0
49 -30 -136 0
49 -30 -137 0
49 -30 -138 0
49 -30 -139 0
49 -30 -140 0
49 -30 -141 0
49 -30 -142 0
49 -31 -127 0
49 -31 -128 0
49 -31 -129 0
49 -31 -130 0
49 -31 -131 0
49 -31 -132 0
49 -31 -133 0
49 -31 -134 0
49 -31 -135 0
49 -31 -136 0
49 -31 -137 0
49 -31 -138 0
49 -31 -139 0
49 -31 -140 0
49 -31 -141 0
49 -31 -142 0
49 -32 -128 0
49 -32 -129 0
49 -32 -130 0
49 -32 -131 0
49 -32 -132 0
49 -32 -133 0
49 -32 -134 0
49 -32 -135 0
49 -32 -136 0
49 -32 -137 0
49 -32 -138 0
49 -32 -139 0
49 -32 -140 0
49 -32 -141 0
49 -32 -142 0
49 -33 -129 0
49 -33 -130 0
49 -33 -131 0
49 -33 -132 0
49 -33 -133 0
49 -33 -134 0
49 -33 -135 0
49 -33 -136 0
49 -33 -137 0
49 -33 -138 0
49 -33 -139 0
49 -33 -140 0
49 -33 -141 0
49 -33 -142 0
49 -34 -130 0
49 -34 -131 0
49 -34 -132 0
49 -34 -133 0
49 -34 -134 0
49 -34 -135 0
49 -34 -136 0
49 -34 -137 0
49 -34 -138 0
49 -34 -139 0
49 -34 -140 0
49 -34 -141 0
49 -34 -142 0
49 -35 -131 0
49 -35 -132 0
49 -35 -133 0
49 -35 -134 0
49 -35 -135 0
49 -35 -136 0
49 -35 -137 0
49 -35 -138 0
49 -35 -139 0
49 -35 -140 0
49 -35 -141 0
49 -35 -142 0
49 -36 -132 0
49 -36 -133 0
49 -36 -134 0
49 -36 -135 0
49 -36 -136 0
49 -36 -137 0
49 -36 -138 0
49 -36 -139 0
49 -36 -140 0
49 -36 -141 0
49 -36 -142 0
49 -5 -199 0
49 -6 -199 0
49 -6 -200 0
49 -7 -199 0
49 -7 -200 0
49 -7 -201 0
49 -8 -200 0
49 -8 -201 0
49 -8 -202 0
49 -9 -201 0
49 -9 -202 0
49 -9 -203 0
49 -10 -202 0
49 -10 -203 0
49 -10 -204 0
49 -11 -203 0
49 -11 -204 0
49 -11 -205 0
49 -12 -204 0
49 -12 -205 0
49 -12 -206 0
49 -13 -205 0
49 -13 -206 0
49 -13 -207 0
49 -14 -206 0
49 -14 -207 0
49 -15 -207 0
49 -16 -208 0
49 -17 -208 0
49 -17 -209 0
49 -18 -208 0
49 -18 -209 0
49 -18 -210 0
49 -19 -209 0
49 -19 -210 0
49 -19 -211 0
49 -20 -210 0
49 -20 -211 0
49 -20 -212 0
49 -21 -215 0
49 -21 -216 0
49 -21 -217 0
49 -22 -216 0
49 -22 -217 0
49 -22 -218 0
49 -23 -217 0
49 -23 -218 0
49 -23 -219 0
49 -24 -218 0
49 -24 -219 0
49 -25 -219 0
49 -26 -220 0
49 -27 -220 0
49 -27 -221 0
49 -28 -220 0
49 -28 -221 0
49 -28 -222 0
49 -29 -221 0
49 -29 -222 0
49 -29 -223 0
49 -30 -222 0
49 -30 -223 0
49 -30 -224 0
49 -31 -223 0
49 -31 -224 0
49 -31 -225 0
49 -32 -224 0
49 -32 -225 0
49 -32 -226 0
49 -33 -225 0
49 -33 -226 0
49 -33 -227 0
49 -34 -226 0
49 -34 -227 0
49 -34 -228 0
49 -35 -227 0
49 -35 -228 0
49 -36 -228 0
49 -5 -229 0
49 -5 -230 0
49 -5 -231 0
49 -5 -232 0
49 -5 -233 0
49 -5 -234 0
49 -5 -235 0
49 -6 -229 0
49 -6 -230 0
49 -6 -231 0
49 -6 -232 0
49 -6 -233 0
49 -6 -234 0
49 -6 -235 0
49 -6 -236 0
49 -7 -229 0
49 -7 -230 0
49 -7 -231 0
49 -7 -232 0
49 -7 -233 0
49 -7 -234 0
49 -7 -235 0
49 -7 -236 0
49 -7 -237 0
49 -8 -229 0
49 -8 -230 0
49 -8 -231 0
49 -8 -232 0
49 -8 -233 0
49 -8 -234 0
49 -8 -235 0
49 -8 -236 0
49 -8 -237 0
49 -8 -238 0
49 -9 -229 0
49 -9 -230 0
49 -9 -231 0
49 -9 -232 0
49 -9 -233 0
49 -9 -234 0
49 -9 -235 0
49 -9 -236 0
49 -9 -237 0
49 -9 -238 0
49 -9 -239 0
49 -10 -229 0
49 -10 -230 0
49 -10 -231 0
49 -10 -232 0
49 -10 -233 0
49 -10 -234 0
49 -10 -235 0
49 -10 -236 0
49 -10 -237 0
49 -10 -238 0
49 -10 -239 0
49 -10 -240 0
49 -11 -229 0
49 -11 -230 0
49 -11 -231 0
49 -11 -232 0
49 -11 -233 0
49 -11 -234 0
49 -11 -235 0
49 -11 -236 0
49 -11 -237 0
49 -11 -238 0
49 -11 -239 0
49 -11 -240 0
49 -11 -241 0
49 -12 -229 0
49 -12 -230 0
49 -12 -231 0
49 -12 -232 0
49 -12 -233 0
49 -12 -234 0
49 -12 -235 0
49 -12 -236 0
49 -12 -237 0
49 -12 -238 0
49 -12 -239 0
49 -12 -240 0
49 -12 -241 0
49 -12 -242 0
49 -13 -229 0
49 -13 -230 0
49 -13 -231 0
49 -13 -232 0
49 -13 -233 0
49 -13 -234 0
49 -13 -235 0
49 -13 -236 0
49 -13 -237 0
49 -13 -238 0
49 -13 -239 0
49 -13 -240 0
49 -13 -241 0
49 -13 -242 0
49 -13 -243 0
49 -14 -229 0
49 -14 -230 0
49 -14 -231 0
49 -14 -232 0
49 -14 -233 0
49 -14 -234 0
49 -14 -235 0
49 -14 -236 0
49 -14 -237 0
49 -14 -238 0
49 -14 -239 0
49 -14 -240 0
49 -14 -241 0
49 -14 -242 0
49 -14 -243 0
49 -15 -229 0
49 -15 -230 0
49 -15 -231 0
49 -15 -232 0
49 -15 -233 0
49 -15 -234 0
49 -15 -235 0
49 -15 -236 0
49 -15 -237 0
49 -15 -238 0
49 -15 -239 0
49 -15 -240 0
49 -15 -241 0
49 -15 -242 0
49 -15 -243 0
49 -16 -229 0
49 -16 -230 0
49 -16 -231 0
49 -16 -232 0
49 -16 -233 0
49 -16 -234 0
49 -16 -235 0
49 -16 -236 0
49 -16 -237 0
49 -16 -238 0
49 -16 -239 0
49 -16 -240 0
49 -16 -241 0
49 -16 -242 0
49 -16 -243 0
49 -16 -244 0
49 -16 -245 0
49 -16 -246 0
49 -16 -247 0
49 -16 -248 0
49 -16 -249 0
49 -16 -250 0
49 -17 -229 0
49 -17 -230 0
49 -17 -231 0
49 -17 -232 0
49 -17 -233 0
49 -17 -234 0
49 -17 -235 0
49 -17 -236 0
49 -17 -237 0
49 -17 -238 0
49 -17 -239 0
49 -17 -240 0
49 -17 -241 0
49 -17 -242 0
49 -17 -243 0
49 -17 -244 0
49 -17 -245 0
49 -17 -246 0
49 -17 -247 0
49 -17 -248 0
49 -17 -249 0
49 -17 -250 0
49 -17 -251 0
49 -18 -229 0
49 -18 -230 0
49 -18 -231 0
49 -18 -232 0
49 -18 -233 0
49 -18 -234 0
49 -18 -235 0
49 -18 -236 0
49 -18 -237 0
49 -18 -238 0
49 -18 -239 0
49 -18 -240 0
49 -18 -241 0
49 -18 -242 0
49 -18 -243 0
49 -18 -244 0
49 -18 -245 0
49 -18 -246 0
49 -18 -247 0
49 -18 -248 0
49 -18 -249 0
49 -18 -250 0
49 -18 -251 0
49 -18 -252 0
49 -19 -230 0
49 -19 -231 0
49 -19 -232 0
49 -19 -233 0
49 -19 -234 0
49 -19 -235 0
49 -19 -236 0
49 -19 -237 0
49 -19 -238 0
49 -19 -239 0
49 -19 -240 0
49 -19 -241 0
49 -19 -242 0
49 -19 -243 0
49 -19 -244 0
49 -19 -245 0
49 -19 -246 0
49 -19 -247 0
49 -19 -248 0
49 -19 -249 0
49 -19 -250 0
49 -19 -251 0
49 -19 -252 0
49 -20 -231 0
49 -20 -232 0
49 -20 -233 0
49 -20 -234 0
49 -20 -235 0
49 -20 -236 0
49 -20 -237 0
49 -20 -238 0
49 -20 -239 0
49 -20 -240 0
49 -20 -241 0
49 -20 -242 0
49 -20 -243 0
49 -20 -244 0
49 -20 -245 0
49 -20 -246 0
49 -20 -247 0
49 -20 -248 0
49 -20 -249 0
49 -20 -250 0
49 -20 -251 0
49 -20 -252 0
49 -21 -235 0
49 -21 -236 0
49 -21 -237 0
49 -21 -238 0
49 -21 -239 0
49 -21 -240 0
49 -21 -241 0
49 -21 -242 0
49 -21 -243 0
49 -21 -244 0
49 -21 -245 0
49 -21 -246 0
49 -21 -247 0
49 -21 -248 0
49 -21 -249 0
49 -21 -250 0
49 -21 -251 0
49 -21 -252 0
49 -21 -253 0
49 -21 -254 0
49 -21 -255 0
49 -21 -256 0
49 -22 -235 0
49 -22 -236 0
49 -22 -237 0
49 -22 -238 0
49 -22 -239 0
49 -22 -240 0
49 -22 -241 0
49 -22 -242 0
49 -22 -243 0
49 -22 -244 0
49 -22 -245 0
49 -22 -246 0
49 -22 -247 0
49 -22 -248 0
49 -22 -249 0
49 -22 -250 0
49 -22 -251 0
49 -22 -252 0
49 -22 -253 0
49 -22 -254 0
49 -22 -255 0
49 -22 -256 0
49 -22 -257 0
49 -23 -235 0
49 -23 -236 0
49 -23 -237 0
49 -23 -238 0
49 -23 -239 0
49 -23 -240 0
49 -23 -241 0
49 -23 -242 0
49 -23 -243 0
49 -23 -244 0
49 -23 -245 0
49 -23 -246 0
49 -23 -247 0
49 -23 -248 0
49 -23 -249 0
49 -23 -250 0
49 -23 -251 0
49 -23 -252 0
49 -23 -253 0
49 -23 -254 0
49 -23 -255 0
49 -23 -256 0
49 -23 -257 0
49 -23 -258 0
49 -24 -236 0
49 -24 -237 0
49 -24 -238 0
49 -24 -239 0
49 -24 -240 0
49 -24 -241 0
49 -24 -242 0
49 -24 -243 0
49 -24 -244 0
49 -24 -245 0
49 -24 -246 0
49 -24 -247 0
49 -24 -248 0
49 -24 -249 0
49 -24 -250 0
49 -24 -251 0
49 -24 -252 0
49 -24 -253 0
49 -24 -254 0
49 -24 -255 0
49 -24 -256 0
49 -24 -257 0
49 -24 -258 0
49 -25 -237 0
49 -25 -238 0
49 -25 -239 0
49 -25 -240 0
49 -25 -241 0
49 -25 -242 0
49 -25 -243 0
49 -25 -244 0
49 -25 -245 0
49 -25 -246 0
49 -25 -247 0
49 -25 -248 0
49 -25 -249 0
49 -25 -250 0
49 -25 -251 0
49 -25 -252 0
49 -25 -253 0
49 -25 -254 0
49 -25 -255 0
49 -25 -256 0
49 -25 -257 0
49 -25 -258 0
49 -26 -244 0
49 -26 -245 0
49 -26 -246 0
49 -26 -247 0
49 -26 -248 0
49 -26 -249 0
49 -26 -250 0
49 -26 -251 0
49 -26 -252 0
49 -26 -253 0
49 -26 -254 0
49 -26 -255 0
49 -26 -256 0
49 -26 -257 0
49 -26 -258 0
49 -27 -244 0
49 -27 -245 0
49 -27 -246 0
49 -27 -247 0
49 -27 -248 0
49 -27 -249 0
49 -27 -250 0
49 -27 -251 0
49 -27 -252 0
49 -27 -253 0
49 -27 -254 0
49 -27 -255 0
49 -27 -256 0
49 -27 -257 0
49 -27 -258 0
49 -28 -244 0
49 -28 -245 0
49 -28 -246 0
49 -28 -247 0
49 -28 -248 0
49 -28 -249 0
49 -28 -250 0
49 -28 -251 0
49 -28 -252 0
49 -28 -253 0
49 -28 -254 0
49 -28 -255 0
49 -28 -256 0
49 -28 -257 0
49 -28 -258 0
49 -29 -245 0
49 -29 -246 0
49 -29 -247 0
49 -29 -248 0
49 -29 -249 0
49 -29 -250 0
49 -29 -251 0
49 -29 -252 0
49 -29 -253 0
49 -29 -254 0
49 -29 -255 0
49 -29 -256 0
49 -29 -257 0
49 -29 -258 0
49 -30 -246 0
49 -30 -247 0
49 -30 -248 0
49 -30 -249 0
49 -30 -250 0
49 -30 -251 0
49 -30 -252 0
49 -30 -253 0
49 -30 -254 0
49 -30 -255 0
49 -30 -256 0
49 -30 -257 0
49 -30 -258 0
49 -31 -247 0
49 -31 -248 0
49 -31 -249 0
49 -31 -250 0
49 -31 -251 0
49 -31 -252 0
49 -31 -253 0
49 -31 -254 0
49 -31 -255 0
49 -31 -256 0
49 -31 -257 0
49 -31 -258 0
49 -32 -248 0
49 -32 -249 0
49 -32 -250 0
49 -32 -251 0
49 -32 -252 0
49 -32 -253 0
49 -32 -254 0
49 -32 -255 0
49 -32 -256 0
49 -32 -257 0
49 -32 -258 0
49 -33 -249 0
49 -33 -250 0
49 -33 -251 0
49 -33 -252 0
49 -33 -253 0
49 -33 -254 0
49 -33 -255 0
49 -33 -256 0
49 -33 -257 0
49 -33 -258 0
49 -34 -250 0
49 -34 -251 0
49 -34 -252 0
49 -34 -253 0
49 -34 -254 0
49 -34 -255 0
49 -34 -256 0
49 -34 -257 0
49 -34 -258 0
49 -35 -251 0
49 -35 -252 0
49 -35 -253 0
49 -35 -254 0
49 -35 -255 0
49 -35 -256 0
49 -35 -257 0
49 -35 -258 0
49 -36 -252 0
49 -36 -253 0
49 -36 -254 0
49 -36 -255 0
49 -36 -256 0
49 -36 -257 0
49 -36 -258 0
49 -6 -613 0
49 -7 -614 0
49 -8 -615 0
49 -9 -616 0
49 -34 -617 0
49 -35 -618 0
49 -8 -619 0
49 -9 -619 0
49 -9 -620 0
49 -10 -619 0
49 -10 -620 0
49 -10 -621 0
49 -11 -619 0
49 -11 -620 0
49 -11 -621 0
49 -11 -622 0
49 -12 -619 0
49 -12 -620 0
49 -12 -621 0
49 -12 -622 0
49 -13 -619 0
49 -13 -620 0
49 -13 -621 0
49 -13 -622 0
49 -14 -619 0
49 -14 -620 0
49 -14 -621 0
49 -14 -622 0
49 -15 -619 0
49 -15 -620 0
49 -15 -621 0
49 -15 -622 0
49 -16 -619 0
49 -16 -620 0
49 -16 -621 0
49 -16 -622 0
49 -17 -619 0
49 -17 -620 0
49 -17 -621 0
49 -17 -622 0
49 -18 -619 0
49 -18 -620 0
49 -18 -621 0
49 -18 -622 0
49 -19 -619 0
49 -19 -620 0
49 -19 -621 0
49 -19 -622 0
49 -20 -619 0
49 -20 -620 0
49 -20 -621 0
49 -20 -622 0
49 -20 -623 0
49 -21 -620 0
49 -21 -621 0
49 -21 -622 0
49 -21 -623 0
49 -21 -624 0
49 -22 -621 0
49 -22 -622 0
49 -22 -623 0
49 -22 -624 0
49 -23 -622 0
49 -23 -623 0
49 -23 -624 0
49 -24 -623 0
49 -24 -624 0
49 -25 -623 0
49 -25 -624 0
49 -26 -623 0
49 -26 -624 0
49 -27 -623 0
49 -27 -624 0
49 -28 -623 0
49 -28 -624 0
49 -29 -623 0
49 -29 -624 0
49 -30 -623 0
49 -30 -624 0
49 -31 -623 0
49 -31 -624 0
49 -32 -623 0
49 -32 -624 0
49 -33 -624 0
49 -37 -71 0
49 -37 -72 0
49 -37 -73 0
49 -37 -74 0
49 -37 -75 0
49 -37 -76 0
49 -37 -77 0
49 -37 -78 0
49 -37 -79 0
49 -37 -80 0
49 -38 -71 0
49 -38 -72 0
49 -38 -73 0
49 -38 -74 0
49 -38 -75 0
49 -38 -76 0
49 -38 -77 0
49 -38 -78 0
49 -38 -79 0
49 -38 -80 0
49 -39 -71 0
49 -39 -72 0
49 -39 -73 0
49 -39 -74 0
49 -39 -75 0
49 -39 -76 0
49 -39 -77 0
49 -39 -78 0
49 -39 -79 0
49 -39 -80 0
49 -40 -71 0
49 -40 -72 0
49 -40 -73 0
49 -40 -74 0
49 -40 -75 0
49 -40 -76 0
49 -40 -77 0
49 -40 -78 0
49 -40 -79 0
49 -40 -80 0
49 -41 -71 0
49 -41 -72 0
49 -41 -73 0
49 -41 -74 0
49 -41 -75 0
49 -41 -76 0
49 -41 -77 0
49 -41 -78 0
49 -41 -79 0
49 -41 -80 0
49 -42 -74 0
49 -42 -75 0
49 -42 -76 0
49 -42 -77 0
49 -42 -78 0
49 -42 -79 0
49 -42 -80 0
49 -42 -81 0
49 -42 -82 0
49 -42 -83 0
49 -42 -84 0
49 -42 -85 0
49 -42 -86 0
49 -42 -87 0
49 -43 -75 0
49 -43 -76 0
49 -43 -77 0
49 -43 -78 0
49 -43 -79 0
49 -43 -80 0
49 -43 -81 0
49 -43 -82 0
49 -43 -83 0
49 -43 -84 0
49 -43 -85 0
49 -43 -86 0
49 -43 -87 0
49 -43 -88 0
49 -44 -76 0
49 -44 -77 0
49 -44 -78 0
49 -44 -79 0
49 -44 -80 0
49 -44 -81 0
49 -44 -82 0
49 -44 -83 0
49 -44 -84 0
49 -44 -85 0
49 -44 -86 0
49 -44 -87 0
49 -44 -88 0
49 -44 -89 0
49 -45 -77 0
49 -45 -78 0
49 -45 -79 0
49 -45 -80 0
49 -45 -81 0
49 -45 -82 0
49 -45 -83 0
49 -45 -84 0
49 -45 -85 0
49 -45 -86 0
49 -45 -87 0
49 -45 -88 0
49 -45 -89 0
49 -45 -90 0
49 -46 -78 0
49 -46 -79 0
49 -46 -80 0
49 -46 -81 0
49 -46 -82 0
49 -46 -83 0
49 -46 -84 0
49 -46 -85 0
49 -46 -86 0
49 -46 -87 0
49 -46 -88 0
49 -46 -89 0
49 -46 -90 0
49 -46 -91 0
49 -47 -79 0
49 -47 -80 0
49 -47 -81 0
49 -47 -82 0
49 -47 -83 0
49 -47 -84 0
49 -47 -85 0
49 -47 -86 0
49 -47 -87 0
49 -47 -88 0
49 -47 -89 0
49 -47 -90 0
49 -47 -91 0
49 -47 -92 0
49 -48 -80 0
49 -48 -81 0
49 -48 -82 0
49 -48 -83 0
49 -48 -84 0
49 -48 -85 0
49 -48 -86 0
49 -48 -87 0
49 -48 -88 0
49 -48 -89 0
49 -48 -90 0
49 -48 -91 0
49 -48 -92 0
49 -48 -93 0
49 -49 -81 0
49 -49 -82 0
49 -49 -83 0
49 -49 -84 0
49 -49 -85 0
49 -49 -86 0
49 -49 -87 0
49 -49 -88 0
49 -49 -89 0
49 -49 -90 0
49 -49 -91 0
49 -49 -92 0
49 -49 -93 0
49 -49 -94 0
49 -50 -81 0
49 -50 -82 0
49 -50 -83 0
49 -50 -84 0
49 -50 -85 0
49 -50 -86 0
49 -50 -87 0
49 -50 -88 0
49 -50 -89 0
49 -50 -90 0
49 -50 -91 0
49 -50 -92 0
49 -50 -93 0
49 -50 -94 0
49 -50 -95 0
49 -51 -81 0
49 -51 -82 0
49 -51 -83 0
49 -51 -84 0
49 -51 -85 0
49 -51 -86 0
49 -51 -87 0
49 -51 -88 0
49 -51 -89 0
49 -51 -90 0
49 -51 -91 0
49 -51 -92 0
49 -51 -93 0
49 -51 -94 0
49 -51 -95 0
49 -52 -81 0
49 -52 -82 0
49 -52 -83 0
49 -52 -84 0
49 -52 -85 0
49 -52 -86 0
49 -52 -87 0
49 -52 -88 0
49 -52 -89 0
49 -52 -90 0
49 -52 -91 0
49 -52 -92 0
49 -52 -93 0
49 -52 -94 0
49 -52 -95 0
49 -53 -81 0
49 -53 -82 0
49 -53 -83 0
49 -53 -84 0
49 -53 -85 0
49 -53 -86 0
49 -53 -87 0
49 -53 -88 0
49 -53 -89 0
49 -53 -90 0
49 -53 -91 0
49 -53 -92 0
49 -53 -93 0
49 -53 -94 0
49 -53 -95 0
49 -54 -81 0
49 -54 -82 0
49 -54 -83 0
49 -54 -84 0
49 -54 -85 0
49 -54 -86 0
49 -54 -87 0
49 -54 -88 0
49 -54 -89 0
49 -54 -90 0
49 -54 -91 0
49 -54 -92 0
49 -54 -93 0
49 -54 -94 0
49 -54 -95 0
49 -55 -81 0
49 -55 -82 0
49 -55 -83 0
49 -55 -84 0
49 -55 -85 0
49 -55 -86 0
49 -55 -87 0
49 -55 -88 0
49 -55 -89 0
49 -55 -90 0
49 -55 -91 0
49 -55 -92 0
49 -55 -93 0
49 -55 -94 0
49 -55 -95 0
49 -56 -81 0
49 -56 -82 0
49 -56 -83 0
49 -56 -84 0
49 -56 -85 0
49 -56 -86 0
49 -56 -87 0
49 -56 -88 0
49 -56 -89 0
49 -56 -90 0
49 -56 -91 0
49 -56 -92 0
49 -56 -93 0
49 -56 -94 0
49 -56 -95 0
49 -57 -82 0
49 -57 -83 0
49 -57 -84 0
49 -57 -85 0
49 -57 -86 0
49 -57 -87 0
49 -57 -88 0
49 -57 -89 0
49 -57 -90 0
49 -57 -91 0
49 -57 -92 0
49 -57 -93 0
49 -57 -94 0
49 -57 -95 0
49 -57 -96 0
49 -58 -83 0
49 -58 -84 0
49 -58 -85 0
49 -58 -86 0
49 -58 -87 0
49 -58 -88 0
49 -58 -89 0
49 -58 -90 0
49 -58 -91 0
49 -58 -92 0
49 -58 -93 0
49 -58 -94 0
49 -58 -95 0
49 -58 -96 0
49 -58 -97 0
49 -59 -84 0
49 -59 -85 0
49 -59 -86 0
49 -59 -87 0
49 -59 -88 0
49 -59 -89 0
49 -59 -90 0
49 -59 -91 0
49 -59 -92 0
49 -59 -93 0
49 -59 -94 0
49 -59 -95 0
49 -59 -96 0
49 -59 -97 0
49 -59 -98 0
49 -60 -85 0
49 -60 -86 0
49 -60 -87 0
49 -60 -88 0
49 -60 -89 0
49 -60 -90 0
49 -60 -91 0
49 -60 -92 0
49 -60 -93 0
49 -60 -94 0
49 -60 -95 0
49 -60 -96 0
49 -60 -97 0
49 -60 -98 0
49 -60 -99 0
49 -61 -86 0
49 -61 -87 0
49 -61 -88 0
49 -61 -89 0
49 -61 -90 0
49 -61 -91 0
49 -61 -92 0
49 -61 -93 0
49 -61 -94 0
49 -61 -95 0
49 -61 -96 0
49 -61 -97 0
49 -61 -98 0
49 -61 -99 0
49 -61 -100 0
49 -62 -87 0
49 -62 -88 0
49 -62 -89 0
49 -62 -90 0
49 -62 -91 0
49 -62 -92 0
49 -62 -93 0
49 -62 -94 0
49 -62 -95 0
49 -62 -96 0
49 -62 -97 0
49 -62 -98 0
49 -62 -99 0
49 -62 -100 0
49 -62 -101 0
49 -63 -88 0
49 -63 -89 0
49 -63 -90 0
49 -63 -91 0
49 -63 -92 0
49 -63 -93 0
49 -63 -94 0
49 -63 -95 0
49 -63 -96 0
49 -63 -97 0
49 -63 -98 0
49 -63 -99 0
49 -63 -100 0
49 -63 -101 0
49 -63 -102 0
49 -64 -95 0
49 -64 -96 0
49 -64 -97 0
49 -64 -98 0
49 -64 -99 0
49 -64 -100 0
49 -64 -101 0
49 -64 -102 0
49 -64 -103 0
49 -64 -104 0
49 -64 -105 0
49 -64 -106 0
49 -65 -96 0
49 -65 -97 0
49 -65 -98 0
49 -65 -99 0
49 -65 -100 0
49 -65 -101 0
49 -65 -102 0
49 -65 -103 0
49 -65 -104 0
49 -65 -105 0
49 -65 -106 0
49 -66 -96 0
49 -66 -97 0
49 -66 -98 0
49 -66 -99 0
49 -66 -100 0
49 -66 -101 0
49 -66 -102 0
49 -66 -103 0
49 -66 -104 0
49 -66 -105 0
49 -66 -106 0
49 -67 -96 0
49 -67 -97 0
49 -67 -98 0
49 -67 -99 0
49 -67 -100 0
49 -67 -101 0
49 -67 -102 0
49 -67 -103 0
49 -67 -104 0
49 -67 -105 0
49 -67 -106 0
49 -68 -96 0
49 -68 -97 0
49 -68 -98 0
49 -68 -99 0
49 -68 -100 0
49 -68 -101 0
49 -68 -102 0
49 -68 -103 0
49 -68 -104 0
49 -68 -105 0
49 -68 -106 0
49 -37 -107 0
49 -37 -108 0
49 -38 -107 0
49 -38 -108 0
49 -38 -109 0
49 -39 -107 0
49 -39 -108 0
49 -39 -109 0
49 -39 -110 0
49 -40 -107 0
49 -40 -108 0
49 -40 -109 0
49 -40 -110 0
49 -40 -111 0
49 -41 -108 0
49 -41 -109 0
49 -41 -110 0
49 -41 -111 0
49 -41 -112 0
49 -42 -114 0
49 -42 -115 0
49 -43 -114 0
49 -43 -115 0
49 -43 -116 0
49 -44 -114 0
49 -44 -115 0
49 -44 -116 0
49 -44 -117 0
49 -45 -114 0
49 -45 -115 0
49 -45 -116 0
49 -45 -117 0
49 -45 -118 0
49 -46 -115 0
49 -46 -116 0
49 -46 -117 0
49 -46 -118 0
49 -46 -119 0
49 -47 -116 0
49 -47 -117 0
49 -47 -118 0
49 -47 -119 0
49 -47 -120 0
49 -48 -117 0
49 -48 -118 0
49 -48 -119 0
49 -48 -120 0
49 -48 -121 0
49 -49 -118 0
49 -49 -119 0
49 -49 -120 0
49 -49 -121 0
49 -49 -122 0
49 -50 -119 0
49 -50 -120 0
49 -50 -121 0
49 -50 -122 0
49 -50 -123 0
49 -51 -120 0
49 -51 -121 0
49 -51 -122 0
49 -51 -123 0
49 -51 -124 0
49 -52 -121 0
49 -52 -122 0
49 -52 -123 0
49 -52 -124 0
49 -52 -125 0
49 -53 -122 0
49 -53 -123 0
49 -53 -124 0
49 -53 -125 0
49 -53 -126 0
49 -54 -123 0
49 -54 -124 0
49 -54 -125 0
49 -54 -126 0
49 -54 -127 0
49 -55 -124 0
49 -55 -125 0
49 -55 -126 0
49 -55 -127 0
49 -55 -128 0
49 -56 -125 0
49 -56 -126 0
49 -56 -127 0
49 -56 -128 0
49 -56 -129 0
49 -57 -126 0
49 -57 -127 0
49 -57 -128 0
49 -57 -129 0
49 -57 -130 0
49 -58 -127 0
49 -58 -128 0
49 -58 -129 0
49 -58 -130 0
49 -58 -131 0
49 -59 -128 0
49 -59 -129 0
49 -59 -130 0
49 -59 -131 0
49 -59 -132 0
49 -60 -129 0
49 -60 -130 0
49 -60 -131 0
49 -60 -132 0
49 -60 -133 0
49 -61 -130 0
49 -61 -131 0
49 -61 -132 0
49 -61 -133 0
49 -61 -134 0
49 -62 -131 0
49 -62 -132 0
49 -62 -133 0
49 -62 -134 0
49 -63 -132 0
49 -63 -133 0
49 -63 -134 0
49 -64 -136 0
49 -64 -137 0
49 -64 -138 0
49 -64 -139 0
49 -64 -140 0
49 -65 -137 0
49 -65 -138 0
49 -65 -139 0
49 -65 -140 0
49 -65 -141 0
49 -66 -138 0
49 -66 -139 0
49 -66 -140 0
49 -66 -141 0
49 -66 -142 0
49 -67 -139 0
49 -67 -140 0
49 -67 -141 0
49 -67 -142 0
49 -68 -140 0
49 -68 -141 0
49 -68 -142 0
49 -37 -199 0
49 -37 -200 0
49 -37 -201 0
49 -37 -202 0
49 -37 -203 0
49 -37 -204 0
49 -37 -205 0
49 -37 -206 0
49 -37 -207 0
49 -38 -199 0
49 -38 -200 0
49 -38 -201 0
49 -38 -202 0
49 -38 -203 0
49 -38 -204 0
49 -38 -205 0
49 -38 -206 0
49 -38 -207 0
49 -39 -199 0
49 -39 -200 0
49 -39 -201 0
49 -39 -202 0
49 -39 -203 0
49 -39 -204 0
49 -39 -205 0
49 -39 -206 0
49 -39 -207 0
49 -40 -199 0
49 -40 -200 0
49 -40 -201 0
49 -40 -202 0
49 -40 -203 0
49 -40 -204 0
49 -40 -205 0
49 -40 -206 0
49 -40 -207 0
49 -41 -199 0
49 -41 -200 0
49 -41 -201 0
49 -41 -202 0
49 -41 -203 0
49 -41 -204 0
49 -41 -205 0
49 -41 -206 0
49 -41 -207 0
49 -41 -208 0
49 -42 -201 0
49 -42 -202 0
49 -42 -203 0
49 -42 -204 0
49 -42 -205 0
49 -42 -206 0
49 -42 -207 0
49 -42 -208 0
49 -42 -209 0
49 -42 -210 0
49 -42 -211 0
49 -42 -212 0
49 -42 -213 0
49 -43 -202 0
49 -43 -203 0
49 -43 -204 0
49 -43 -205 0
49 -43 -206 0
49 -43 -207 0
49 -43 -208 0
49 -43 -209 0
49 -43 -210 0
49 -43 -211 0
49 -43 -212 0
49 -43 -213 0
49 -43 -214 0
49 -44 -203 0
49 -44 -204 0
49 -44 -205 0
49 -44 -206 0
49 -44 -207 0
49 -44 -208 0
49 -44 -209 0
49 -44 -210 0
49 -44 -211 0
49 -44 -212 0
49 -44 -213 0
49 -44 -214 0
49 -44 -215 0
49 -45 -204 0
49 -45 -205 0
49 -45 -206 0
49 -45 -207 0
49 -45 -208 0
49 -45 -209 0
49 -45 -210 0
49 -45 -211 0
49 -45 -212 0
49 -45 -213 0
49 -45 -214 0
49 -45 -215 0
49 -45 -216 0
49 -46 -205 0
49 -46 -206 0
49 -46 -207 0
49 -46 -208 0
49 -46 -209 0
49 -46 -210 0
49 -46 -211 0
49 -46 -212 0
49 -46 -213 0
49 -46 -214 0
49 -46 -215 0
49 -46 -216 0
49 -46 -217 0
49 -47 -206 0
49 -47 -207 0
49 -47 -208 0
49 -47 -209 0
49 -47 -210 0
49 -47 -211 0
49 -47 -212 0
49 -47 -213 0
49 -47 -214 0
49 -47 -215 0
49 -47 -216 0
49 -47 -217 0
49 -47 -218 0
49 -48 -207 0
49 -48 -208 0
49 -48 -209 0
49 -48 -210 0
49 -48 -211 0
49 -48 -212 0
49 -48 -213 0
49 -48 -214 0
49 -48 -215 0
49 -48 -216 0
49 -48 -217 0
49 -48 -218 0
49 -48 -219 0
49 -49 -208 0
49 -49 -209 0
49 -49 -210 0
49 -49 -211 0
49 -49 -212 0
49 -49 -213 0
49 -49 -214 0
49 -49 -215 0
49 -49 -216 0
49 -49 -217 0
49 -49 -218 0
49 -49 -219 0
49 -50 -208 0
49 -50 -209 0
49 -50 -210 0
49 -50 -211 0
49 -50 -212 0
49 -50 -213 0
49 -50 -214 0
49 -50 -215 0
49 -50 -216 0
49 -50 -217 0
49 -50 -218 0
49 -50 -219 0
49 -51 -208 0
49 -51 -209 0
49 -51 -210 0
49 -51 -211 0
49 -51 -212 0
49 -51 -213 0
49 -51 -214 0
49 -51 -215 0
49 -51 -216 0
49 -51 -217 0
49 -51 -218 0
49 -51 -219 0
49 -52 -208 0
49 -52 -209 0
49 -52 -210 0
49 -52 -211 0
49 -52 -212 0
49 -52 -213 0
49 -52 -214 0
49 -52 -215 0
49 -52 -216 0
49 -52 -217 0
49 -52 -218 0
49 -52 -219 0
49 -53 -208 0
49 -53 -209 0
49 -53 -210 0
49 -53 -211 0
49 -53 -212 0
49 -53 -213 0
49 -53 -214 0
49 -53 -215 0
49 -53 -216 0
49 -53 -217 0
49 -53 -218 0
49 -53 -219 0
49 -54 -208 0
49 -54 -209 0
49 -54 -210 0
49 -54 -211 0
49 -54 -212 0
49 -54 -213 0
49 -54 -214 0
49 -54 -215 0
49 -54 -216 0
49 -54 -217 0
49 -54 -218 0
49 -54 -219 0
49 -55 -208 0
49 -55 -209 0
49 -55 -210 0
49 -55 -211 0
49 -55 -212 0
49 -55 -213 0
49 -55 -214 0
49 -55 -215 0
49 -55 -216 0
49 -55 -217 0
49 -55 -218 0
49 -55 -219 0
49 -56 -208 0
49 -56 -209 0
49 -56 -210 0
49 -56 -211 0
49 -56 -212 0
49 -56 -213 0
49 -56 -214 0
49 -56 -215 0
49 -56 -216 0
49 -56 -217 0
49 -56 -218 0
49 -56 -219 0
49 -57 -208 0
49 -57 -209 0
49 -57 -210 0
49 -57 -211 0
49 -57 -212 0
49 -57 -213 0
49 -57 -214 0
49 -57 -215 0
49 -57 -216 0
49 -57 -217 0
49 -57 -218 0
49 -57 -219 0
49 -57 -220 0
49 -58 -209 0
49 -58 -210 0
49 -58 -211 0
49 -58 -212 0
49 -58 -213 0
49 -58 -214 0
49 -58 -215 0
49 -58 -216 0
49 -58 -217 0
49 -58 -218 0
49 -58 -219 0
49 -58 -220 0
49 -58 -221 0
49 -59 -210 0
49 -59 -211 0
49 -59 -212 0
49 -59 -213 0
49 -59 -214 0
49 -59 -215 0
49 -59 -216 0
49 -59 -217 0
49 -59 -218 0
49 -59 -219 0
49 -59 -220 0
49 -59 -221 0
49 -59 -222 0
49 -60 -211 0
49 -60 -212 0
49 -60 -213 0
49 -60 -214 0
49 -60 -215 0
49 -60 -216 0
49 -60 -217 0
49 -60 -218 0
49 -60 -219 0
49 -60 -220 0
49 -60 -221 0
49 -60 -222 0
49 -60 -223 0
49 -61 -212 0
49 -61 -213 0
49 -61 -214 0
49 -61 -215 0
49 -61 -216 0
49 -61 -217 0
49 -61 -218 0
49 -61 -219 0
49 -61 -220 0
49 -61 -221 0
49 -61 -222 0
49 -61 -223 0
49 -61 -224 0
49 -62 -213 0
49 -62 -214 0
49 -62 -215 0
49 -62 -216 0
49 -62 -217 0
49 -62 -218 0
49 -62 -219 0
49 -62 -220 0
49 -62 -221 0
49 -62 -222 0
49 -62 -223 0
49 -62 -224 0
49 -62 -225 0
49 -63 -214 0
49 -63 -215 0
49 -63 -216 0
49 -63 -217 0
49 -63 -218 0
49 -63 -219 0
49 -63 -220 0
49 -63 -221 0
49 -63 -222 0
49 -63 -223 0
49 -63 -224 0
49 -63 -225 0
49 -63 -226 0
49 -64 -219 0
49 -64 -220 0
49 -64 -221 0
49 -64 -222 0
49 -64 -223 0
49 -64 -224 0
49 -64 -225 0
49 -64 -226 0
49 -64 -227 0
49 -64 -228 0
49 -65 -220 0
49 -65 -221 0
49 -65 -222 0
49 -65 -223 0
49 -65 -224 0
49 -65 -225 0
49 -65 -226 0
49 -65 -227 0
49 -65 -228 0
49 -66 -220 0
49 -66 -221 0
49 -66 -222 0
49 -66 -223 0
49 -66 -224 0
49 -66 -225 0
49 -66 -226 0
49 -66 -227 0
49 -66 -228 0
49 -67 -220 0
49 -67 -221 0
49 -67 -222 0
49 -67 -223 0
49 -67 -224 0
49 -67 -225 0
49 -67 -226 0
49 -67 -227 0
49 -67 -228 0
49 -68 -220 0
49 -68 -221 0
49 -68 -222 0
49 -68 -223 0
49 -68 -224 0
49 -68 -225 0
49 -68 -226 0
49 -68 -227 0
49 -68 -228 0
49 -37 -229 0
49 -38 -229 0
49 -38 -230 0
49 -39 -229 0
49 -39 -230 0
49 -39 -231 0
49 -40 -230 0
49 -40 -231 0
49 -40 -232 0
49 -41 -231 0
49 -41 -232 0
49 -41 -233 0
49 -42 -235 0
49 -43 -235 0
49 -43 -236 0
49 -44 -235 0
49 -44 -236 0
49 -44 -237 0
49 -45 -236 0
49 -45 -237 0
49 -45 -238 0
49 -46 -237 0
49 -46 -238 0
49 -46 -239 0
49 -47 -238 0
49 -47 -239 0
49 -47 -240 0
49 -48 -239 0
49 -48 -240 0
49 -48 -241 0
49 -49 -240 0
49 -49 -241 0
49 -49 -242 0
49 -50 -241 0
49 -50 -242 0
49 -50 -243 0
49 -51 -242 0
49 -51 -243 0
49 -52 -243 0
49 -53 -244 0
49 -54 -244 0
49 -54 -245 0
49 -55 -244 0
49 -55 -245 0
49 -55 -246 0
49 -56 -245 0
49 -56 -246 0
49 -56 -247 0
49 -57 -246 0
49 -57 -247 0
49 -57 -248 0
49 -58 -247 0
49 -58 -248 0
49 -58 -249 0
49 -59 -248 0
49 -59 -249 0
49 -59 -250 0
49 -60 -249 0
49 -60 -250 0
49 -60 -251 0
49 -61 -250 0
49 -61 -251 0
49 -61 -252 0
49 -62 -251 0
49 -62 -252 0
49 -63 -252 0
49 -64 -254 0
49 -64 -255 0
49 -64 -256 0
49 -65 -255 0
49 -65 -256 0
49 -65 -257 0
49 -66 -256 0
49 -66 -257 0
49 -66 -258 0
49 -67 -257 0
49 -67 -258 0
49 -68 -258 0
49 -37 -613 0
49 -37 -614 0
49 -37 -615 0
49 -37 -616 0
49 -38 -613 0
49 -38 -614 0
49 -38 -615 0
49 -38 -616 0
49 -39 -613 0
49 -39 -614 0
49 -39 -615 0
49 -39 -616 0
49 -40 -613 0
49 -40 -614 0
49 -40 -615 0
49 -40 -616 0
49 -41 -613 0
49 -41 -614 0
49 -41 -615 0
49 -41 -616 0
49 -42 -613 0
49 -42 -614 0
49 -42 -615 0
49 -42 -616 0
49 -43 -613 0
49 -43 -614 0
49 -43 -615 0
49 -43 -616 0
49 -44 -614 0
49 -44 -615 0
49 -44 -616 0
49 -45 -615 0
49 -45 -616 0
49 -46 -616 0
49 -61 -617 0
49 -62 -617 0
49 -62 -618 0
49 -63 -617 0
49 -63 -618 0
49 -64 -617 0
49 -64 -618 0
49 -65 -617 0
49 -65 -618 0
49 -66 -617 0
49 -66 -618 0
49 -67 -617 0
49 -67 -618 0
49 -68 -617 0
49 -68 -618 0
49 -43 -619 0
49 -44 -620 0
49 -45 -621 0
49 -46 -622 0
49 -61 -623 0
49 -62 -624 0
49 -69 70 0
49 -71 114 0
49 -72 115 0
49 -73 116 0
49 -74 117 0
49 -75 118 0
49 -76 119 0
49 -77 120 0
49 -78 121 0
49 -79 122 0
49 -80 123 0
49 -81 107 0
49 -82 108 0
49 -83 109 0
49 -84 110 0
49 -85 111 0
49 -86 112 0
49 -87 113 0
49 -88 135 0
49 -89 136 0
49 -90 137 0
49 -91 138 0
49 -92 139 0
49 -93 140 0
49 -94 141 0
49 -95 142 0
49 -96 124 0
49 -97 125 0
49 -98 126 0
49 -99 127 0
49 -100 128 0
49 -101 129 0
49 -102 130 0
49 -103 131 0
49 -104 132 0
49 -105 133 0
49 -106 134 0
49 -71 -199 0
49 -72 -200 0
49 -73 -201 0
49 -74 -202 0
49 -75 -203 0
49 -76 -204 0
49 -77 -205 0
49 -78 -206 0
49 -79 -207 0
49 -81 -208 0
49 -82 -209 0
49 -83 -210 0
49 -84 -211 0
49 -85 -212 0
49 -86 -213 0
49 -89 -214 0
49 -90 -215 0
49 -91 -216 0
49 -92 -217 0
49 -93 -218 0
49 -94 -219 0
49 -97 -220 0
49 -98 -221 0
49 -99 -222 0
49 -100 -223 0
49 -101 -224 0
49 -102 -225 0
49 -103 -226 0
49 -104 -227 0
49 -105 -228 0
49 -71 -229 0
49 -71 -230 0
49 -71 -231 0
49 -71 -232 0
49 -71 -233 0
49 -71 -234 0
49 -72 -229 0
49 -72 -230 0
49 -72 -231 0
49 -72 -232 0
49 -72 -233 0
49 -72 -234 0
49 -73 -229 0
49 -73 -230 0
49 -73 -231 0
49 -73 -232 0
49 -73 -233 0
49 -73 -234 0
49 -73 -235 0
49 -74 -229 0
49 -74 -230 0
49 -74 -231 0
49 -74 -232 0
49 -74 -233 0
49 -74 -234 0
49 -74 -235 0
49 -74 -236 0
49 -75 -229 0
49 -75 -230 0
49 -75 -231 0
49 -75 -232 0
49 -75 -233 0
49 -75 -234 0
49 -75 -235 0
49 -75 -236 0
49 -75 -237 0
49 -76 -229 0
49 -76 -230 0
49 -76 -231 0
49 -76 -232 0
49 -76 -233 0
49 -76 -234 0
49 -76 -235 0
49 -76 -236 0
49 -76 -237 0
49 -76 -238 0
49 -77 -229 0
49 -77 -230 0
49 -77 -231 0
49 -77 -232 0
49 -77 -233 0
49 -77 -234 0
49 -77 -235 0
49 -77 -236 0
49 -77 -237 0
49 -77 -238 0
49 -77 -239 0
49 -78 -229 0
49 -78 -230 0
49 -78 -231 0
49 -78 -232 0
49 -78 -233 0
49 -78 -234 0
49 -78 -235 0
49 -78 -236 0
49 -78 -237 0
49 -78 -238 0
49 -78 -239 0
49 -78 -240 0
49 -79 -229 0
49 -79 -230 0
49 -79 -231 0
49 -79 -232 0
49 -79 -233 0
49 -79 -234 0
49 -79 -235 0
49 -79 -236 0
49 -79 -237 0
49 -79 -238 0
49 -79 -239 0
49 -79 -240 0
49 -79 -241 0
49 -80 -229 0
49 -80 -230 0
49 -80 -231 0
49 -80 -232 0
49 -80 -233 0
49 -80 -234 0
49 -80 -235 0
49 -80 -236 0
49 -80 -237 0
49 -80 -238 0
49 -80 -239 0
49 -80 -240 0
49 -80 -241 0
49 -80 -242 0
49 -81 -231 0
49 -81 -232 0
49 -81 -233 0
49 -81 -234 0
49 -81 -235 0
49 -81 -236 0
49 -81 -237 0
49 -81 -238 0
49 -81 -239 0
49 -81 -240 0
49 -81 -241 0
49 -81 -242 0
49 -81 -243 0
49 -81 -244 0
49 -81 -245 0
49 -81 -246 0
49 -81 -247 0
49 -81 -248 0
49 -82 -232 0
49 -82 -233 0
49 -82 -234 0
49 -82 -235 0
49 -82 -236 0
49 -82 -237 0
49 -82 -238 0
49 -82 -239 0
49 -82 -240 0
49 -82 -241 0
49 -82 -242 0
49 -82 -243 0
49 -82 -244 0
49 -82 -245 0
49 -82 -246 0
49 -82 -247 0
49 -82 -248 0
49 -82 -249 0
49 -83 -233 0
49 -83 -234 0
49 -83 -235 0
49 -83 -236 0
49 -83 -237 0
49 -83 -238 0
49 -83 -239 0
49 -83 -240 0
49 -83 -241 0
49 -83 -242 0
49 -83 -243 0
49 -83 -244 0
49 -83 -245 0
49 -83 -246 0
49 -83 -247 0
49 -83 -248 0
49 -83 -249 0
49 -83 -250 0
49 -84 -234 0
49 -84 -235 0
49 -84 -236 0
49 -84 -237 0
49 -84 -238 0
49 -84 -239 0
49 -84 -240 0
49 -84 -241 0
49 -84 -242 0
49 -84 -243 0
49 -84 -244 0
49 -84 -245 0
49 -84 -246 0
49 -84 -247 0
49 -84 -248 0
49 -84 -249 0
49 -84 -250 0
49 -84 -251 0
49 -85 -235 0
49 -85 -236 0
49 -85 -237 0
49 -85 -238 0
49 -85 -239 0
49 -85 -240 0
49 -85 -241 0
49 -85 -242 0
49 -85 -243 0
49 -85 -244 0
49 -85 -245 0
49 -85 -246 0
49 -85 -247 0
49 -85 -248 0
49 -85 -249 0
49 -85 -250 0
49 -85 -251 0
49 -85 -252 0
49 -86 -235 0
49 -86 -236 0
49 -86 -237 0
49 -86 -238 0
49 -86 -239 0
49 -86 -240 0
49 -86 -241 0
49 -86 -242 0
49 -86 -243 0
49 -86 -244 0
49 -86 -245 0
49 -86 -246 0
49 -86 -247 0
49 -86 -248 0
49 -86 -249 0
49 -86 -250 0
49 -86 -251 0
49 -86 -252 0
49 -87 -235 0
49 -87 -236 0
49 -87 -237 0
49 -87 -238 0
49 -87 -239 0
49 -87 -240 0
49 -87 -241 0
49 -87 -242 0
49 -87 -243 0
49 -87 -244 0
49 -87 -245 0
49 -87 -246 0
49 -87 -247 0
49 -87 -248 0
49 -87 -249 0
49 -87 -250 0
49 -87 -251 0
49 -87 -252 0
49 -88 -235 0
49 -88 -236 0
49 -88 -237 0
49 -88 -238 0
49 -88 -239 0
49 -88 -240 0
49 -88 -241 0
49 -88 -242 0
49 -88 -243 0
49 -88 -244 0
49 -88 -245 0
49 -88 -246 0
49 -88 -247 0
49 -88 -248 0
49 -88 -249 0
49 -88 -250 0
49 -88 -251 0
49 -88 -252 0
49 -89 -235 0
49 -89 -236 0
49 -89 -237 0
49 -89 -238 0
49 -89 -239 0
49 -89 -240 0
49 -89 -241 0
49 -89 -242 0
49 -89 -243 0
49 -89 -244 0
49 -89 -245 0
49 -89 -246 0
49 -89 -247 0
49 -89 -248 0
49 -89 -249 0
49 -89 -250 0
49 -89 -251 0
49 -89 -252 0
49 -90 -235 0
49 -90 -236 0
49 -90 -237 0
49 -90 -238 0
49 -90 -239 0
49 -90 -240 0
49 -90 -241 0
49 -90 -242 0
49 -90 -243 0
49 -90 -244 0
49 -90 -245 0
49 -90 -246 0
49 -90 -247 0
49 -90 -248 0
49 -90 -249 0
49 -90 -250 0
49 -90 -251 0
49 -90 -252 0
49 -91 -236 0
49 -91 -237 0
49 -91 -238 0
49 -91 -239 0
49 -91 -240 0
49 -91 -241 0
49 -91 -242 0
49 -91 -243 0
49 -91 -244 0
49 -91 -245 0
49 -91 -246 0
49 -91 -247 0
49 -91 -248 0
49 -91 -249 0
49 -91 -250 0
49 -91 -251 0
49 -91 -252 0
49 -91 -253 0
49 -92 -237 0
49 -92 -238 0
49 -92 -239 0
49 -92 -240 0
49 -92 -241 0
49 -92 -242 0
49 -92 -243 0
49 -92 -244 0
49 -92 -245 0
49 -92 -246 0
49 -92 -247 0
49 -92 -248 0
49 -92 -249 0
49 -92 -250 0
49 -92 -251 0
49 -92 -252 0
49 -92 -253 0
49 -92 -254 0
49 -93 -238 0
49 -93 -239 0
49 -93 -240 0
49 -93 -241 0
49 -93 -242 0
49 -93 -243 0
49 -93 -244 0
49 -93 -245 0
49 -93 -246 0
49 -93 -247 0
49 -93 -248 0
49 -93 -249 0
49 -93 -250 0
49 -93 -251 0
49 -93 -252 0
49 -93 -253 0
49 -93 -254 0
49 -93 -255 0
49 -94 -239 0
49 -94 -240 0
49 -94 -241 0
49 -94 -242 0
49 -94 -243 0
49 -94 -244 0
49 -94 -245 0
49 -94 -246 0
49 -94 -247 0
49 -94 -248 0
49 -94 -249 0
49 -94 -250 0
49 -94 -251 0
49 -94 -252 0
49 -94 -253 0
49 -94 -254 0
49 -94 -255 0
49 -94 -256 0
49 -95 -240 0
49 -95 -241 0
49 -95 -242 0
49 -95 -243 0
49 -95 -244 0
49 -95 -245 0
49 -95 -246 0
49 -95 -247 0
49 -95 -248 0
49 -95 -249 0
49 -95 -250 0
49 -95 -251 0
49 -95 -252 0
49 -95 -253 0
49 -95 -254 0
49 -95 -255 0
49 -95 -256 0
49 -95 -257 0
49 -96 -245 0
49 -96 -246 0
49 -96 -247 0
49 -96 -248 0
49 -96 -249 0
49 -96 -250 0
49 -96 -251 0
49 -96 -252 0
49 -96 -253 0
49 -96 -254 0
49 -96 -255 0
49 -96 -256 0
49 -96 -257 0
49 -96 -258 0
49 -97 -246 0
49 -97 -247 0
49 -97 -248 0
49 -97 -249 0
49 -97 -250 0
49 -97 -251 0
49 -97 -252 0
49 -97 -253 0
49 -97 -254 0
49 -97 -255 0
49 -97 -256 0
49 -97 -257 0
49 -97 -258 0
49 -98 -247 0
49 -98 -248 0
49 -98 -249 0
49 -98 -250 0
49 -98 -251 0
49 -98 -252 0
49 -98 -253 0
49 -98 -254 0
49 -98 -255 0
49 -98 -256 0
49 -98 -257 0
49 -98 -258 0
49 -99 -248 0
49 -99 -249 0
49 -99 -250 0
49 -99 -251 0
49 -99 -252 0
49 -99 -253 0
49 -99 -254 0
49 -99 -255 0
49 -99 -256 0
49 -99 -257 0
49 -99 -258 0
49 -100 -249 0
49 -100 -250 0
49 -100 -251 0
49 -100 -252 0
49 -100 -253 0
49 -100 -254 0
49 -100 -255 0
49 -100 -256 0
49 -100 -257 0
49 -100 -258 0
49 -101 -250 0
49 -101 -251 0
49 -101 -252 0
49 -101 -253 0
49 -101 -254 0
49 -101 -255 0
49 -101 -256 0
49 -101 -257 0
49 -101 -258 0
49 -102 -251 0
49 -102 -252 0
49 -102 -253 0
49 -102 -254 0
49 -102 -255 0
49 -102 -256 0
49 -102 -257 0
49 -102 -258 0
49 -103 -252 0
49 -103 -253 0
49 -103 -254 0
49 -103 -255 0
49 -103 -256 0
49 -103 -257 0
49 -103 -258 0
49 -104 -253 0
49 -104 -254 0
49 -104 -255 0
49 -104 -256 0
49 -104 -257 0
49 -104 -258 0
49 -105 -253 0
49 -105 -254 0
49 -105 -255 0
49 -105 -256 0
49 -105 -257 0
49 -105 -258 0
49 -106 -253 0
49 -106 -254 0
49 -106 -255 0
49 -106 -256 0
49 -106 -257 0
49 -106 -258 0
49 -71 -613 0
49 -71 -614 0
49 -71 -615 0
49 -71 -616 0
49 -72 -613 0
49 -72 -614 0
49 -72 -615 0
49 -72 -616 0
49 -73 -613 0
49 -73 -614 0
49 -73 -615 0
49 -73 -616 0
49 -74 -613 0
49 -74 -614 0
49 -74 -615 0
49 -74 -616 0
49 -75 -614 0
49 -75 -615 0
49 -75 -616 0
49 -76 -615 0
49 -76 -616 0
49 -77 -616 0
49 -101 -617 0
49 -102 -617 0
49 -102 -618 0
49 -103 -617 0
49 -103 -618 0
49 -104 -617 0
49 -104 -618 0
49 -105 -617 0
49 -105 -618 0
49 -106 -617 0
49 -106 -618 0
49 -76 -619 0
49 -77 -619 0
49 -77 -620 0
49 -78 -619 0
49 -78 -620 0
49 -78 -621 0
49 -79 -619 0
49 -79 -620 0
49 -79 -621 0
49 -79 -622 0
49 -80 -619 0
49 -80 -620 0
49 -80 -621 0
49 -80 -622 0
49 -81 -619 0
49 -81 -620 0
49 -81 -621 0
49 -81 -622 0
49 -82 -619 0
49 -82 -620 0
49 -82 -621 0
49 -82 -622 0
49 -83 -619 0
49 -83 -620 0
49 -83 -621 0
49 -83 -622 0
49 -84 -619 0
49 -84 -620 0
49 -84 -621 0
49 -84 -622 0
49 -85 -619 0
49 -85 -620 0
49 -85 -621 0
49 -85 -622 0
49 -86 -619 0
49 -86 -620 0
49 -86 -621 0
49 -86 -622 0
49 -87 -619 0
49 -87 -620 0
49 -87 -621 0
49 -87 -622 0
49 -87 -623 0
49 -88 -620 0
49 -88 -621 0
49 -88 -622 0
49 -88 -623 0
49 -88 -624 0
49 -89 -621 0
49 -89 -622 0
49 -89 -623 0
49 -89 -624 0
49 -90 -622 0
49 -90 -623 0
49 -90 -624 0
49 -91 -623 0
49 -91 -624 0
49 -92 -623 0
49 -92 -624 0
49 -93 -623 0
49 -93 -624 0
49 -94 -623 0
49 -94 -624 0
49 -95 -623 0
49 -95 -624 0
49 -96 -623 0
49 -96 -624 0
49 -97 -623 0
49 -97 -624 0
49 -98 -623 0
49 -98 -624 0
49 -99 -623 0
49 -99 -624 0
49 -100 -624 0
49 -107 -199 0
49 -107 -200 0
49 -107 -201 0
49 -107 -202 0
49 -107 -203 0
49 -107 -204 0
49 -107 -205 0
49 -107 -206 0
49 -107 -207 0
49 -107 -208 0
49 -108 -199 0
49 -108 -200 0
49 -108 -201 0
49 -108 -202 0
49 -108 -203 0
49 -108 -204 0
49 -108 -205 0
49 -108 -206 0
49 -108 -207 0
49 -108 -208 0
49 -108 -209 0
49 -109 -199 0
49 -109 -200 0
49 -109 -201 0
49 -109 -202 0
49 -109 -203 0
49 -109 -204 0
49 -109 -205 0
49 -109 -206 0
49 -109 -207 0
49 -109 -208 0
49 -109 -209 0
49 -109 -210 0
49 -110 -199 0
49 -110 -200 0
49 -110 -201 0
49 -110 -202 0
49 -110 -203 0
49 -110 -204 0
49 -110 -205 0
49 -110 -206 0
49 -110 -207 0
49 -110 -208 0
49 -110 -209 0
49 -110 -210 0
49 -110 -211 0
49 -111 -199 0
49 -111 -200 0
49 -111 -201 0
49 -111 -202 0
49 -111 -203 0
49 -111 -204 0
49 -111 -205 0
49 -111 -206 0
49 -111 -207 0
49 -111 -208 0
49 -111 -209 0
49 -111 -210 0
49 -111 -211 0
49 -111 -212 0
49 -112 -199 0
49 -112 -200 0
49 -112 -201 0
49 -112 -202 0
49 -112 -203 0
49 -112 -204 0
49 -112 -205 0
49 -112 -206 0
49 -112 -207 0
49 -112 -208 0
49 -112 -209 0
49 -112 -210 0
49 -112 -211 0
49 -112 -212 0
49 -112 -213 0
49 -113 -199 0
49 -113 -200 0
49 -113 -201 0
49 -113 -202 0
49 -113 -203 0
49 -113 -204 0
49 -113 -205 0
49 -113 -206 0
49 -113 -207 0
49 -113 -208 0
49 -113 -209 0
49 -113 -210 0
49 -113 -211 0
49 -113 -212 0
49 -113 -213 0
49 -114 -199 0
49 -114 -200 0
49 -114 -201 0
49 -114 -202 0
49 -114 -203 0
49 -114 -204 0
49 -114 -205 0
49 -114 -206 0
49 -114 -207 0
49 -114 -208 0
49 -114 -209 0
49 -114 -210 0
49 -114 -211 0
49 -114 -212 0
49 -114 -213 0
49 -114 -214 0
49 -114 -215 0
49 -114 -216 0
49 -114 -217 0
49 -115 -200 0
49 -115 -201 0
49 -115 -202 0
49 -115 -203 0
49 -115 -204 0
49 -115 -205 0
49 -115 -206 0
49 -115 -207 0
49 -115 -208 0
49 -115 -209 0
49 -115 -210 0
49 -115 -211 0
49 -115 -212 0
49 -115 -213 0
49 -115 -214 0
49 -115 -215 0
49 -115 -216 0
49 -115 -217 0
49 -115 -218 0
49 -116 -201 0
49 -116 -202 0
49 -116 -203 0
49 -116 -204 0
49 -116 -205 0
49 -116 -206 0
49 -116 -207 0
49 -116 -208 0
49 -116 -209 0
49 -116 -210 0
49 -116 -211 0
49 -116 -212 0
49 -116 -213 0
49 -116 -214 0
49 -116 -215 0
49 -116 -216 0
49 -116 -217 0
49 -116 -218 0
49 -116 -219 0
49 -117 -202 0
49 -117 -203 0
49 -117 -204 0
49 -117 -205 0
49 -117 -206 0
49 -117 -207 0
49 -117 -208 0
49 -117 -209 0
49 -117 -210 0
49 -117 -211 0
49 -117 -212 0
49 -117 -213 0
49 -117 -214 0
49 -117 -215 0
49 -117 -216 0
49 -117 -217 0
49 -117 -218 0
49 -117 -219 0
49 -118 -203 0
49 -118 -204 0
49 -118 -205 0
49 -118 -206 0
49 -118 -207 0
49 -118 -208 0
49 -118 -209 0
49 -118 -210 0
49 -118 -211 0
49 -118 -212 0
49 -118 -213 0
49 -118 -214 0
49 -118 -215 0
49 -118 -216 0
49 -118 -217 0
49 -118 -218 0
49 -118 -219 0
49 -119 -204 0
49 -119 -205 0
49 -119 -206 0
49 -119 -207 0
49 -119 -208 0
49 -119 -209 0
49 -119 -210 0
49 -119 -211 0
49 -119 -212 0
49 -119 -213 0
49 -119 -214 0
49 -119 -215 0
49 -119 -216 0
49 -119 -217 0
49 -119 -218 0
49 -119 -219 0
49 -120 -205 0
49 -120 -206 0
49 -120 -207 0
49 -120 -208 0
49 -120 -209 0
49 -120 -210 0
49 -120 -211 0
49 -120 -212 0
49 -120 -213 0
49 -120 -214 0
49 -120 -215 0
49 -120 -216 0
49 -120 -217 0
49 -120 -218 0
49 -120 -219 0
49 -121 -206 0
49 -121 -207 0
49 -121 -208 0
49 -121 -209 0
49 -121 -210 0
49 -121 -211 0
49 -121 -212 0
49 -121 -213 0
49 -121 -214 0
49 -121 -215 0
49 -121 -216 0
49 -121 -217 0
49 -121 -218 0
49 -121 -219 0
49 -122 -207 0
49 -122 -208 0
49 -122 -209 0
49 -122 -210 0
49 -122 -211 0
49 -122 -212 0
49 -122 -213 0
49 -122 -214 0
49 -122 -215 0
49 -122 -216 0
49 -122 -217 0
49 -122 -218 0
49 -122 -219 0
49 -123 -208 0
49 -123 -209 0
49 -123 -210 0
49 -123 -211 0
49 -123 -212 0
49 -123 -213 0
49 -123 -214 0
49 -123 -215 0
49 -123 -216 0
49 -123 -217 0
49 -123 -218 0
49 -123 -219 0
49 -124 -208 0
49 -124 -209 0
49 -124 -210 0
49 -124 -211 0
49 -124 -212 0
49 -124 -213 0
49 -124 -214 0
49 -124 -215 0
49 -124 -216 0
49 -124 -217 0
49 -124 -218 0
49 -124 -219 0
49 -125 -208 0
49 -125 -209 0
49 -125 -210 0
49 -125 -211 0
49 -125 -212 0
49 -125 -213 0
49 -125 -214 0
49 -125 -215 0
49 -125 -216 0
49 -125 -217 0
49 -125 -218 0
49 -125 -219 0
49 -125 -220 0
49 -126 -208 0
49 -126 -209 0
49 -126 -210 0
49 -126 -211 0
49 -126 -212 0
49 -126 -213 0
49 -126 -214 0
49 -126 -215 0
49 -126 -216 0
49 -126 -217 0
49 -126 -218 0
49 -126 -219 0
49 -126 -220 0
49 -126 -221 0
49 -127 -208 0
49 -127 -209 0
49 -127 -210 0
49 -127 -211 0
49 -127 -212 0
49 -127 -213 0
49 -127 -214 0
49 -127 -215 0
49 -127 -216 0
49 -127 -217 0
49 -127 -218 0
49 -127 -219 0
49 -127 -220 0
49 -127 -221 0
49 -127 -222 0
49 -128 -208 0
49 -128 -209 0
49 -128 -210 0
49 -128 -211 0
49 -128 -212 0
49 -128 -213 0
49 -128 -214 0
49 -128 -215 0
49 -128 -216 0
49 -128 -217 0
49 -128 -218 0
49 -128 -219 0
49 -128 -220 0
49 -128 -221 0
49 -128 -222 0
49 -128 -223 0
49 -129 -208 0
49 -129 -209 0
49 -129 -210 0
49 -129 -211 0
49 -129 -212 0
49 -129 -213 0
49 -129 -214 0
49 -129 -215 0
49 -129 -216 0
49 -129 -217 0
49 -129 -218 0
49 -129 -219 0
49 -129 -220 0
49 -129 -221 0
49 -129 -222 0
49 -129 -223 0
49 -129 -224 0
49 -130 -208 0
49 -130 -209 0
49 -130 -210 0
49 -130 -211 0
49 -130 -212 0
49 -130 -213 0
49 -130 -214 0
49 -130 -215 0
49 -130 -216 0
49 -130 -217 0
49 -130 -218 0
49 -130 -219 0
49 -130 -220 0
49 -130 -221 0
49 -130 -222 0
49 -130 -223 0
49 -130 -224 0
49 -130 -225 0
49 -131 -208 0
49 -131 -209 0
49 -131 -210 0
49 -131 -211 0
49 -131 -212 0
49 -131 -213 0
49 -131 -214 0
49 -131 -215 0
49 -131 -216 0
49 -131 -217 0
49 -131 -218 0
49 -131 -219 0
49 -131 -220 0
49 -131 -221 0
49 -131 -222 0
49 -131 -223 0
49 -131 -224 0
49 -131 -225 0
49 -131 -226 0
49 -132 -209 0
49 -132 -210 0
49 -132 -211 0
49 -132 -212 0
49 -132 -213 0
49 -132 -214 0
49 -132 -215 0
49 -132 -216 0
49 -132 -217 0
49 -132 -218 0
49 -132 -219 0
49 -132 -220 0
49 -132 -221 0
49 -132 -222 0
49 -132 -223 0
49 -132 -224 0
49 -132 -225 0
49 -132 -226 0
49 -132 -227 0
49 -133 -210 0
49 -133 -211 0
49 -133 -212 0
49 -133 -213 0
49 -133 -214 0
49 -133 -215 0
49 -133 -216 0
49 -133 -217 0
49 -133 -218 0
49 -133 -219 0
49 -133 -220 0
49 -133 -221 0
49 -133 -222 0
49 -133 -223 0
49 -133 -224 0
49 -133 -225 0
49 -133 -226 0
49 -133 -227 0
49 -133 -228 0
49 -134 -211 0
49 -134 -212 0
49 -134 -213 0
49 -134 -214 0
49 -134 -215 0
49 -134 -216 0
49 -134 -217 0
49 -134 -218 0
49 -134 -219 0
49 -134 -220 0
49 -134 -221 0
49 -134 -222 0
49 -134 -223 0
49 -134 -224 0
49 -134 -225 0
49 -134 -226 0
49 -134 -227 0
49 -134 -228 0
49 -135 -214 0
49 -135 -215 0
49 -135 -216 0
49 -135 -217 0
49 -135 -218 0
49 -135 -219 0
49 -135 -220 0
49 -135 -221 0
49 -135 -222 0
49 -135 -223 0
49 -135 -224 0
49 -135 -225 0
49 -135 -226 0
49 -135 -227 0
49 -135 -228 0
49 -136 -214 0
49 -136 -215 0
49 -136 -216 0
49 -136 -217 0
49 -136 -218 0
49 -136 -219 0
49 -136 -220 0
49 -136 -221 0
49 -136 -222 0
49 -136 -223 0
49 -136 -224 0
49 -136 -225 0
49 -136 -226 0
49 -136 -227 0
49 -136 -228 0
49 -137 -215 0
49 -137 -216 0
49 -137 -217 0
49 -137 -218 0
49 -137 -219 0
49 -137 -220 0
49 -137 -221 0
49 -137 -222 0
49 -137 -223 0
49 -137 -224 0
49 -137 -225 0
49 -137 -226 0
49 -137 -227 0
49 -137 -228 0
49 -138 -216 0
49 -138 -217 0
49 -138 -218 0
49 -138 -219 0
49 -138 -220 0
49 -138 -221 0
49 -138 -222 0
49 -138 -223 0
49 -138 -224 0
49 -138 -225 0
49 -138 -226 0
49 -138 -227 0
49 -138 -228 0
49 -139 -217 0
49 -139 -218 0
49 -139 -219 0
49 -139 -220 0
49 -139 -221 0
49 -139 -222 0
49 -139 -223 0
49 -139 -224 0
49 -139 -225 0
49 -139 -226 0
49 -139 -227 0
49 -139 -228 0
49 -140 -218 0
49 -140 -219 0
49 -140 -220 0
49 -140 -221 0
49 -140 -222 0
49 -140 -223 0
49 -140 -224 0
49 -140 -225 0
49 -140 -226 0
49 -140 -227 0
49 -140 -228 0
49 -141 -219 0
49 -141 -220 0
49 -141 -221 0
49 -141 -222 0
49 -141 -223 0
49 -141 -224 0
49 -141 -225 0
49 -141 -226 0
49 -141 -227 0
49 -141 -228 0
49 -142 -220 0
49 -142 -221 0
49 -142 -222 0
49 -142 -223 0
49 -142 -224 0
49 -142 -225 0
49 -142 -226 0
49 -142 -227 0
49 -142 -228 0
49 -107 -229 0
49 -108 -230 0
49 -109 -231 0
49 -110 -232 0
49 -111 -233 0
49 -112 -234 0
49 -114 -235 0
49 -115 -236 0
49 -116 -237 0
49 -117 -238 0
49 -118 -239 0
49 -119 -240 0
49 -120 -241 0
49 -121 -242 0
49 -122 -243 0
49 -125 -244 0
49 -126 -245 0
49 -127 -246 0
49 -128 -247 0
49 -129 -248 0
49 -130 -249 0
49 -131 -250 0
49 -132 -251 0
49 -133 -252 0
49 -136 -253 0
49 -137 -254 0
49 -138 -255 0
49 -139 -256 0
49 -140 -257 0
49 -141 -258 0
49 -107 -613 0
49 -107 -614 0
49 -107 -615 0
49 -107 -616 0
49 -108 -613 0
49 -108 -614 0
49 -108 -615 0
49 -108 -616 0
49 -109 -613 0
49 -109 -614 0
49 -109 -615 0
49 -109 -616 0
49 -110 -613 0
49 -110 -614 0
49 -110 -615 0
49 -110 -616 0
49 -111 -613 0
49 -111 -614 0
49 -111 -615 0
49 -111 -616 0
49 -112 -613 0
49 -112 -614 0
49 -112 -615 0
49 -112 -616 0
49 -113 -613 0
49 -113 -614 0
49 -113 -615 0
49 -113 -616 0
49 -114 -613 0
49 -114 -614 0
49 -114 -615 0
49 -114 -616 0
49 -115 -613 0
49 -115 -614 0
49 -115 -615 0
49 -115 -616 0
49 -116 -613 0
49 -116 -614 0
49 -116 -615 0
49 -116 -616 0
49 -117 -613 0
49 -117 -614 0
49 -117 -615 0
49 -117 -616 0
49 -118 -614 0
49 -118 -615 0
49 -118 -616 0
49 -119 -615 0
49 -119 -616 0
49 -120 -616 0
49 -129 -617 0
49 -130 -617 0
49 -130 -618 0
49 -131 -617 0
49 -131 -618 0
49 -132 -617 0
49 -132 -618 0
49 -133 -617 0
49 -133 -618 0
49 -134 -617 0
49 -134 -618 0
49 -135 -617 0
49 -135 -618 0
49 -136 -617 0
49 -136 -618 0
49 -137 -617 0
49 -137 -618 0
49 -138 -617 0
49 -138 -618 0
49 -139 -617 0
49 -139 -618 0
49 -140 -617 0
49 -140 -618 0
49 -141 -617 0
49 -141 -618 0
49 -142 -617 0
49 -142 -618 0
49 -114 -619 0
49 -114 -620 0
49 -114 -621 0
49 -114 -622 0
49 -115 -619 0
49 -115 -620 0
49 -115 -621 0
49 -115 -622 0
49 -116 -619 0
49 -116 -620 0
49 -116 -621 0
49 -116 -622 0
49 -117 -619 0
49 -117 -620 0
49 -117 -621 0
49 -117 -622 0
49 -118 -620 0
49 -118 -621 0
49 -118 -622 0
49 -119 -621 0
49 -119 -622 0
49 -120 -622 0
49 -129 -623 0
49 -130 -623 0
49 -130 -624 0
49 -131 -623 0
49 -131 -624 0
49 -132 -623 0
49 -132 -624 0
49 -133 -623 0
49 -133 -624 0
49 -134 -623 0
49 -134 -624 0
49 -143 154 0
49 -144 155 0
49 -145 156 0
49 -146 157 0
49 -147 158 0
49 -148 159 0
49 -149 160 0
49 -150 161 0
49 -151 162 0
49 -152 163 0
49 -153 164 0
49 -147 -168 0
49 -148 -168 0
49 -149 -168 0
49 -143 -170 0
49 -144 -170 0
49 -145 -170 0
49 -146 -170 0
49 -147 -170 0
49 -148 -170 0
49 -149 -170 0
49 -150 -170 0
49 -151 -170 0
49 -152 -170 0
49 -165 166 0
49 -167 169 0
49 -168 170 0
49 -168 -443 0
49 -168 -444 0
49 -168 -445 0
49 -168 -446 0
49 -168 -447 0
49 -168 -448 0
49 -168 -449 0
49 -168 -450 0
49 -168 -451 0
49 -168 -452 0
49 -170 -443 0
49 -170 -444 0
49 -170 -445 0
49 -170 -446 0
49 -170 -447 0
49 -170 -448 0
49 -170 -449 0
49 -170 -450 0
49 -170 -451 0
49 -171 172 0
49 -173 174 0
49 -175 176 0
49 -177 178 0
49 -179 180 0
49 -181 184 0
49 -182 185 0
49 -183 186 0
49 -187 188 0
49 -189 190 0
49 -191 192 0
49 -193 194 0
49 -195 196 0
49 -197 198 0
49 -199 235 0
49 -200 236 0
49 -201 237 0
49 -202 238 0
49 -203 239 0
49 -204 240 0
49 -205 241 0
49 -206 242 0
49 -207 243 0
49 -208 229 0
49 -209 230 0
49 -210 231 0
49 -211 232 0
49 -212 233 0
49 -213 234 0
49 -214 253 0
49 -215 254 0
49 -216 255 0
49 -217 256 0
49 -218 257 0
49 -219 258 0
49 -220 244 0
49 -221 245 0
49 -222 246 0
49 -223 247 0
49 -224 248 0
49 -225 249 0
49 -226 250 0
49 -227 251 0
49 -228 252 0
49 -199 -613 0
49 -199 -614 0
49 -199 -615 0
49 -200 -613 0
49 -200 -614 0
49 -200 -615 0
49 -200 -616 0
49 -201 -613 0
49 -201 -614 0
49 -201 -615 0
49 -201 -616 0
49 -202 -614 0
49 -202 -615 0
49 -202 -616 0
49 -203 -615 0
49 -203 -616 0
49 -204 -616 0
49 -225 -617 0
49 -226 -617 0
49 -226 -618 0
49 -227 -617 0
49 -227 -618 0
49 -228 -617 0
49 -228 -618 0
49 -203 -619 0
49 -204 -619 0
49 -204 -620 0
49 -205 -619 0
49 -205 -620 0
49 -205 -621 0
49 -206 -619 0
49 -206 -620 0
49 -206 -621 0
49 -206 -622 0
49 -207 -619 0
49 -207 -620 0
49 -207 -621 0
49 -207 -622 0
49 -208 -619 0
49 -208 -620 0
49 -208 -621 0
49 -208 -622 0
49 -209 -619 0
49 -209 -620 0
49 -209 -621 0
49 -209 -622 0
49 -210 -619 0
49 -210 -620 0
49 -210 -621 0
49 -210 -622 0
49 -211 -619 0
49 -211 -620 0
49 -211 -621 0
49 -211 -622 0
49 -212 -619 0
49 -212 -620 0
49 -212 -621 0
49 -212 -622 0
49 -213 -619 0
49 -213 -620 0
49 -213 -621 0
49 -213 -622 0
49 -213 -623 0
49 -214 -620 0
49 -214 -621 0
49 -214 -622 0
49 -214 -623 0
49 -214 -624 0
49 -215 -621 0
49 -215 -622 0
49 -215 -623 0
49 -215 -624 0
49 -216 -622 0
49 -216 -623 0
49 -216 -624 0
49 -217 -623 0
49 -217 -624 0
49 -218 -623 0
49 -218 -624 0
49 -219 -623 0
49 -219 -624 0
49 -220 -623 0
49 -220 -624 0
49 -221 -623 0
49 -221 -624 0
49 -222 -623 0
49 -222 -624 0
49 -223 -623 0
49 -223 -624 0
49 -224 -624 0
49 -229 -613 0
49 -229 -614 0
49 -229 -615 0
49 -229 -616 0
49 -230 -613 0
49 -230 -614 0
49 -230 -615 0
49 -230 -616 0
49 -231 -613 0
49 -231 -614 0
49 -231 -615 0
49 -231 -616 0
49 -232 -613 0
49 -232 -614 0
49 -232 -615 0
49 -232 -616 0
49 -233 -613 0
49 -233 -614 0
49 -233 -615 0
49 -233 -616 0
49 -234 -613 0
49 -234 -614 0
49 -234 -615 0
49 -234 -616 0
49 -235 -613 0
49 -235 -614 0
49 -235 -615 0
49 -235 -616 0
49 -236 -613 0
49 -236 -614 0
49 -236 -615 0
49 -236 -616 0
49 -237 -613 0
49 -237 -614 0
49 -237 -615 0
49 -237 -616 0
49 -238 -614 0
49 -238 -615 0
49 -238 -616 0
49 -239 -615 0
49 -239 -616 0
49 -240 -616 0
49 -249 -617 0
49 -250 -617 0
49 -250 -618 0
49 -251 -617 0
49 -251 -618 0
49 -252 -617 0
49 -252 -618 0
49 -253 -617 0
49 -253 -618 0
49 -254 -617 0
49 -254 -618 0
49 -255 -617 0
49 -255 -618 0
49 -256 -617 0
49 -256 -618 0
49 -257 -617 0
49 -257 -618 0
49 -258 -617 0
49 -258 -618 0
49 -235 -619 0
49 -235 -620 0
49 -235 -621 0
49 -236 -619 0
49 -236 -620 0
49 -236 -621 0
49 -236 -622 0
49 -237 -619 0
49 -237 -620 0
49 -237 -621 0
49 -237 -622 0
49 -238 -620 0
49 -238 -621 0
49 -238 -622 0
49 -239 -621 0
49 -239 -622 0
49 -240 -622 0
49 -249 -623 0
49 -250 -623 0
49 -250 -624 0
49 -251 -623 0
49 -251 -624 0
49 -252 -623 0
49 -252 -624 0
49 -259 262 0
49 -260 263 0
49 -261 264 0
49 -265 266 0
49 -267 268 0
49 -269 280 0
49 -270 281 0
49 -271 282 0
49 -272 283 0
49 -273 284 0
49 -274 285 0
49 -275 286 0
49 -276 287 0
49 -277 288 0
49 -278 289 0
49 -279 290 0
49 -291 292 0
49 -293 294 0
49 -295 296 0
49 -297 298 0
49 -299 300 0
49 -301 302 0
49 -303 306 0
49 -304 307 0
49 -305 308 0
49 -309 310 0
49 -311 312 0
49 -313 317 0
49 -314 318 0
49 -315 319 0
49 -316 320 0
49 -314 -495 0
49 -314 -496 0
49 -314 -497 0
49 -314 -498 0
49 -314 -499 0
49 -314 -500 0
49 -314 -501 0
49 -314 -502 0
49 -314 -503 0
49 -314 -504 0
49 -315 -496 0
49 -315 -497 0
49 -315 -498 0
49 -315 -499 0
49 -315 -500 0
49 -315 -501 0
49 -315 -502 0
49 -315 -503 0
49 -315 -504 0
49 -316 -497 0
49 -316 -498 0
49 -316 -499 0
49 -316 -500 0
49 -316 -501 0
49 -316 -502 0
49 -316 -503 0
49 -316 -504 0
49 -315 -516 0
49 -316 -516 0
49 -316 -517 0
49 -314 -522 0
49 -314 -523 0
49 -314 -524 0
49 -315 -523 0
49 -315 -524 0
49 -316 -524 0
49 -314 -601 0
49 -314 -602 0
49 -314 -603 0
49 -314 -604 0
49 -314 -605 0
49 -314 -606 0
49 -315 -602 0
49 -315 -603 0
49 -315 -604 0
49 -315 -605 0
49 -315 -606 0
49 -316 -603 0
49 -316 -604 0
49 -316 -605 0
49 -316 -606 0
49 -318 -483 0
49 -318 -484 0
49 -318 -485 0
49 -318 -486 0
49 -318 -487 0
49 -318 -488 0
49 -318 -489 0
49 -318 -490 0
49 -319 -483 0
49 -319 -484 0
49 -319 -485 0
49 -319 -486 0
49 -319 -487 0
49 -319 -488 0
49 -319 -489 0
49 -319 -490 0
49 -319 -491 0
49 -320 -483 0
49 -320 -484 0
49 -320 -485 0
49 -320 -486 0
49 -320 -487 0
49 -320 -488 0
49 -320 -489 0
49 -320 -490 0
49 -320 -491 0
49 -320 -492 0
49 -318 -495 0
49 -318 -496 0
49 -318 -497 0
49 -318 -498 0
49 -318 -499 0
49 -318 -500 0
49 -318 -501 0
49 -319 -496 0
49 -319 -497 0
49 -319 -498 0
49 -319 -499 0
49 -319 -500 0
49 -319 -501 0
49 -319 -502 0
49 -320 -497 0
49 -320 -498 0
49 -320 -499 0
49 -320 -500 0
49 -320 -501 0
49 -320 -502 0
49 -320 -503 0
49 -319 -516 0
49 -320 -516 0
49 -320 -517 0
49 -319 -521 0
49 -320 -521 0
49 -320 -522 0
49 -321 324 0
49 -322 325 0
49 -323 326 0
49 -327 328 0
49 -329 330 0
49 -331 332 0
49 -333 334 0
49 -335 336 0
49 -337 338 0
49 -339 340 0
49 -341 342 0
49 -343 354 0
49 -344 355 0
49 -345 356 0
49 -346 357 0
49 -347 358 0
49 -348 359 0
49 -349 360 0
49 -350 361 0
49 -351 362 0
49 -352 363 0
49 -353 364 0
49 -365 366 0
49 -367 368 0
49 -369 370 0
49 -371 382 0
49 -372 383 0
49 -373 384 0
49 -374 385 0
49 -375 386 0
49 -376 387 0
49 -377 388 0
49 -378 389 0
49 -379 390 0
49 -380 391 0
49 -381 392 0
49 -393 394 0
49 -395 396 0
49 -397 400 0
49 -398 401 0
49 -399 402 0
49 -403 404 0
49 -405 406 0
49 -407 409 0
49 -408 410 0
49 -411 412 0
49 -413 414 0
49 -415 416 0
49 -417 418 0
49 -419 420 0
49 -421 422 0
49 -423 424 0
49 -425 426 0
49 -427 428 0
49 -429 430 0
49 -431 442 0
49 -432 443 0
49 -433 444 0
49 -434 445 0
49 -435 446 0
49 -436 447 0
49 -437 448 0
49 -438 449 0
49 -439 450 0
49 -440 451 0
49 -441 452 0
49 -444 -617 0
49 -445 -617 0
49 -445 -618 0
49 -446 -617 0
49 -446 -618 0
49 -447 -617 0
49 -447 -618 0
49 -448 -617 0
49 -448 -618 0
49 -449 -617 0
49 -449 -618 0
49 -450 -617 0
49 -450 -618 0
49 -451 -617 0
49 -451 -618 0
49 -452 -617 0
49 -452 -618 0
49 -443 -623 0
49 -444 -623 0
49 -444 -624 0
49 -445 -623 0
49 -445 -624 0
49 -446 -623 0
49 -446 -624 0
49 -447 -623 0
49 -447 -624 0
49 -448 -623 0
49 -448 -624 0
49 -449 -623 0
49 -449 -624 0
49 -450 -623 0
49 -450 -624 0
49 -451 -623 0
49 -451 -624 0
49 -452 -623 0
49 -452 -624 0
49 -453 464 0
49 -454 465 0
49 -455 466 0
49 -456 467 0
49 -457 468 0
49 -458 469 0
49 -459 470 0
49 -460 471 0
49 -461 472 0
49 -462 473 0
49 -463 474 0
49 -475 476 0
49 -477 478 0
49 -479 480 0
49 -481 482 0
49 -483 494 0
49 -484 495 0
49 -485 496 0
49 -486 497 0
49 -487 498 0
49 -488 499 0
49 -489 500 0
49 -490 501 0
49 -491 502 0
49 -492 503 0
49 -493 504 0
49 -488 -516 0
49 -489 -516 0
49 -489 -517 0
49 -490 -516 0
49 -490 -517 0
49 -490 -518 0
49 -491 -516 0
49 -491 -517 0
49 -491 -518 0
49 -491 -519 0
49 -492 -516 0
49 -492 -517 0
49 -492 -518 0
49 -492 -519 0
49 -493 -517 0
49 -493 -518 0
49 -493 -519 0
49 -483 -600 0
49 -483 -601 0
49 -483 -602 0
49 -483 -603 0
49 -483 -604 0
49 -483 -605 0
49 -483 -606 0
49 -484 -600 0
49 -484 -601 0
49 -484 -602 0
49 -484 -603 0
49 -484 -604 0
49 -484 -605 0
49 -484 -606 0
49 -485 -600 0
49 -485 -601 0
49 -485 -602 0
49 -485 -603 0
49 -485 -604 0
49 -485 -605 0
49 -485 -606 0
49 -486 -600 0
49 -486 -601 0
49 -486 -602 0
49 -486 -603 0
49 -486 -604 0
49 -486 -605 0
49 -486 -606 0
49 -487 -601 0
49 -487 -602 0
49 -487 -603 0
49 -487 -604 0
49 -487 -605 0
49 -487 -606 0
49 -488 -602 0
49 -488 -603 0
49 -488 -604 0
49 -488 -605 0
49 -488 -606 0
49 -489 -603 0
49 -489 -604 0
49 -489 -605 0
49 -489 -606 0
49 -490 -604 0
49 -490 -605 0
49 -490 -606 0
49 -491 -605 0
49 -491 -606 0
49 -492 -606 0
49 -495 -521 0
49 -496 -521 0
49 -496 -522 0
49 -497 -521 0
49 -497 -522 0
49 -497 -523 0
49 -498 -521 0
49 -498 -522 0
49 -498 -523 0
49 -498 -524 0
49 -499 -521 0
49 -499 -522 0
49 -499 -523 0
49 -499 -524 0
49 -500 -521 0
49 -500 -522 0
49 -500 -523 0
49 -500 -524 0
49 -501 -521 0
49 -501 -522 0
49 -501 -523 0
49 -501 -524 0
49 -502 -521 0
49 -502 -522 0
49 -502 -523 0
49 -502 -524 0
49 -503 -521 0
49 -503 -522 0
49 -503 -523 0
49 -503 -524 0
49 -504 -521 0
49 -504 -522 0
49 -504 -523 0
49 -504 -524 0
49 -495 -592 0
49 -496 -592 0
49 -496 -593 0
49 -497 -592 0
49 -497 -593 0
49 -497 -594 0
49 -498 -592 0
49 -498 -593 0
49 -498 -594 0
49 -498 -595 0
49 -499 -592 0
49 -499 -593 0
49 -499 -594 0
49 -499 -595 0
49 -499 -596 0
49 -500 -592 0
49 -500 -593 0
49 -500 -594 0
49 -500 -595 0
49 -500 -596 0
49 -500 -597 0
49 -501 -592 0
49 -501 -593 0
49 -501 -594 0
49 -501 -595 0
49 -501 -596 0
49 -501 -597 0
49 -501 -598 0
49 -502 -592 0
49 -502 -593 0
49 -502 -594 0
49 -502 -595 0
49 -502 -596 0
49 -502 -597 0
49 -502 -598 0
49 -503 -592 0
49 -503 -593 0
49 -503 -594 0
49 -503 -595 0
49 -503 -596 0
49 -503 -597 0
49 -503 -598 0
49 -504 -592 0
49 -504 -593 0
49 -504 -594 0
49 -504 -595 0
49 -504 -596 0
49 -504 -597 0
49 -504 -598 0
49 -495 -600 0
49 -496 -600 0
49 -496 -601 0
49 -497 -600 0
49 -497 -601 0
49 -497 -602 0
49 -498 -601 0
49 -498 -602 0
49 -498 -603 0
49 -499 -602 0
49 -499 -603 0
49 -499 -604 0
49 -500 -603 0
49 -500 -604 0
49 -500 -605 0
49 -501 -604 0
49 -501 -605 0
49 -501 -606 0
49 -502 -605 0
49 -502 -606 0
49 -503 -606 0
49 -505 506 0
49 -507 508 0
49 -509 510 0
49 -511 513 0
49 -512 514 0
49 -515 520 0
49 -516 521 0
49 -517 522 0
49 -518 523 0
49 -519 524 0
49 -516 -601 0
49 -516 -602 0
49 -516 -603 0
49 -516 -604 0
49 -516 -605 0
49 -516 -606 0
49 -517 -602 0
49 -517 -603 0
49 -517 -604 0
49 -517 -605 0
49 -517 -606 0
49 -518 -603 0
49 -518 -604 0
49 -518 -605 0
49 -518 -606 0
49 -519 -604 0
49 -519 -605 0
49 -519 -606 0
49 -522 -592 0
49 -523 -592 0
49 -523 -593 0
49 -524 -592 0
49 -524 -593 0
49 -524 -594 0
49 -521 -601 0
49 -521 -602 0
49 -521 -603 0
49 -521 -604 0
49 -521 -605 0
49 -521 -606 0
49 -522 -602 0
49 -522 -603 0
49 -522 -604 0
49 -522 -605 0
49 -522 -606 0
49 -523 -603 0
49 -523 -604 0
49 -523 -605 0
49 -523 -606 0
49 -524 -604 0
49 -524 -605 0
49 -524 -606 0
49 -525 526 0
49 -527 528 0
49 -529 533 0
49 -530 534 0
49 -531 535 0
49 -532 536 0
49 -530 -544 0
49 -530 -545 0
49 -530 -546 0
49 -530 -547 0
49 -530 -548 0
49 -530 -549 0
49 -530 -550 0
49 -530 -551 0
49 -531 -545 0
49 -531 -546 0
49 -531 -547 0
49 -531 -548 0
49 -531 -549 0
49 -531 -550 0
49 -531 -551 0
49 -532 -546 0
49 -532 -547 0
49 -532 -548 0
49 -532 -549 0
49 -532 -550 0
49 -532 -551 0
49 -530 -554 0
49 -530 -555 0
49 -530 -556 0
49 -530 -557 0
49 -530 -558 0
49 -530 -559 0
49 -530 -560 0
49 -530 -561 0
49 -530 -562 0
49 -531 -555 0
49 -531 -556 0
49 -531 -557 0
49 -531 -558 0
49 -531 -559 0
49 -531 -560 0
49 -531 -561 0
49 -531 -562 0
49 -532 -556 0
49 -532 -557 0
49 -532 -558 0
49 -532 -559 0
49 -532 -560 0
49 -532 -561 0
49 -532 -562 0
49 -530 -564 0
49 -530 -565 0
49 -531 -564 0
49 -531 -565 0
49 -532 -564 0
49 -532 -565 0
49 -530 -567 0
49 -530 -568 0
49 -531 -567 0
49 -531 -568 0
49 -532 -567 0
49 -532 -568 0
49 -534 -567 0
49 -534 -568 0
49 -535 -567 0
49 -535 -568 0
49 -536 -567 0
49 -536 -568 0
49 -537 538 0
49 -539 540 0
49 -541 552 0
49 -542 553 0
49 -543 554 0
49 -544 555 0
49 -545 556 0
49 -546 557 0
49 -547 558 0
49 -548 559 0
49 -549 560 0
49 -550 561 0
49 -551 562 0
49 -563 566 0
49 -564 567 0
49 -565 568 0
49 -569 570 0
49 -571 572 0
49 -573 574 0
49 -575 576 0
49 -577 578 0
49 -579 580 0
49 -581 582 0
49 -583 584 0
49 -585 586 0
49 -587 588 0
49 -589 590 0
49 -591 599 0
49 -592 600 0
49 -593 601 0
49 -594 602 0
49 -595 603 0
49 -596 604 0
49 -597 605 0
49 -598 606 0
49 -607 608 0
49 -609 610 0
49 -611 612 0
49 -613 619 0
49 -614 620 0
49 -615 621 0
49 -616 622 0
49 -617 623 0
49 -618 624 0
49 -1 1048 0
49 -2 1061 0
49 -3 1048 0
49 -4 1061 0
49 -5 1043 0
49 -6 1044 0
49 -7 1045 0
49 -8 1046 0
49 -9 1047 0
49 -10 1048 0
49 -11 1049 0
49 -12 1050 0
49 -13 1051 0
49 -14 1052 0
49 -15 1053 0
49 -16 1056 0
49 -17 1057 0
49 -18 1058 0
49 -19 1059 0
49 -20 1060 0
49 -21 1075 0
49 -22 1076 0
49 -23 1077 0
49 -24 1078 0
49 -25 1079 0
49 -26 1080 0
49 -27 1081 0
49 -28 1082 0
49 -29 1083 0
49 -30 1084 0
49 -31 1085 0
49 -32 1086 0
49 -33 1087 0
49 -34 1088 0
49 -35 1089 0
49 -36 1090 0
49 -37 1043 0
49 -38 1044 0
49 -39 1045 0
49 -40 1046 0
49 -41 1047 0
49 -42 1056 0
49 -43 1057 0
49 -44 1058 0
49 -45 1059 0
49 -46 1060 0
49 -47 1061 0
49 -48 1062 0
49 -49 1063 0
49 -50 1064 0
49 -51 1065 0
49 -52 1066 0
49 -53 1068 0
49 -54 1069 0
49 -55 1070 0
49 -56 1071 0
49 -57 1072 0
49 -58 1074 0
49 -59 1075 0
49 -60 1076 0
49 -61 1077 0
49 -62 1078 0
49 -63 1079 0
49 -64 1086 0
49 -65 1087 0
49 -66 1088 0
49 -67 1089 0
49 -68 1090 0
49 -69 1053 0
49 -70 1066 0
49 -71 1044 0
49 -72 1045 0
49 -73 1046 0
49 -74 1047 0
49 -75 1048 0
49 -76 1049 0
49 -77 1050 0
49 -78 1051 0
49 -79 1052 0
49 -80 1053 0
49 -81 1057 0
49 -82 1058 0
49 -83 1059 0
49 -84 1060 0
49 -85 1061 0
49 -86 1062 0
49 -87 1063 0
49 -88 1071 0
49 -89 1072 0
49 -90 1074 0
49 -91 1075 0
49 -92 1076 0
49 -93 1077 0
49 -94 1078 0
49 -95 1079 0
49 -96 1080 0
49 -97 1081 0
49 -98 1082 0
49 -99 1083 0
49 -100 1084 0
49 -101 1085 0
49 -102 1086 0
49 -103 1087 0
49 -104 1088 0
49 -105 1089 0
49 -106 1090 0
49 -107 1044 0
49 -108 1045 0
49 -109 1046 0
49 -110 1047 0
49 -111 1048 0
49 -112 1049 0
49 -113 1050 0
49 -114 1057 0
49 -115 1058 0
49 -116 1059 0
49 -117 1060 0
49 -118 1061 0
49 -119 1062 0
49 -120 1063 0
49 -121 1064 0
49 -122 1065 0
49 -123 1066 0
49 -124 1068 0
49 -125 1069 0
49 -126 1070 0
49 -127 1071 0
49 -128 1072 0
49 -129 1074 0
49 -130 1075 0
49 -131 1076 0
49 -132 1077 0
49 -133 1078 0
49 -134 1079 0
49 -135 1083 0
49 -136 1084 0
49 -137 1085 0
49 -138 1086 0
49 -139 1087 0
49 -140 1088 0
49 -141 1089 0
49 -142 1090 0
49 -143 1080 0
49 -144 1081 0
49 -145 1082 0
49 -146 1083 0
49 -147 1084 0
49 -148 1085 0
49 -149 1086 0
49 -150 1087 0
49 -151 1088 0
49 -152 1089 0
49 -153 1090 0
49 -154 1068 0
49 -155 1069 0
49 -156 1070 0
49 -157 1071 0
49 -158 1072 0
49 -159 1074 0
49 -160 1075 0
49 -161 1076 0
49 -162 1077 0
49 -163 1078 0
49 -164 1079 0
49 -165 1048 0
49 -166 1061 0
49 -167 1050 0
49 -168 1085 0
49 -169 1063 0
49 -170 1074 0
49 -171 1053 0
49 -172 1066 0
49 -173 1049 0
49 -174 1062 0
49 -175 1053 0
49 -176 1066 0
49 -177 1048 0
49 -178 1061 0
49 -179 1049 0
49 -180 1062 0
49 -181 1080 0
49 -182 1089 0
49 -183 1090 0
49 -184 1068 0
49 -185 1078 0
49 -186 1079 0
49 -187 1054 0
49 -188 1067 0
49 -189 1051 0
49 -190 1064 0
49 -191 1047 0
49 -192 1060 0
49 -193 1053 0
49 -194 1066 0
49 -195 1051 0
49 -196 1064 0
49 -197 1049 0
49 -198 1062 0
49 -199 1044 0
49 -200 1045 0
49 -201 1046 0
49 -202 1047 0
49 -203 1048 0
49 -204 1049 0
49 -205 1050 0
49 -206 1051 0
49 -207 1052 0
49 -208 1057 0
49 -209 1058 0
49 -210 1059 0
49 -211 1060 0
49 -212 1061 0
49 -213 1062 0
49 -214 1072 0
49 -215 1074 0
49 -216 1075 0
49 -217 1076 0
49 -218 1077 0
49 -219 1078 0
49 -220 1081 0
49 -221 1082 0
49 -222 1083 0
49 -223 1084 0
49 -224 1085 0
49 -225 1086 0
49 -226 1087 0
49 -227 1088 0
49 -228 1089 0
49 -229 1044 0
49 -230 1045 0
49 -231 1046 0
49 -232 1047 0
49 -233 1048 0
49 -234 1049 0
49 -235 1057 0
49 -236 1058 0
49 -237 1059 0
49 -238 1060 0
49 -239 1061 0
49 -240 1062 0
49 -241 1063 0
49 -242 1064 0
49 -243 1065 0
49 -244 1069 0
49 -245 1070 0
49 -246 1071 0
49 -247 1072 0
49 -248 1074 0
49 -249 1075 0
49 -250 1076 0
49 -251 1077 0
49 -252 1078 0
49 -253 1084 0
49 -254 1085 0
49 -255 1086 0
49 -256 1087 0
49 -257 1088 0
49 -258 1089 0
49 -259 1080 0
49 -260 1089 0
49 -261 1090 0
49 -262 1068 0
49 -263 1078 0
49 -264 1079 0
49 -265 1054 0
49 -266 1067 0
49 -267 1047 0
49 -268 1060 0
49 -269 1080 0
49 -270 1081 0
49 -271 1082 0
49 -272 1083 0
49 -273 1084 0
49 -274 1085 0
49 -275 1086 0
49 -276 1087 0
49 -277 1088 0
49 -278 1089 0
49 -279 1090 0
49 -280 1068 0
49 -281 1069 0
49 -282 1070 0
49 -283 1071 0
49 -284 1072 0
49 -285 1074 0
49 -286 1075 0
49 -287 1076 0
49 -288 1077 0
49 -289 1078 0
49 -290 1079 0
49 -291 1049 0
49 -292 1062 0
49 -293 1052 0
49 -294 1065 0
49 -295 1048 0
49 -296 1061 0
49 -297 1053 0
49 -298 1066 0
49 -299 1054 0
49 -300 1067 0
49 -301 1050 0
49 -302 1063 0
49 -303 1080 0
49 -304 1089 0
49 -305 1090 0
49 -306 1068 0
49 -307 1078 0
49 -308 1079 0
49 -309 1055 0
49 -310 1073 0
49 -311 1049 0
49 -312 1062 0
49 -313 1051 0
49 -314 1084 0
49 -315 1085 0
49 -316 1086 0
49 -317 1064 0
49 -318 1072 0
49 -319 1074 0
49 -320 1075 0
49 -321 1080 0
49 -322 1089 0
49 -323 1090 0
49 -324 1068 0
49 -325 1078 0
49 -326 1079 0
49 -327 1052 0
49 -328 1065 0
49 -329 1047 0
49 -330 1060 0
49 -331 1051 0
49 -332 1064 0
49 -333 1047 0
49 -334 1060 0
49 -335 1051 0
49 -336 1064 0
49 -337 1047 0
49 -338 1060 0
49 -339 1054 0
49 -340 1067 0
49 -341 1051 0
49 -342 1064 0
49 -343 1080 0
49 -344 1081 0
49 -345 1082 0
49 -346 1083 0
49 -347 1084 0
49 -348 1085 0
49 -349 1086 0
49 -350 1087 0
49 -351 1088 0
49 -352 1089 0
49 -353 1090 0
49 -354 1068 0
49 -355 1069 0
49 -356 1070 0
49 -357 1071 0
49 -358 1072 0
49 -359 1074 0
49 -360 1075 0
49 -361 1076 0
49 -362 1077 0
49 -363 1078 0
49 -364 1079 0
49 -365 1054 0
49 -366 1067 0
49 -367 1055 0
49 -368 1073 0
49 -369 1053 0
49 -370 1066 0
49 -371 1080 0
49 -372 1081 0
49 -373 1082 0
49 -374 1083 0
49 -375 1084 0
49 -376 1085 0
49 -377 1086 0
49 -378 1087 0
49 -379 1088 0
49 -380 1089 0
49 -381 1090 0
49 -382 1068 0
49 -383 1069 0
49 -384 1070 0
49 -385 1071 0
49 -386 1072 0
49 -387 1074 0
49 -388 1075 0
49 -389 1076 0
49 -390 1077 0
49 -391 1078 0
49 -392 1079 0
49 -393 1050 0
49 -394 1063 0
49 -395 1047 0
49 -396 1060 0
49 -397 1080 0
49 -398 1089 0
49 -399 1090 0
49 -400 1068 0
49 -401 1078 0
49 -402 1079 0
49 -403 1047 0
49 -404 1060 0
49 -405 1053 0
49 -406 1066 0
49 -407 1080 0
49 -408 1090 0
49 -409 1068 0
49 -410 1079 0
49 -411 1054 0
49 -412 1067 0
49 -413 1047 0
49 -414 1060 0
49 -415 1049 0
49 -416 1062 0
49 -417 1047 0
49 -418 1060 0
49 -419 1049 0
49 -420 1062 0
49 -421 1047 0
49 -422 1060 0
49 -423 1048 0
49 -424 1061 0
49 -425 1047 0
49 -426 1060 0
49 -427 1051 0
49 -428 1064 0
49 -429 1047 0
49 -430 1060 0
49 -431 1080 0
49 -432 1081 0
49 -433 1082 0
49 -434 1083 0
49 -435 1084 0
49 -436 1085 0
49 -437 1086 0
49 -438 1087 0
49 -439 1088 0
49 -440 1089 0
49 -441 1090 0
49 -442 1068 0
49 -443 1069 0
49 -444 1070 0
49 -445 1071 0
49 -446 1072 0
49 -447 1074 0
49 -448 1075 0
49 -449 1076 0
49 -450 1077 0
49 -451 1078 0
49 -452 1079 0
49 -453 1080 0
49 -454 1081 0
49 -455 1082 0
49 -456 1083 0
49 -457 1084 0
49 -458 1085 0
49 -459 1086 0
49 -460 1087 0
49 -461 1088 0
49 -462 1089 0
49 -463 1090 0
49 -464 1068 0
49 -465 1069 0
49 -466 1070 0
49 -467 1071 0
49 -468 1072 0
49 -469 1074 0
49 -470 1075 0
49 -471 1076 0
49 -472 1077 0
49 -473 1078 0
49 -474 1079 0
49 -475 1054 0
49 -476 1067 0
49 -477 1048 0
49 -478 1061 0
49 -479 1051 0
49 -480 1064 0
49 -481 1053 0
49 -482 1066 0
49 -483 1080 0
49 -484 1081 0
49 -485 1082 0
49 -486 1083 0
49 -487 1084 0
49 -488 1085 0
49 -489 1086 0
49 -490 1087 0
49 -491 1088 0
49 -492 1089 0
49 -493 1090 0
49 -494 1068 0
49 -495 1069 0
49 -496 1070 0
49 -497 1071 0
49 -498 1072 0
49 -499 1074 0
49 -500 1075 0
49 -501 1076 0
49 -502 1077 0
49 -503 1078 0
49 -504 1079 0
49 -505 1055 0
49 -506 1073 0
49 -507 1047 0
49 -508 1060 0
49 -509 1050 0
49 -510 1063 0
49 -511 1080 0
49 -512 1090 0
49 -513 1068 0
49 -514 1079 0
49 -515 1048 0
49 -516 1087 0
49 -517 1088 0
49 -518 1089 0
49 -519 1090 0
49 -520 1061 0
49 -521 1076 0
49 -522 1077 0
49 -523 1078 0
49 -524 1079 0
49 -525 1050 0
49 -526 1063 0
49 -527 1050 0
49 -528 1063 0
49 -529 1048 0
49 -530 1088 0
49 -531 1089 0
49 -532 1090 0
49 -533 1061 0
49 -534 1077 0
49 -535 1078 0
49 -536 1079 0
49 -537 1047 0
49 -538 1060 0
49 -539 1048 0
49 -540 1061 0
49 -541 1080 0
49 -542 1081 0
49 -543 1082 0
49 -544 1083 0
49 -545 1084 0
49 -546 1085 0
49 -547 1086 0
49 -548 1087 0
49 -549 1088 0
49 -550 1089 0
49 -551 1090 0
49 -552 1068 0
49 -553 1069 0
49 -554 1070 0
49 -555 1071 0
49 -556 1072 0
49 -557 1074 0
49 -558 1075 0
49 -559 1076 0
49 -560 1077 0
49 -561 1078 0
49 -562 1079 0
49 -563 1080 0
49 -564 1089 0
49 -565 1090 0
49 -566 1068 0
49 -567 1078 0
49 -568 1079 0
49 -569 1055 0
49 -570 1073 0
49 -571 1055 0
49 -572 1073 0
49 -573 1049 0
49 -574 1062 0
49 -575 1047 0
49 -576 1060 0
49 -577 1048 0
49 -578 1061 0
49 -579 1048 0
49 -580 1061 0
49 -581 1052 0
49 -582 1065 0
49 -583 1052 0
49 -584 1065 0
49 -585 1047 0
49 -586 1060 0
49 -587 1055 0
49 -588 1073 0
49 -589 1055 0
49 -590 1073 0
49 -591 1053 0
49 -592 1082 0
49 -593 1083 0
49 -594 1084 0
49 -595 1085 0
49 -596 1086 0
49 -597 1087 0
49 -598 1088 0
49 -599 1066 0
49 -600 1070 0
49 -601 1071 0
49 -602 1072 0
49 -603 1074 0
49 -604 1075 0
49 -605 1076 0
49 -606 1077 0
49 -607 1054 0
49 -608 1067 0
49 -609 1054 0
49 -610 1067 0
49 -611 1053 0
49 -612 1066 0
49 -613 1044 0
49 -614 1045 0
49 -615 1046 0
49 -616 1047 0
49 -617 1088 0
49 -618 1089 0
49 -619 1057 0
49 -620 1058 0
49 -621 1059 0
49 -622 1060 0
49 -623 1077 0
49 -624 1078 0
