c Dataset: TUD916.4
c Encoding: DSE
c DecisionVars: 2886
c OrderVars: 0
c CardinalityAuxVars: 1948
c LabelVars: 48
c TotalVars: 4882
c OrderClauses: 0
c CardinalityClauses: 6474
c DistanceClauses: 6312
c LabelLinkClauses: 2886
c SoftClauses: 48
c HardClauses: 15672
c TotalClauses: 15720
p wcnf 4882 15720 49
1 -4835 0
1 -4836 0
1 -4837 0
1 -4838 0
1 -4839 0
1 -4840 0
1 -4841 0
1 -4842 0
1 -4843 0
1 -4844 0
1 -4845 0
1 -4846 0
1 -4847 0
1 -4848 0
1 -4849 0
1 -4850 0
1 -4851 0
1 -4852 0
1 -4853 0
1 -4854 0
1 -4855 0
1 -4856 0
1 -4857 0
1 -4858 0
1 -4859 0
1 -4860 0
1 -4861 0
1 -4862 0
1 -4863 0
1 -4864 0
1 -4865 0
1 -4866 0
1 -4867 0
1 -4868 0
1 -4869 0
1 -4870 0
1 -4871 0
1 -4872 0
1 -4873 0
1 -4874 0
1 -4875 0
1 -4876 0
1 -4877 0
1 -4878 0
1 -4879 0
1 -4880 0
1 -4881 0
1 -4882 0
49 1 0
49 2 0
49 3 0
49 4 0
49 5 6 7 8 9 10 11 0
49 -5 2887 0
49 -2887 2888 0
49 -6 -2887 0
49 -6 2888 0
49 -2888 2889 0
49 -7 -2888 0
49 -7 2889 0
49 -2889 2890 0
49 -8 -2889 0
49 -8 2890 0
49 -2890 2891 0
49 -9 -2890 0
49 -9 2891 0
49 -2891 2892 0
49 -10 -2891 0
49 -10 2892 0
49 -11 -2892 0
49 12 13 14 15 16 17 18 0
49 -12 2893 0
49 -2893 2894 0
49 -13 -2893 0
49 -13 2894 0
49 -2894 2895 0
49 -14 -2894 0
49 -14 2895 0
49 -2895 2896 0
49 -15 -2895 0
49 -15 2896 0
49 -2896 2897 0
49 -16 -2896 0
49 -16 2897 0
49 -2897 2898 0
49 -17 -2897 0
49 -17 2898 0
49 -18 -2898 0
49 19 0
49 20 0
49 21 0
49 22 0
49 23 0
49 24 0
49 25 0
49 26 0
49 27 0
49 28 0
49 29 0
49 30 0
49 31 32 33 34 35 0
49 -31 2899 0
49 -2899 2900 0
49 -32 -2899 0
49 -32 2900 0
49 -2900 2901 0
49 -33 -2900 0
49 -33 2901 0
49 -2901 2902 0
49 -34 -2901 0
49 -34 2902 0
49 -35 -2902 0
49 36 37 38 39 40 0
49 -36 2903 0
49 -2903 2904 0
49 -37 -2903 0
49 -37 2904 0
49 -2904 2905 0
49 -38 -2904 0
49 -38 2905 0
49 -2905 2906 0
49 -39 -2905 0
49 -39 2906 0
49 -40 -2906 0
49 41 0
49 42 0
49 43 44 45 46 47 48 49 50 51 52 53 0
49 -43 2907 0
49 -2907 2908 0
49 -44 -2907 0
49 -44 2908 0
49 -2908 2909 0
49 -45 -2908 0
49 -45 2909 0
49 -2909 2910 0
49 -46 -2909 0
49 -46 2910 0
49 -2910 2911 0
49 -47 -2910 0
49 -47 2911 0
49 -2911 2912 0
49 -48 -2911 0
49 -48 2912 0
49 -2912 2913 0
49 -49 -2912 0
49 -49 2913 0
49 -2913 2914 0
49 -50 -2913 0
49 -50 2914 0
49 -2914 2915 0
49 -51 -2914 0
49 -51 2915 0
49 -2915 2916 0
49 -52 -2915 0
49 -52 2916 0
49 -53 -2916 0
49 54 55 56 57 58 59 60 61 62 63 64 0
49 -54 2917 0
49 -2917 2918 0
49 -55 -2917 0
49 -55 2918 0
49 -2918 2919 0
49 -56 -2918 0
49 -56 2919 0
49 -2919 2920 0
49 -57 -2919 0
49 -57 2920 0
49 -2920 2921 0
49 -58 -2920 0
49 -58 2921 0
49 -2921 2922 0
49 -59 -2921 0
49 -59 2922 0
49 -2922 2923 0
49 -60 -2922 0
49 -60 2923 0
49 -2923 2924 0
49 -61 -2923 0
49 -61 2924 0
49 -2924 2925 0
49 -62 -2924 0
49 -62 2925 0
49 -2925 2926 0
49 -63 -2925 0
49 -63 2926 0
49 -64 -2926 0
49 65 66 67 68 69 70 71 72 0
49 -65 2927 0
49 -2927 2928 0
49 -66 -2927 0
49 -66 2928 0
49 -2928 2929 0
49 -67 -2928 0
49 -67 2929 0
49 -2929 2930 0
49 -68 -2929 0
49 -68 2930 0
49 -2930 2931 0
49 -69 -2930 0
49 -69 2931 0
49 -2931 2932 0
49 -70 -2931 0
49 -70 2932 0
49 -2932 2933 0
49 -71 -2932 0
49 -71 2933 0
49 -72 -2933 0
49 73 74 75 76 77 78 79 80 0
49 -73 2934 0
49 -2934 2935 0
49 -74 -2934 0
49 -74 2935 0
49 -2935 2936 0
49 -75 -2935 0
49 -75 2936 0
49 -2936 2937 0
49 -76 -2936 0
49 -76 2937 0
49 -2937 2938 0
49 -77 -2937 0
49 -77 2938 0
49 -2938 2939 0
49 -78 -2938 0
49 -78 2939 0
49 -2939 2940 0
49 -79 -2939 0
49 -79 2940 0
49 -80 -2940 0
49 81 82 83 84 0
49 -81 2941 0
49 -2941 2942 0
49 -82 -2941 0
49 -82 2942 0
49 -2942 2943 0
49 -83 -2942 0
49 -83 2943 0
49 -84 -2943 0
49 85 86 87 88 0
49 -85 2944 0
49 -2944 2945 0
49 -86 -2944 0
49 -86 2945 0
49 -2945 2946 0
49 -87 -2945 0
49 -87 2946 0
49 -88 -2946 0
49 89 0
49 90 0
49 91 0
49 92 0
49 93 94 95 96 97 98 99 100 0
49 -93 2947 0
49 -2947 2948 0
49 -94 -2947 0
49 -94 2948 0
49 -2948 2949 0
49 -95 -2948 0
49 -95 2949 0
49 -2949 2950 0
49 -96 -2949 0
49 -96 2950 0
49 -2950 2951 0
49 -97 -2950 0
49 -97 2951 0
49 -2951 2952 0
49 -98 -2951 0
49 -98 2952 0
49 -2952 2953 0
49 -99 -2952 0
49 -99 2953 0
49 -100 -2953 0
49 101 102 103 104 105 106 107 108 0
49 -101 2954 0
49 -2954 2955 0
49 -102 -2954 0
49 -102 2955 0
49 -2955 2956 0
49 -103 -2955 0
49 -103 2956 0
49 -2956 2957 0
49 -104 -2956 0
49 -104 2957 0
49 -2957 2958 0
49 -105 -2957 0
49 -105 2958 0
49 -2958 2959 0
49 -106 -2958 0
49 -106 2959 0
49 -2959 2960 0
49 -107 -2959 0
49 -107 2960 0
49 -108 -2960 0
49 109 110 0
49 -109 -110 0
49 111 112 0
49 -111 -112 0
49 113 0
49 114 0
49 115 0
49 116 0
49 117 0
49 118 0
49 119 120 121 122 123 0
49 -119 2961 0
49 -2961 2962 0
49 -120 -2961 0
49 -120 2962 0
49 -2962 2963 0
49 -121 -2962 0
49 -121 2963 0
49 -2963 2964 0
49 -122 -2963 0
49 -122 2964 0
49 -123 -2964 0
49 124 125 126 127 128 0
49 -124 2965 0
49 -2965 2966 0
49 -125 -2965 0
49 -125 2966 0
49 -2966 2967 0
49 -126 -2966 0
49 -126 2967 0
49 -2967 2968 0
49 -127 -2967 0
49 -127 2968 0
49 -128 -2968 0
49 129 0
49 130 0
49 131 0
49 132 0
49 133 134 135 136 137 138 139 140 0
49 -133 2969 0
49 -2969 2970 0
49 -134 -2969 0
49 -134 2970 0
49 -2970 2971 0
49 -135 -2970 0
49 -135 2971 0
49 -2971 2972 0
49 -136 -2971 0
49 -136 2972 0
49 -2972 2973 0
49 -137 -2972 0
49 -137 2973 0
49 -2973 2974 0
49 -138 -2973 0
49 -138 2974 0
49 -2974 2975 0
49 -139 -2974 0
49 -139 2975 0
49 -140 -2975 0
49 141 142 143 144 145 146 147 148 0
49 -141 2976 0
49 -2976 2977 0
49 -142 -2976 0
49 -142 2977 0
49 -2977 2978 0
49 -143 -2977 0
49 -143 2978 0
49 -2978 2979 0
49 -144 -2978 0
49 -144 2979 0
49 -2979 2980 0
49 -145 -2979 0
49 -145 2980 0
49 -2980 2981 0
49 -146 -2980 0
49 -146 2981 0
49 -2981 2982 0
49 -147 -2981 0
49 -147 2982 0
49 -148 -2982 0
49 149 150 151 152 0
49 -149 2983 0
49 -2983 2984 0
49 -150 -2983 0
49 -150 2984 0
49 -2984 2985 0
49 -151 -2984 0
49 -151 2985 0
49 -152 -2985 0
49 153 154 155 156 0
49 -153 2986 0
49 -2986 2987 0
49 -154 -2986 0
49 -154 2987 0
49 -2987 2988 0
49 -155 -2987 0
49 -155 2988 0
49 -156 -2988 0
49 157 158 159 160 161 162 163 0
49 -157 2989 0
49 -2989 2990 0
49 -158 -2989 0
49 -158 2990 0
49 -2990 2991 0
49 -159 -2990 0
49 -159 2991 0
49 -2991 2992 0
49 -160 -2991 0
49 -160 2992 0
49 -2992 2993 0
49 -161 -2992 0
49 -161 2993 0
49 -2993 2994 0
49 -162 -2993 0
49 -162 2994 0
49 -163 -2994 0
49 164 165 166 167 168 169 170 0
49 -164 2995 0
49 -2995 2996 0
49 -165 -2995 0
49 -165 2996 0
49 -2996 2997 0
49 -166 -2996 0
49 -166 2997 0
49 -2997 2998 0
49 -167 -2997 0
49 -167 2998 0
49 -2998 2999 0
49 -168 -2998 0
49 -168 2999 0
49 -2999 3000 0
49 -169 -2999 0
49 -169 3000 0
49 -170 -3000 0
49 171 172 173 174 175 176 0
49 -171 3001 0
49 -3001 3002 0
49 -172 -3001 0
49 -172 3002 0
49 -3002 3003 0
49 -173 -3002 0
49 -173 3003 0
49 -3003 3004 0
49 -174 -3003 0
49 -174 3004 0
49 -3004 3005 0
49 -175 -3004 0
49 -175 3005 0
49 -176 -3005 0
49 177 178 179 180 181 182 0
49 -177 3006 0
49 -3006 3007 0
49 -178 -3006 0
49 -178 3007 0
49 -3007 3008 0
49 -179 -3007 0
49 -179 3008 0
49 -3008 3009 0
49 -180 -3008 0
49 -180 3009 0
49 -3009 3010 0
49 -181 -3009 0
49 -181 3010 0
49 -182 -3010 0
49 183 184 185 186 187 188 189 190 191 192 193 0
49 -183 3011 0
49 -3011 3012 0
49 -184 -3011 0
49 -184 3012 0
49 -3012 3013 0
49 -185 -3012 0
49 -185 3013 0
49 -3013 3014 0
49 -186 -3013 0
49 -186 3014 0
49 -3014 3015 0
49 -187 -3014 0
49 -187 3015 0
49 -3015 3016 0
49 -188 -3015 0
49 -188 3016 0
49 -3016 3017 0
49 -189 -3016 0
49 -189 3017 0
49 -3017 3018 0
49 -190 -3017 0
49 -190 3018 0
49 -3018 3019 0
49 -191 -3018 0
49 -191 3019 0
49 -3019 3020 0
49 -192 -3019 0
49 -192 3020 0
49 -193 -3020 0
49 194 195 196 197 198 199 200 201 202 203 204 0
49 -194 3021 0
49 -3021 3022 0
49 -195 -3021 0
49 -195 3022 0
49 -3022 3023 0
49 -196 -3022 0
49 -196 3023 0
49 -3023 3024 0
49 -197 -3023 0
49 -197 3024 0
49 -3024 3025 0
49 -198 -3024 0
49 -198 3025 0
49 -3025 3026 0
49 -199 -3025 0
49 -199 3026 0
49 -3026 3027 0
49 -200 -3026 0
49 -200 3027 0
49 -3027 3028 0
49 -201 -3027 0
49 -201 3028 0
49 -3028 3029 0
49 -202 -3028 0
49 -202 3029 0
49 -3029 3030 0
49 -203 -3029 0
49 -203 3030 0
49 -204 -3030 0
49 205 0
49 206 0
49 207 0
49 208 0
49 209 210 211 212 213 214 215 216 217 218 219 0
49 -209 3031 0
49 -3031 3032 0
49 -210 -3031 0
49 -210 3032 0
49 -3032 3033 0
49 -211 -3032 0
49 -211 3033 0
49 -3033 3034 0
49 -212 -3033 0
49 -212 3034 0
49 -3034 3035 0
49 -213 -3034 0
49 -213 3035 0
49 -3035 3036 0
49 -214 -3035 0
49 -214 3036 0
49 -3036 3037 0
49 -215 -3036 0
49 -215 3037 0
49 -3037 3038 0
49 -216 -3037 0
49 -216 3038 0
49 -3038 3039 0
49 -217 -3038 0
49 -217 3039 0
49 -3039 3040 0
49 -218 -3039 0
49 -218 3040 0
49 -219 -3040 0
49 220 221 222 223 224 225 226 227 228 229 230 0
49 -220 3041 0
49 -3041 3042 0
49 -221 -3041 0
49 -221 3042 0
49 -3042 3043 0
49 -222 -3042 0
49 -222 3043 0
49 -3043 3044 0
49 -223 -3043 0
49 -223 3044 0
49 -3044 3045 0
49 -224 -3044 0
49 -224 3045 0
49 -3045 3046 0
49 -225 -3045 0
49 -225 3046 0
49 -3046 3047 0
49 -226 -3046 0
49 -226 3047 0
49 -3047 3048 0
49 -227 -3047 0
49 -227 3048 0
49 -3048 3049 0
49 -228 -3048 0
49 -228 3049 0
49 -3049 3050 0
49 -229 -3049 0
49 -229 3050 0
49 -230 -3050 0
49 231 232 233 234 235 236 237 238 0
49 -231 3051 0
49 -3051 3052 0
49 -232 -3051 0
49 -232 3052 0
49 -3052 3053 0
49 -233 -3052 0
49 -233 3053 0
49 -3053 3054 0
49 -234 -3053 0
49 -234 3054 0
49 -3054 3055 0
49 -235 -3054 0
49 -235 3055 0
49 -3055 3056 0
49 -236 -3055 0
49 -236 3056 0
49 -3056 3057 0
49 -237 -3056 0
49 -237 3057 0
49 -238 -3057 0
49 239 240 241 242 243 244 245 246 0
49 -239 3058 0
49 -3058 3059 0
49 -240 -3058 0
49 -240 3059 0
49 -3059 3060 0
49 -241 -3059 0
49 -241 3060 0
49 -3060 3061 0
49 -242 -3060 0
49 -242 3061 0
49 -3061 3062 0
49 -243 -3061 0
49 -243 3062 0
49 -3062 3063 0
49 -244 -3062 0
49 -244 3063 0
49 -3063 3064 0
49 -245 -3063 0
49 -245 3064 0
49 -246 -3064 0
49 247 0
49 248 0
49 249 0
49 250 0
49 251 0
49 252 0
49 253 0
49 254 0
49 255 0
49 256 0
49 257 0
49 258 0
49 259 260 261 262 263 264 265 266 0
49 -259 3065 0
49 -3065 3066 0
49 -260 -3065 0
49 -260 3066 0
49 -3066 3067 0
49 -261 -3066 0
49 -261 3067 0
49 -3067 3068 0
49 -262 -3067 0
49 -262 3068 0
49 -3068 3069 0
49 -263 -3068 0
49 -263 3069 0
49 -3069 3070 0
49 -264 -3069 0
49 -264 3070 0
49 -3070 3071 0
49 -265 -3070 0
49 -265 3071 0
49 -266 -3071 0
49 267 268 269 270 271 272 273 274 0
49 -267 3072 0
49 -3072 3073 0
49 -268 -3072 0
49 -268 3073 0
49 -3073 3074 0
49 -269 -3073 0
49 -269 3074 0
49 -3074 3075 0
49 -270 -3074 0
49 -270 3075 0
49 -3075 3076 0
49 -271 -3075 0
49 -271 3076 0
49 -3076 3077 0
49 -272 -3076 0
49 -272 3077 0
49 -3077 3078 0
49 -273 -3077 0
49 -273 3078 0
49 -274 -3078 0
49 275 0
49 276 0
49 277 0
49 278 0
49 279 280 281 282 283 284 285 0
49 -279 3079 0
49 -3079 3080 0
49 -280 -3079 0
49 -280 3080 0
49 -3080 3081 0
49 -281 -3080 0
49 -281 3081 0
49 -3081 3082 0
49 -282 -3081 0
49 -282 3082 0
49 -3082 3083 0
49 -283 -3082 0
49 -283 3083 0
49 -3083 3084 0
49 -284 -3083 0
49 -284 3084 0
49 -285 -3084 0
49 286 287 288 289 290 291 292 0
49 -286 3085 0
49 -3085 3086 0
49 -287 -3085 0
49 -287 3086 0
49 -3086 3087 0
49 -288 -3086 0
49 -288 3087 0
49 -3087 3088 0
49 -289 -3087 0
49 -289 3088 0
49 -3088 3089 0
49 -290 -3088 0
49 -290 3089 0
49 -3089 3090 0
49 -291 -3089 0
49 -291 3090 0
49 -292 -3090 0
49 293 0
49 294 0
49 295 0
49 296 0
49 297 298 299 300 301 302 303 0
49 -297 3091 0
49 -3091 3092 0
49 -298 -3091 0
49 -298 3092 0
49 -3092 3093 0
49 -299 -3092 0
49 -299 3093 0
49 -3093 3094 0
49 -300 -3093 0
49 -300 3094 0
49 -3094 3095 0
49 -301 -3094 0
49 -301 3095 0
49 -3095 3096 0
49 -302 -3095 0
49 -302 3096 0
49 -303 -3096 0
49 304 305 306 307 308 309 310 0
49 -304 3097 0
49 -3097 3098 0
49 -305 -3097 0
49 -305 3098 0
49 -3098 3099 0
49 -306 -3098 0
49 -306 3099 0
49 -3099 3100 0
49 -307 -3099 0
49 -307 3100 0
49 -3100 3101 0
49 -308 -3100 0
49 -308 3101 0
49 -3101 3102 0
49 -309 -3101 0
49 -309 3102 0
49 -310 -3102 0
49 311 0
49 312 0
49 313 0
49 314 0
49 315 0
49 316 0
49 317 0
49 318 0
49 319 0
49 320 0
49 321 322 323 324 325 326 327 328 0
49 -321 3103 0
49 -3103 3104 0
49 -322 -3103 0
49 -322 3104 0
49 -3104 3105 0
49 -323 -3104 0
49 -323 3105 0
49 -3105 3106 0
49 -324 -3105 0
49 -324 3106 0
49 -3106 3107 0
49 -325 -3106 0
49 -325 3107 0
49 -3107 3108 0
49 -326 -3107 0
49 -326 3108 0
49 -3108 3109 0
49 -327 -3108 0
49 -327 3109 0
49 -328 -3109 0
49 329 330 331 332 333 334 335 336 0
49 -329 3110 0
49 -3110 3111 0
49 -330 -3110 0
49 -330 3111 0
49 -3111 3112 0
49 -331 -3111 0
49 -331 3112 0
49 -3112 3113 0
49 -332 -3112 0
49 -332 3113 0
49 -3113 3114 0
49 -333 -3113 0
49 -333 3114 0
49 -3114 3115 0
49 -334 -3114 0
49 -334 3115 0
49 -3115 3116 0
49 -335 -3115 0
49 -335 3116 0
49 -336 -3116 0
49 337 0
49 338 0
49 339 340 341 342 343 344 345 346 0
49 -339 3117 0
49 -3117 3118 0
49 -340 -3117 0
49 -340 3118 0
49 -3118 3119 0
49 -341 -3118 0
49 -341 3119 0
49 -3119 3120 0
49 -342 -3119 0
49 -342 3120 0
49 -3120 3121 0
49 -343 -3120 0
49 -343 3121 0
49 -3121 3122 0
49 -344 -3121 0
49 -344 3122 0
49 -3122 3123 0
49 -345 -3122 0
49 -345 3123 0
49 -346 -3123 0
49 347 348 349 350 351 352 353 354 0
49 -347 3124 0
49 -3124 3125 0
49 -348 -3124 0
49 -348 3125 0
49 -3125 3126 0
49 -349 -3125 0
49 -349 3126 0
49 -3126 3127 0
49 -350 -3126 0
49 -350 3127 0
49 -3127 3128 0
49 -351 -3127 0
49 -351 3128 0
49 -3128 3129 0
49 -352 -3128 0
49 -352 3129 0
49 -3129 3130 0
49 -353 -3129 0
49 -353 3130 0
49 -354 -3130 0
49 355 0
49 356 0
49 357 358 359 360 361 362 363 364 0
49 -357 3131 0
49 -3131 3132 0
49 -358 -3131 0
49 -358 3132 0
49 -3132 3133 0
49 -359 -3132 0
49 -359 3133 0
49 -3133 3134 0
49 -360 -3133 0
49 -360 3134 0
49 -3134 3135 0
49 -361 -3134 0
49 -361 3135 0
49 -3135 3136 0
49 -362 -3135 0
49 -362 3136 0
49 -3136 3137 0
49 -363 -3136 0
49 -363 3137 0
49 -364 -3137 0
49 365 366 367 368 369 370 371 372 0
49 -365 3138 0
49 -3138 3139 0
49 -366 -3138 0
49 -366 3139 0
49 -3139 3140 0
49 -367 -3139 0
49 -367 3140 0
49 -3140 3141 0
49 -368 -3140 0
49 -368 3141 0
49 -3141 3142 0
49 -369 -3141 0
49 -369 3142 0
49 -3142 3143 0
49 -370 -3142 0
49 -370 3143 0
49 -3143 3144 0
49 -371 -3143 0
49 -371 3144 0
49 -372 -3144 0
49 373 0
49 374 0
49 375 0
49 376 0
49 377 378 379 0
49 -377 3145 0
49 -3145 3146 0
49 -378 -3145 0
49 -378 3146 0
49 -379 -3146 0
49 380 381 382 0
49 -380 3147 0
49 -3147 3148 0
49 -381 -3147 0
49 -381 3148 0
49 -382 -3148 0
49 383 384 0
49 -383 -384 0
49 385 386 0
49 -385 -386 0
49 387 0
49 388 0
49 389 0
49 390 0
49 391 0
49 392 0
49 393 394 395 396 0
49 -393 3149 0
49 -3149 3150 0
49 -394 -3149 0
49 -394 3150 0
49 -3150 3151 0
49 -395 -3150 0
49 -395 3151 0
49 -396 -3151 0
49 397 398 399 400 0
49 -397 3152 0
49 -3152 3153 0
49 -398 -3152 0
49 -398 3153 0
49 -3153 3154 0
49 -399 -3153 0
49 -399 3154 0
49 -400 -3154 0
49 401 0
49 402 0
49 403 404 405 406 407 408 409 410 0
49 -403 3155 0
49 -3155 3156 0
49 -404 -3155 0
49 -404 3156 0
49 -3156 3157 0
49 -405 -3156 0
49 -405 3157 0
49 -3157 3158 0
49 -406 -3157 0
49 -406 3158 0
49 -3158 3159 0
49 -407 -3158 0
49 -407 3159 0
49 -3159 3160 0
49 -408 -3159 0
49 -408 3160 0
49 -3160 3161 0
49 -409 -3160 0
49 -409 3161 0
49 -410 -3161 0
49 411 412 413 414 415 416 417 418 0
49 -411 3162 0
49 -3162 3163 0
49 -412 -3162 0
49 -412 3163 0
49 -3163 3164 0
49 -413 -3163 0
49 -413 3164 0
49 -3164 3165 0
49 -414 -3164 0
49 -414 3165 0
49 -3165 3166 0
49 -415 -3165 0
49 -415 3166 0
49 -3166 3167 0
49 -416 -3166 0
49 -416 3167 0
49 -3167 3168 0
49 -417 -3167 0
49 -417 3168 0
49 -418 -3168 0
49 419 0
49 420 0
49 421 422 423 424 425 426 427 428 0
49 -421 3169 0
49 -3169 3170 0
49 -422 -3169 0
49 -422 3170 0
49 -3170 3171 0
49 -423 -3170 0
49 -423 3171 0
49 -3171 3172 0
49 -424 -3171 0
49 -424 3172 0
49 -3172 3173 0
49 -425 -3172 0
49 -425 3173 0
49 -3173 3174 0
49 -426 -3173 0
49 -426 3174 0
49 -3174 3175 0
49 -427 -3174 0
49 -427 3175 0
49 -428 -3175 0
49 429 430 431 432 433 434 435 436 0
49 -429 3176 0
49 -3176 3177 0
49 -430 -3176 0
49 -430 3177 0
49 -3177 3178 0
49 -431 -3177 0
49 -431 3178 0
49 -3178 3179 0
49 -432 -3178 0
49 -432 3179 0
49 -3179 3180 0
49 -433 -3179 0
49 -433 3180 0
49 -3180 3181 0
49 -434 -3180 0
49 -434 3181 0
49 -3181 3182 0
49 -435 -3181 0
49 -435 3182 0
49 -436 -3182 0
49 437 0
49 438 0
49 439 0
49 440 0
49 441 442 443 0
49 -441 3183 0
49 -3183 3184 0
49 -442 -3183 0
49 -442 3184 0
49 -443 -3184 0
49 444 445 446 0
49 -444 3185 0
49 -3185 3186 0
49 -445 -3185 0
49 -445 3186 0
49 -446 -3186 0
49 447 0
49 448 0
49 449 450 451 0
49 -449 3187 0
49 -3187 3188 0
49 -450 -3187 0
49 -450 3188 0
49 -451 -3188 0
49 452 453 454 0
49 -452 3189 0
49 -3189 3190 0
49 -453 -3189 0
49 -453 3190 0
49 -454 -3190 0
49 455 456 0
49 -455 -456 0
49 457 458 0
49 -457 -458 0
49 459 460 461 462 463 464 465 466 0
49 -459 3191 0
49 -3191 3192 0
49 -460 -3191 0
49 -460 3192 0
49 -3192 3193 0
49 -461 -3192 0
49 -461 3193 0
49 -3193 3194 0
49 -462 -3193 0
49 -462 3194 0
49 -3194 3195 0
49 -463 -3194 0
49 -463 3195 0
49 -3195 3196 0
49 -464 -3195 0
49 -464 3196 0
49 -3196 3197 0
49 -465 -3196 0
49 -465 3197 0
49 -466 -3197 0
49 467 468 469 470 471 472 473 474 0
49 -467 3198 0
49 -3198 3199 0
49 -468 -3198 0
49 -468 3199 0
49 -3199 3200 0
49 -469 -3199 0
49 -469 3200 0
49 -3200 3201 0
49 -470 -3200 0
49 -470 3201 0
49 -3201 3202 0
49 -471 -3201 0
49 -471 3202 0
49 -3202 3203 0
49 -472 -3202 0
49 -472 3203 0
49 -3203 3204 0
49 -473 -3203 0
49 -473 3204 0
49 -474 -3204 0
49 475 0
49 476 0
49 477 478 479 480 0
49 -477 3205 0
49 -3205 3206 0
49 -478 -3205 0
49 -478 3206 0
49 -3206 3207 0
49 -479 -3206 0
49 -479 3207 0
49 -480 -3207 0
49 481 482 483 484 0
49 -481 3208 0
49 -3208 3209 0
49 -482 -3208 0
49 -482 3209 0
49 -3209 3210 0
49 -483 -3209 0
49 -483 3210 0
49 -484 -3210 0
49 485 486 487 488 489 490 491 492 0
49 -485 3211 0
49 -3211 3212 0
49 -486 -3211 0
49 -486 3212 0
49 -3212 3213 0
49 -487 -3212 0
49 -487 3213 0
49 -3213 3214 0
49 -488 -3213 0
49 -488 3214 0
49 -3214 3215 0
49 -489 -3214 0
49 -489 3215 0
49 -3215 3216 0
49 -490 -3215 0
49 -490 3216 0
49 -3216 3217 0
49 -491 -3216 0
49 -491 3217 0
49 -492 -3217 0
49 493 494 495 496 497 498 499 500 0
49 -493 3218 0
49 -3218 3219 0
49 -494 -3218 0
49 -494 3219 0
49 -3219 3220 0
49 -495 -3219 0
49 -495 3220 0
49 -3220 3221 0
49 -496 -3220 0
49 -496 3221 0
49 -3221 3222 0
49 -497 -3221 0
49 -497 3222 0
49 -3222 3223 0
49 -498 -3222 0
49 -498 3223 0
49 -3223 3224 0
49 -499 -3223 0
49 -499 3224 0
49 -500 -3224 0
49 501 502 503 504 505 506 507 508 509 510 511 0
49 -501 3225 0
49 -3225 3226 0
49 -502 -3225 0
49 -502 3226 0
49 -3226 3227 0
49 -503 -3226 0
49 -503 3227 0
49 -3227 3228 0
49 -504 -3227 0
49 -504 3228 0
49 -3228 3229 0
49 -505 -3228 0
49 -505 3229 0
49 -3229 3230 0
49 -506 -3229 0
49 -506 3230 0
49 -3230 3231 0
49 -507 -3230 0
49 -507 3231 0
49 -3231 3232 0
49 -508 -3231 0
49 -508 3232 0
49 -3232 3233 0
49 -509 -3232 0
49 -509 3233 0
49 -3233 3234 0
49 -510 -3233 0
49 -510 3234 0
49 -511 -3234 0
49 512 513 514 515 516 517 518 519 520 521 522 0
49 -512 3235 0
49 -3235 3236 0
49 -513 -3235 0
49 -513 3236 0
49 -3236 3237 0
49 -514 -3236 0
49 -514 3237 0
49 -3237 3238 0
49 -515 -3237 0
49 -515 3238 0
49 -3238 3239 0
49 -516 -3238 0
49 -516 3239 0
49 -3239 3240 0
49 -517 -3239 0
49 -517 3240 0
49 -3240 3241 0
49 -518 -3240 0
49 -518 3241 0
49 -3241 3242 0
49 -519 -3241 0
49 -519 3242 0
49 -3242 3243 0
49 -520 -3242 0
49 -520 3243 0
49 -3243 3244 0
49 -521 -3243 0
49 -521 3244 0
49 -522 -3244 0
49 523 524 525 526 527 528 529 0
49 -523 3245 0
49 -3245 3246 0
49 -524 -3245 0
49 -524 3246 0
49 -3246 3247 0
49 -525 -3246 0
49 -525 3247 0
49 -3247 3248 0
49 -526 -3247 0
49 -526 3248 0
49 -3248 3249 0
49 -527 -3248 0
49 -527 3249 0
49 -3249 3250 0
49 -528 -3249 0
49 -528 3250 0
49 -529 -3250 0
49 530 531 532 533 534 535 536 0
49 -530 3251 0
49 -3251 3252 0
49 -531 -3251 0
49 -531 3252 0
49 -3252 3253 0
49 -532 -3252 0
49 -532 3253 0
49 -3253 3254 0
49 -533 -3253 0
49 -533 3254 0
49 -3254 3255 0
49 -534 -3254 0
49 -534 3255 0
49 -3255 3256 0
49 -535 -3255 0
49 -535 3256 0
49 -536 -3256 0
49 537 0
49 538 0
49 539 540 541 542 543 0
49 -539 3257 0
49 -3257 3258 0
49 -540 -3257 0
49 -540 3258 0
49 -3258 3259 0
49 -541 -3258 0
49 -541 3259 0
49 -3259 3260 0
49 -542 -3259 0
49 -542 3260 0
49 -543 -3260 0
49 544 545 546 547 548 0
49 -544 3261 0
49 -3261 3262 0
49 -545 -3261 0
49 -545 3262 0
49 -3262 3263 0
49 -546 -3262 0
49 -546 3263 0
49 -3263 3264 0
49 -547 -3263 0
49 -547 3264 0
49 -548 -3264 0
49 549 550 551 552 553 554 555 556 0
49 -549 3265 0
49 -3265 3266 0
49 -550 -3265 0
49 -550 3266 0
49 -3266 3267 0
49 -551 -3266 0
49 -551 3267 0
49 -3267 3268 0
49 -552 -3267 0
49 -552 3268 0
49 -3268 3269 0
49 -553 -3268 0
49 -553 3269 0
49 -3269 3270 0
49 -554 -3269 0
49 -554 3270 0
49 -3270 3271 0
49 -555 -3270 0
49 -555 3271 0
49 -556 -3271 0
49 557 558 559 560 561 562 563 564 0
49 -557 3272 0
49 -3272 3273 0
49 -558 -3272 0
49 -558 3273 0
49 -3273 3274 0
49 -559 -3273 0
49 -559 3274 0
49 -3274 3275 0
49 -560 -3274 0
49 -560 3275 0
49 -3275 3276 0
49 -561 -3275 0
49 -561 3276 0
49 -3276 3277 0
49 -562 -3276 0
49 -562 3277 0
49 -3277 3278 0
49 -563 -3277 0
49 -563 3278 0
49 -564 -3278 0
49 565 566 567 568 569 570 571 572 0
49 -565 3279 0
49 -3279 3280 0
49 -566 -3279 0
49 -566 3280 0
49 -3280 3281 0
49 -567 -3280 0
49 -567 3281 0
49 -3281 3282 0
49 -568 -3281 0
49 -568 3282 0
49 -3282 3283 0
49 -569 -3282 0
49 -569 3283 0
49 -3283 3284 0
49 -570 -3283 0
49 -570 3284 0
49 -3284 3285 0
49 -571 -3284 0
49 -571 3285 0
49 -572 -3285 0
49 573 574 575 576 577 578 579 580 0
49 -573 3286 0
49 -3286 3287 0
49 -574 -3286 0
49 -574 3287 0
49 -3287 3288 0
49 -575 -3287 0
49 -575 3288 0
49 -3288 3289 0
49 -576 -3288 0
49 -576 3289 0
49 -3289 3290 0
49 -577 -3289 0
49 -577 3290 0
49 -3290 3291 0
49 -578 -3290 0
49 -578 3291 0
49 -3291 3292 0
49 -579 -3291 0
49 -579 3292 0
49 -580 -3292 0
49 581 582 583 584 0
49 -581 3293 0
49 -3293 3294 0
49 -582 -3293 0
49 -582 3294 0
49 -3294 3295 0
49 -583 -3294 0
49 -583 3295 0
49 -584 -3295 0
49 585 586 587 588 0
49 -585 3296 0
49 -3296 3297 0
49 -586 -3296 0
49 -586 3297 0
49 -3297 3298 0
49 -587 -3297 0
49 -587 3298 0
49 -588 -3298 0
49 589 0
49 590 0
49 591 0
49 592 0
49 593 0
49 594 0
49 595 596 597 598 599 600 601 602 603 604 0
49 -595 3299 0
49 -3299 3300 0
49 -596 -3299 0
49 -596 3300 0
49 -3300 3301 0
49 -597 -3300 0
49 -597 3301 0
49 -3301 3302 0
49 -598 -3301 0
49 -598 3302 0
49 -3302 3303 0
49 -599 -3302 0
49 -599 3303 0
49 -3303 3304 0
49 -600 -3303 0
49 -600 3304 0
49 -3304 3305 0
49 -601 -3304 0
49 -601 3305 0
49 -3305 3306 0
49 -602 -3305 0
49 -602 3306 0
49 -3306 3307 0
49 -603 -3306 0
49 -603 3307 0
49 -604 -3307 0
49 605 606 607 608 609 610 611 612 613 614 0
49 -605 3308 0
49 -3308 3309 0
49 -606 -3308 0
49 -606 3309 0
49 -3309 3310 0
49 -607 -3309 0
49 -607 3310 0
49 -3310 3311 0
49 -608 -3310 0
49 -608 3311 0
49 -3311 3312 0
49 -609 -3311 0
49 -609 3312 0
49 -3312 3313 0
49 -610 -3312 0
49 -610 3313 0
49 -3313 3314 0
49 -611 -3313 0
49 -611 3314 0
49 -3314 3315 0
49 -612 -3314 0
49 -612 3315 0
49 -3315 3316 0
49 -613 -3315 0
49 -613 3316 0
49 -614 -3316 0
49 615 616 0
49 -615 -616 0
49 617 618 0
49 -617 -618 0
49 619 620 621 0
49 -619 3317 0
49 -3317 3318 0
49 -620 -3317 0
49 -620 3318 0
49 -621 -3318 0
49 622 623 624 0
49 -622 3319 0
49 -3319 3320 0
49 -623 -3319 0
49 -623 3320 0
49 -624 -3320 0
49 625 0
49 626 0
49 627 0
49 628 0
49 629 0
49 630 0
49 631 0
49 632 0
49 633 0
49 634 0
49 635 0
49 636 0
49 637 0
49 638 0
49 639 0
49 640 0
49 641 0
49 642 0
49 643 0
49 644 0
49 645 646 647 648 649 650 651 652 0
49 -645 3321 0
49 -3321 3322 0
49 -646 -3321 0
49 -646 3322 0
49 -3322 3323 0
49 -647 -3322 0
49 -647 3323 0
49 -3323 3324 0
49 -648 -3323 0
49 -648 3324 0
49 -3324 3325 0
49 -649 -3324 0
49 -649 3325 0
49 -3325 3326 0
49 -650 -3325 0
49 -650 3326 0
49 -3326 3327 0
49 -651 -3326 0
49 -651 3327 0
49 -652 -3327 0
49 653 654 655 656 657 658 659 660 0
49 -653 3328 0
49 -3328 3329 0
49 -654 -3328 0
49 -654 3329 0
49 -3329 3330 0
49 -655 -3329 0
49 -655 3330 0
49 -3330 3331 0
49 -656 -3330 0
49 -656 3331 0
49 -3331 3332 0
49 -657 -3331 0
49 -657 3332 0
49 -3332 3333 0
49 -658 -3332 0
49 -658 3333 0
49 -3333 3334 0
49 -659 -3333 0
49 -659 3334 0
49 -660 -3334 0
49 661 662 663 664 0
49 -661 3335 0
49 -3335 3336 0
49 -662 -3335 0
49 -662 3336 0
49 -3336 3337 0
49 -663 -3336 0
49 -663 3337 0
49 -664 -3337 0
49 665 666 667 668 0
49 -665 3338 0
49 -3338 3339 0
49 -666 -3338 0
49 -666 3339 0
49 -3339 3340 0
49 -667 -3339 0
49 -667 3340 0
49 -668 -3340 0
49 669 0
49 670 0
49 671 672 673 0
49 -671 3341 0
49 -3341 3342 0
49 -672 -3341 0
49 -672 3342 0
49 -673 -3342 0
49 674 675 676 0
49 -674 3343 0
49 -3343 3344 0
49 -675 -3343 0
49 -675 3344 0
49 -676 -3344 0
49 677 0
49 678 0
49 679 0
49 680 0
49 681 682 683 684 0
49 -681 3345 0
49 -3345 3346 0
49 -682 -3345 0
49 -682 3346 0
49 -3346 3347 0
49 -683 -3346 0
49 -683 3347 0
49 -684 -3347 0
49 685 686 687 688 0
49 -685 3348 0
49 -3348 3349 0
49 -686 -3348 0
49 -686 3349 0
49 -3349 3350 0
49 -687 -3349 0
49 -687 3350 0
49 -688 -3350 0
49 689 690 691 692 693 694 695 696 0
49 -689 3351 0
49 -3351 3352 0
49 -690 -3351 0
49 -690 3352 0
49 -3352 3353 0
49 -691 -3352 0
49 -691 3353 0
49 -3353 3354 0
49 -692 -3353 0
49 -692 3354 0
49 -3354 3355 0
49 -693 -3354 0
49 -693 3355 0
49 -3355 3356 0
49 -694 -3355 0
49 -694 3356 0
49 -3356 3357 0
49 -695 -3356 0
49 -695 3357 0
49 -696 -3357 0
49 697 698 699 700 701 702 703 704 0
49 -697 3358 0
49 -3358 3359 0
49 -698 -3358 0
49 -698 3359 0
49 -3359 3360 0
49 -699 -3359 0
49 -699 3360 0
49 -3360 3361 0
49 -700 -3360 0
49 -700 3361 0
49 -3361 3362 0
49 -701 -3361 0
49 -701 3362 0
49 -3362 3363 0
49 -702 -3362 0
49 -702 3363 0
49 -3363 3364 0
49 -703 -3363 0
49 -703 3364 0
49 -704 -3364 0
49 705 0
49 706 0
49 707 0
49 708 0
49 709 0
49 710 0
49 711 0
49 712 0
49 713 0
49 714 0
49 715 0
49 716 0
49 717 0
49 718 0
49 719 0
49 720 0
49 721 0
49 722 0
49 723 724 725 726 0
49 -723 3365 0
49 -3365 3366 0
49 -724 -3365 0
49 -724 3366 0
49 -3366 3367 0
49 -725 -3366 0
49 -725 3367 0
49 -726 -3367 0
49 727 728 729 730 0
49 -727 3368 0
49 -3368 3369 0
49 -728 -3368 0
49 -728 3369 0
49 -3369 3370 0
49 -729 -3369 0
49 -729 3370 0
49 -730 -3370 0
49 731 732 733 734 735 736 0
49 -731 3371 0
49 -3371 3372 0
49 -732 -3371 0
49 -732 3372 0
49 -3372 3373 0
49 -733 -3372 0
49 -733 3373 0
49 -3373 3374 0
49 -734 -3373 0
49 -734 3374 0
49 -3374 3375 0
49 -735 -3374 0
49 -735 3375 0
49 -736 -3375 0
49 737 738 739 740 741 742 0
49 -737 3376 0
49 -3376 3377 0
49 -738 -3376 0
49 -738 3377 0
49 -3377 3378 0
49 -739 -3377 0
49 -739 3378 0
49 -3378 3379 0
49 -740 -3378 0
49 -740 3379 0
49 -3379 3380 0
49 -741 -3379 0
49 -741 3380 0
49 -742 -3380 0
49 743 744 745 746 747 748 749 750 751 752 0
49 -743 3381 0
49 -3381 3382 0
49 -744 -3381 0
49 -744 3382 0
49 -3382 3383 0
49 -745 -3382 0
49 -745 3383 0
49 -3383 3384 0
49 -746 -3383 0
49 -746 3384 0
49 -3384 3385 0
49 -747 -3384 0
49 -747 3385 0
49 -3385 3386 0
49 -748 -3385 0
49 -748 3386 0
49 -3386 3387 0
49 -749 -3386 0
49 -749 3387 0
49 -3387 3388 0
49 -750 -3387 0
49 -750 3388 0
49 -3388 3389 0
49 -751 -3388 0
49 -751 3389 0
49 -752 -3389 0
49 753 754 755 756 757 758 759 760 761 762 0
49 -753 3390 0
49 -3390 3391 0
49 -754 -3390 0
49 -754 3391 0
49 -3391 3392 0
49 -755 -3391 0
49 -755 3392 0
49 -3392 3393 0
49 -756 -3392 0
49 -756 3393 0
49 -3393 3394 0
49 -757 -3393 0
49 -757 3394 0
49 -3394 3395 0
49 -758 -3394 0
49 -758 3395 0
49 -3395 3396 0
49 -759 -3395 0
49 -759 3396 0
49 -3396 3397 0
49 -760 -3396 0
49 -760 3397 0
49 -3397 3398 0
49 -761 -3397 0
49 -761 3398 0
49 -762 -3398 0
49 763 764 765 766 0
49 -763 3399 0
49 -3399 3400 0
49 -764 -3399 0
49 -764 3400 0
49 -3400 3401 0
49 -765 -3400 0
49 -765 3401 0
49 -766 -3401 0
49 767 768 769 770 0
49 -767 3402 0
49 -3402 3403 0
49 -768 -3402 0
49 -768 3403 0
49 -3403 3404 0
49 -769 -3403 0
49 -769 3404 0
49 -770 -3404 0
49 771 772 773 774 775 776 777 778 0
49 -771 3405 0
49 -3405 3406 0
49 -772 -3405 0
49 -772 3406 0
49 -3406 3407 0
49 -773 -3406 0
49 -773 3407 0
49 -3407 3408 0
49 -774 -3407 0
49 -774 3408 0
49 -3408 3409 0
49 -775 -3408 0
49 -775 3409 0
49 -3409 3410 0
49 -776 -3409 0
49 -776 3410 0
49 -3410 3411 0
49 -777 -3410 0
49 -777 3411 0
49 -778 -3411 0
49 779 780 781 782 783 784 785 786 0
49 -779 3412 0
49 -3412 3413 0
49 -780 -3412 0
49 -780 3413 0
49 -3413 3414 0
49 -781 -3413 0
49 -781 3414 0
49 -3414 3415 0
49 -782 -3414 0
49 -782 3415 0
49 -3415 3416 0
49 -783 -3415 0
49 -783 3416 0
49 -3416 3417 0
49 -784 -3416 0
49 -784 3417 0
49 -3417 3418 0
49 -785 -3417 0
49 -785 3418 0
49 -786 -3418 0
49 787 0
49 788 0
49 789 0
49 790 0
49 791 792 793 794 795 796 797 798 0
49 -791 3419 0
49 -3419 3420 0
49 -792 -3419 0
49 -792 3420 0
49 -3420 3421 0
49 -793 -3420 0
49 -793 3421 0
49 -3421 3422 0
49 -794 -3421 0
49 -794 3422 0
49 -3422 3423 0
49 -795 -3422 0
49 -795 3423 0
49 -3423 3424 0
49 -796 -3423 0
49 -796 3424 0
49 -3424 3425 0
49 -797 -3424 0
49 -797 3425 0
49 -798 -3425 0
49 799 800 801 802 803 804 805 806 0
49 -799 3426 0
49 -3426 3427 0
49 -800 -3426 0
49 -800 3427 0
49 -3427 3428 0
49 -801 -3427 0
49 -801 3428 0
49 -3428 3429 0
49 -802 -3428 0
49 -802 3429 0
49 -3429 3430 0
49 -803 -3429 0
49 -803 3430 0
49 -3430 3431 0
49 -804 -3430 0
49 -804 3431 0
49 -3431 3432 0
49 -805 -3431 0
49 -805 3432 0
49 -806 -3432 0
49 807 0
49 808 0
49 809 0
49 810 0
49 811 0
49 812 0
49 813 0
49 814 0
49 815 0
49 816 0
49 817 818 819 0
49 -817 3433 0
49 -3433 3434 0
49 -818 -3433 0
49 -818 3434 0
49 -819 -3434 0
49 820 821 822 0
49 -820 3435 0
49 -3435 3436 0
49 -821 -3435 0
49 -821 3436 0
49 -822 -3436 0
49 823 0
49 824 0
49 825 0
49 826 0
49 827 0
49 828 0
49 829 830 831 832 833 834 835 836 837 838 839 840 841 842 843 0
49 -829 3437 0
49 -3437 3438 0
49 -830 -3437 0
49 -830 3438 0
49 -3438 3439 0
49 -831 -3438 0
49 -831 3439 0
49 -3439 3440 0
49 -832 -3439 0
49 -832 3440 0
49 -3440 3441 0
49 -833 -3440 0
49 -833 3441 0
49 -3441 3442 0
49 -834 -3441 0
49 -834 3442 0
49 -3442 3443 0
49 -835 -3442 0
49 -835 3443 0
49 -3443 3444 0
49 -836 -3443 0
49 -836 3444 0
49 -3444 3445 0
49 -837 -3444 0
49 -837 3445 0
49 -3445 3446 0
49 -838 -3445 0
49 -838 3446 0
49 -3446 3447 0
49 -839 -3446 0
49 -839 3447 0
49 -3447 3448 0
49 -840 -3447 0
49 -840 3448 0
49 -3448 3449 0
49 -841 -3448 0
49 -841 3449 0
49 -3449 3450 0
49 -842 -3449 0
49 -842 3450 0
49 -843 -3450 0
49 844 845 846 847 848 849 850 851 852 853 854 855 856 857 858 0
49 -844 3451 0
49 -3451 3452 0
49 -845 -3451 0
49 -845 3452 0
49 -3452 3453 0
49 -846 -3452 0
49 -846 3453 0
49 -3453 3454 0
49 -847 -3453 0
49 -847 3454 0
49 -3454 3455 0
49 -848 -3454 0
49 -848 3455 0
49 -3455 3456 0
49 -849 -3455 0
49 -849 3456 0
49 -3456 3457 0
49 -850 -3456 0
49 -850 3457 0
49 -3457 3458 0
49 -851 -3457 0
49 -851 3458 0
49 -3458 3459 0
49 -852 -3458 0
49 -852 3459 0
49 -3459 3460 0
49 -853 -3459 0
49 -853 3460 0
49 -3460 3461 0
49 -854 -3460 0
49 -854 3461 0
49 -3461 3462 0
49 -855 -3461 0
49 -855 3462 0
49 -3462 3463 0
49 -856 -3462 0
49 -856 3463 0
49 -3463 3464 0
49 -857 -3463 0
49 -857 3464 0
49 -858 -3464 0
49 859 860 861 862 863 0
49 -859 3465 0
49 -3465 3466 0
49 -860 -3465 0
49 -860 3466 0
49 -3466 3467 0
49 -861 -3466 0
49 -861 3467 0
49 -3467 3468 0
49 -862 -3467 0
49 -862 3468 0
49 -863 -3468 0
49 864 865 866 867 868 0
49 -864 3469 0
49 -3469 3470 0
49 -865 -3469 0
49 -865 3470 0
49 -3470 3471 0
49 -866 -3470 0
49 -866 3471 0
49 -3471 3472 0
49 -867 -3471 0
49 -867 3472 0
49 -868 -3472 0
49 869 0
49 870 0
49 871 0
49 872 0
49 873 0
49 874 0
49 875 876 877 878 879 880 881 882 883 884 885 886 887 888 889 890 891 892 893 894 895 896 897 898 899 900 901 902 0
49 -875 3473 0
49 -3473 3474 0
49 -876 -3473 0
49 -876 3474 0
49 -3474 3475 0
49 -877 -3474 0
49 -877 3475 0
49 -3475 3476 0
49 -878 -3475 0
49 -878 3476 0
49 -3476 3477 0
49 -879 -3476 0
49 -879 3477 0
49 -3477 3478 0
49 -880 -3477 0
49 -880 3478 0
49 -3478 3479 0
49 -881 -3478 0
49 -881 3479 0
49 -3479 3480 0
49 -882 -3479 0
49 -882 3480 0
49 -3480 3481 0
49 -883 -3480 0
49 -883 3481 0
49 -3481 3482 0
49 -884 -3481 0
49 -884 3482 0
49 -3482 3483 0
49 -885 -3482 0
49 -885 3483 0
49 -3483 3484 0
49 -886 -3483 0
49 -886 3484 0
49 -3484 3485 0
49 -887 -3484 0
49 -887 3485 0
49 -3485 3486 0
49 -888 -3485 0
49 -888 3486 0
49 -3486 3487 0
49 -889 -3486 0
49 -889 3487 0
49 -3487 3488 0
49 -890 -3487 0
49 -890 3488 0
49 -3488 3489 0
49 -891 -3488 0
49 -891 3489 0
49 -3489 3490 0
49 -892 -3489 0
49 -892 3490 0
49 -3490 3491 0
49 -893 -3490 0
49 -893 3491 0
49 -3491 3492 0
49 -894 -3491 0
49 -894 3492 0
49 -3492 3493 0
49 -895 -3492 0
49 -895 3493 0
49 -3493 3494 0
49 -896 -3493 0
49 -896 3494 0
49 -3494 3495 0
49 -897 -3494 0
49 -897 3495 0
49 -3495 3496 0
49 -898 -3495 0
49 -898 3496 0
49 -3496 3497 0
49 -899 -3496 0
49 -899 3497 0
49 -3497 3498 0
49 -900 -3497 0
49 -900 3498 0
49 -3498 3499 0
49 -901 -3498 0
49 -901 3499 0
49 -902 -3499 0
49 903 904 905 906 907 908 909 910 911 912 913 914 915 916 917 918 919 920 921 922 923 924 925 926 927 928 929 930 0
49 -903 3500 0
49 -3500 3501 0
49 -904 -3500 0
49 -904 3501 0
49 -3501 3502 0
49 -905 -3501 0
49 -905 3502 0
49 -3502 3503 0
49 -906 -3502 0
49 -906 3503 0
49 -3503 3504 0
49 -907 -3503 0
49 -907 3504 0
49 -3504 3505 0
49 -908 -3504 0
49 -908 3505 0
49 -3505 3506 0
49 -909 -3505 0
49 -909 3506 0
49 -3506 3507 0
49 -910 -3506 0
49 -910 3507 0
49 -3507 3508 0
49 -911 -3507 0
49 -911 3508 0
49 -3508 3509 0
49 -912 -3508 0
49 -912 3509 0
49 -3509 3510 0
49 -913 -3509 0
49 -913 3510 0
49 -3510 3511 0
49 -914 -3510 0
49 -914 3511 0
49 -3511 3512 0
49 -915 -3511 0
49 -915 3512 0
49 -3512 3513 0
49 -916 -3512 0
49 -916 3513 0
49 -3513 3514 0
49 -917 -3513 0
49 -917 3514 0
49 -3514 3515 0
49 -918 -3514 0
49 -918 3515 0
49 -3515 3516 0
49 -919 -3515 0
49 -919 3516 0
49 -3516 3517 0
49 -920 -3516 0
49 -920 3517 0
49 -3517 3518 0
49 -921 -3517 0
49 -921 3518 0
49 -3518 3519 0
49 -922 -3518 0
49 -922 3519 0
49 -3519 3520 0
49 -923 -3519 0
49 -923 3520 0
49 -3520 3521 0
49 -924 -3520 0
49 -924 3521 0
49 -3521 3522 0
49 -925 -3521 0
49 -925 3522 0
49 -3522 3523 0
49 -926 -3522 0
49 -926 3523 0
49 -3523 3524 0
49 -927 -3523 0
49 -927 3524 0
49 -3524 3525 0
49 -928 -3524 0
49 -928 3525 0
49 -3525 3526 0
49 -929 -3525 0
49 -929 3526 0
49 -930 -3526 0
49 931 932 933 934 935 936 0
49 -931 3527 0
49 -3527 3528 0
49 -932 -3527 0
49 -932 3528 0
49 -3528 3529 0
49 -933 -3528 0
49 -933 3529 0
49 -3529 3530 0
49 -934 -3529 0
49 -934 3530 0
49 -3530 3531 0
49 -935 -3530 0
49 -935 3531 0
49 -936 -3531 0
49 937 938 939 940 941 942 0
49 -937 3532 0
49 -3532 3533 0
49 -938 -3532 0
49 -938 3533 0
49 -3533 3534 0
49 -939 -3533 0
49 -939 3534 0
49 -3534 3535 0
49 -940 -3534 0
49 -940 3535 0
49 -3535 3536 0
49 -941 -3535 0
49 -941 3536 0
49 -942 -3536 0
49 943 0
49 944 0
49 945 0
49 946 0
49 947 948 949 950 951 952 953 954 0
49 -947 3537 0
49 -3537 3538 0
49 -948 -3537 0
49 -948 3538 0
49 -3538 3539 0
49 -949 -3538 0
49 -949 3539 0
49 -3539 3540 0
49 -950 -3539 0
49 -950 3540 0
49 -3540 3541 0
49 -951 -3540 0
49 -951 3541 0
49 -3541 3542 0
49 -952 -3541 0
49 -952 3542 0
49 -3542 3543 0
49 -953 -3542 0
49 -953 3543 0
49 -954 -3543 0
49 955 956 957 958 959 960 961 962 0
49 -955 3544 0
49 -3544 3545 0
49 -956 -3544 0
49 -956 3545 0
49 -3545 3546 0
49 -957 -3545 0
49 -957 3546 0
49 -3546 3547 0
49 -958 -3546 0
49 -958 3547 0
49 -3547 3548 0
49 -959 -3547 0
49 -959 3548 0
49 -3548 3549 0
49 -960 -3548 0
49 -960 3549 0
49 -3549 3550 0
49 -961 -3549 0
49 -961 3550 0
49 -962 -3550 0
49 963 964 965 966 967 968 969 970 0
49 -963 3551 0
49 -3551 3552 0
49 -964 -3551 0
49 -964 3552 0
49 -3552 3553 0
49 -965 -3552 0
49 -965 3553 0
49 -3553 3554 0
49 -966 -3553 0
49 -966 3554 0
49 -3554 3555 0
49 -967 -3554 0
49 -967 3555 0
49 -3555 3556 0
49 -968 -3555 0
49 -968 3556 0
49 -3556 3557 0
49 -969 -3556 0
49 -969 3557 0
49 -970 -3557 0
49 971 972 973 974 975 976 977 978 0
49 -971 3558 0
49 -3558 3559 0
49 -972 -3558 0
49 -972 3559 0
49 -3559 3560 0
49 -973 -3559 0
49 -973 3560 0
49 -3560 3561 0
49 -974 -3560 0
49 -974 3561 0
49 -3561 3562 0
49 -975 -3561 0
49 -975 3562 0
49 -3562 3563 0
49 -976 -3562 0
49 -976 3563 0
49 -3563 3564 0
49 -977 -3563 0
49 -977 3564 0
49 -978 -3564 0
49 979 980 981 982 983 984 985 986 0
49 -979 3565 0
49 -3565 3566 0
49 -980 -3565 0
49 -980 3566 0
49 -3566 3567 0
49 -981 -3566 0
49 -981 3567 0
49 -3567 3568 0
49 -982 -3567 0
49 -982 3568 0
49 -3568 3569 0
49 -983 -3568 0
49 -983 3569 0
49 -3569 3570 0
49 -984 -3569 0
49 -984 3570 0
49 -3570 3571 0
49 -985 -3570 0
49 -985 3571 0
49 -986 -3571 0
49 987 988 989 990 991 992 993 994 0
49 -987 3572 0
49 -3572 3573 0
49 -988 -3572 0
49 -988 3573 0
49 -3573 3574 0
49 -989 -3573 0
49 -989 3574 0
49 -3574 3575 0
49 -990 -3574 0
49 -990 3575 0
49 -3575 3576 0
49 -991 -3575 0
49 -991 3576 0
49 -3576 3577 0
49 -992 -3576 0
49 -992 3577 0
49 -3577 3578 0
49 -993 -3577 0
49 -993 3578 0
49 -994 -3578 0
49 995 996 997 998 999 1000 1001 1002 0
49 -995 3579 0
49 -3579 3580 0
49 -996 -3579 0
49 -996 3580 0
49 -3580 3581 0
49 -997 -3580 0
49 -997 3581 0
49 -3581 3582 0
49 -998 -3581 0
49 -998 3582 0
49 -3582 3583 0
49 -999 -3582 0
49 -999 3583 0
49 -3583 3584 0
49 -1000 -3583 0
49 -1000 3584 0
49 -3584 3585 0
49 -1001 -3584 0
49 -1001 3585 0
49 -1002 -3585 0
49 1003 1004 1005 1006 1007 1008 1009 1010 0
49 -1003 3586 0
49 -3586 3587 0
49 -1004 -3586 0
49 -1004 3587 0
49 -3587 3588 0
49 -1005 -3587 0
49 -1005 3588 0
49 -3588 3589 0
49 -1006 -3588 0
49 -1006 3589 0
49 -3589 3590 0
49 -1007 -3589 0
49 -1007 3590 0
49 -3590 3591 0
49 -1008 -3590 0
49 -1008 3591 0
49 -3591 3592 0
49 -1009 -3591 0
49 -1009 3592 0
49 -1010 -3592 0
49 1011 0
49 1012 0
49 1013 0
49 1014 0
49 1015 0
49 1016 0
49 1017 0
49 1018 0
49 1019 0
49 1020 0
49 1021 1022 1023 1024 1025 1026 1027 1028 0
49 -1021 3593 0
49 -3593 3594 0
49 -1022 -3593 0
49 -1022 3594 0
49 -3594 3595 0
49 -1023 -3594 0
49 -1023 3595 0
49 -3595 3596 0
49 -1024 -3595 0
49 -1024 3596 0
49 -3596 3597 0
49 -1025 -3596 0
49 -1025 3597 0
49 -3597 3598 0
49 -1026 -3597 0
49 -1026 3598 0
49 -3598 3599 0
49 -1027 -3598 0
49 -1027 3599 0
49 -1028 -3599 0
49 1029 1030 1031 1032 1033 1034 1035 1036 0
49 -1029 3600 0
49 -3600 3601 0
49 -1030 -3600 0
49 -1030 3601 0
49 -3601 3602 0
49 -1031 -3601 0
49 -1031 3602 0
49 -3602 3603 0
49 -1032 -3602 0
49 -1032 3603 0
49 -3603 3604 0
49 -1033 -3603 0
49 -1033 3604 0
49 -3604 3605 0
49 -1034 -3604 0
49 -1034 3605 0
49 -3605 3606 0
49 -1035 -3605 0
49 -1035 3606 0
49 -1036 -3606 0
49 1037 0
49 1038 0
49 1039 1040 1041 1042 1043 1044 1045 1046 0
49 -1039 3607 0
49 -3607 3608 0
49 -1040 -3607 0
49 -1040 3608 0
49 -3608 3609 0
49 -1041 -3608 0
49 -1041 3609 0
49 -3609 3610 0
49 -1042 -3609 0
49 -1042 3610 0
49 -3610 3611 0
49 -1043 -3610 0
49 -1043 3611 0
49 -3611 3612 0
49 -1044 -3611 0
49 -1044 3612 0
49 -3612 3613 0
49 -1045 -3612 0
49 -1045 3613 0
49 -1046 -3613 0
49 1047 1048 1049 1050 1051 1052 1053 1054 0
49 -1047 3614 0
49 -3614 3615 0
49 -1048 -3614 0
49 -1048 3615 0
49 -3615 3616 0
49 -1049 -3615 0
49 -1049 3616 0
49 -3616 3617 0
49 -1050 -3616 0
49 -1050 3617 0
49 -3617 3618 0
49 -1051 -3617 0
49 -1051 3618 0
49 -3618 3619 0
49 -1052 -3618 0
49 -1052 3619 0
49 -3619 3620 0
49 -1053 -3619 0
49 -1053 3620 0
49 -1054 -3620 0
49 1055 0
49 1056 0
49 1057 0
49 1058 0
49 1059 0
49 1060 0
49 1061 0
49 1062 0
49 1063 1064 1065 1066 1067 1068 1069 1070 0
49 -1063 3621 0
49 -3621 3622 0
49 -1064 -3621 0
49 -1064 3622 0
49 -3622 3623 0
49 -1065 -3622 0
49 -1065 3623 0
49 -3623 3624 0
49 -1066 -3623 0
49 -1066 3624 0
49 -3624 3625 0
49 -1067 -3624 0
49 -1067 3625 0
49 -3625 3626 0
49 -1068 -3625 0
49 -1068 3626 0
49 -3626 3627 0
49 -1069 -3626 0
49 -1069 3627 0
49 -1070 -3627 0
49 1071 1072 1073 1074 1075 1076 1077 1078 0
49 -1071 3628 0
49 -3628 3629 0
49 -1072 -3628 0
49 -1072 3629 0
49 -3629 3630 0
49 -1073 -3629 0
49 -1073 3630 0
49 -3630 3631 0
49 -1074 -3630 0
49 -1074 3631 0
49 -3631 3632 0
49 -1075 -3631 0
49 -1075 3632 0
49 -3632 3633 0
49 -1076 -3632 0
49 -1076 3633 0
49 -3633 3634 0
49 -1077 -3633 0
49 -1077 3634 0
49 -1078 -3634 0
49 1079 1080 1081 1082 1083 1084 1085 1086 0
49 -1079 3635 0
49 -3635 3636 0
49 -1080 -3635 0
49 -1080 3636 0
49 -3636 3637 0
49 -1081 -3636 0
49 -1081 3637 0
49 -3637 3638 0
49 -1082 -3637 0
49 -1082 3638 0
49 -3638 3639 0
49 -1083 -3638 0
49 -1083 3639 0
49 -3639 3640 0
49 -1084 -3639 0
49 -1084 3640 0
49 -3640 3641 0
49 -1085 -3640 0
49 -1085 3641 0
49 -1086 -3641 0
49 1087 1088 1089 1090 1091 1092 1093 1094 0
49 -1087 3642 0
49 -3642 3643 0
49 -1088 -3642 0
49 -1088 3643 0
49 -3643 3644 0
49 -1089 -3643 0
49 -1089 3644 0
49 -3644 3645 0
49 -1090 -3644 0
49 -1090 3645 0
49 -3645 3646 0
49 -1091 -3645 0
49 -1091 3646 0
49 -3646 3647 0
49 -1092 -3646 0
49 -1092 3647 0
49 -3647 3648 0
49 -1093 -3647 0
49 -1093 3648 0
49 -1094 -3648 0
49 1095 0
49 1096 0
49 1097 0
49 1098 0
49 1099 0
49 1100 0
49 1101 0
49 1102 0
49 1103 0
49 1104 0
49 1105 0
49 1106 0
49 1107 1108 1109 0
49 -1107 3649 0
49 -3649 3650 0
49 -1108 -3649 0
49 -1108 3650 0
49 -1109 -3650 0
49 1110 1111 1112 0
49 -1110 3651 0
49 -3651 3652 0
49 -1111 -3651 0
49 -1111 3652 0
49 -1112 -3652 0
49 1113 0
49 1114 0
49 1115 1116 1117 1118 1119 1120 1121 1122 0
49 -1115 3653 0
49 -3653 3654 0
49 -1116 -3653 0
49 -1116 3654 0
49 -3654 3655 0
49 -1117 -3654 0
49 -1117 3655 0
49 -3655 3656 0
49 -1118 -3655 0
49 -1118 3656 0
49 -3656 3657 0
49 -1119 -3656 0
49 -1119 3657 0
49 -3657 3658 0
49 -1120 -3657 0
49 -1120 3658 0
49 -3658 3659 0
49 -1121 -3658 0
49 -1121 3659 0
49 -1122 -3659 0
49 1123 1124 1125 1126 1127 1128 1129 1130 0
49 -1123 3660 0
49 -3660 3661 0
49 -1124 -3660 0
49 -1124 3661 0
49 -3661 3662 0
49 -1125 -3661 0
49 -1125 3662 0
49 -3662 3663 0
49 -1126 -3662 0
49 -1126 3663 0
49 -3663 3664 0
49 -1127 -3663 0
49 -1127 3664 0
49 -3664 3665 0
49 -1128 -3664 0
49 -1128 3665 0
49 -3665 3666 0
49 -1129 -3665 0
49 -1129 3666 0
49 -1130 -3666 0
49 1131 0
49 1132 0
49 1133 0
49 1134 0
49 1135 1136 1137 1138 1139 1140 1141 1142 0
49 -1135 3667 0
49 -3667 3668 0
49 -1136 -3667 0
49 -1136 3668 0
49 -3668 3669 0
49 -1137 -3668 0
49 -1137 3669 0
49 -3669 3670 0
49 -1138 -3669 0
49 -1138 3670 0
49 -3670 3671 0
49 -1139 -3670 0
49 -1139 3671 0
49 -3671 3672 0
49 -1140 -3671 0
49 -1140 3672 0
49 -3672 3673 0
49 -1141 -3672 0
49 -1141 3673 0
49 -1142 -3673 0
49 1143 1144 1145 1146 1147 1148 1149 1150 0
49 -1143 3674 0
49 -3674 3675 0
49 -1144 -3674 0
49 -1144 3675 0
49 -3675 3676 0
49 -1145 -3675 0
49 -1145 3676 0
49 -3676 3677 0
49 -1146 -3676 0
49 -1146 3677 0
49 -3677 3678 0
49 -1147 -3677 0
49 -1147 3678 0
49 -3678 3679 0
49 -1148 -3678 0
49 -1148 3679 0
49 -3679 3680 0
49 -1149 -3679 0
49 -1149 3680 0
49 -1150 -3680 0
49 1151 1152 1153 1154 0
49 -1151 3681 0
49 -3681 3682 0
49 -1152 -3681 0
49 -1152 3682 0
49 -3682 3683 0
49 -1153 -3682 0
49 -1153 3683 0
49 -1154 -3683 0
49 1155 1156 1157 1158 0
49 -1155 3684 0
49 -3684 3685 0
49 -1156 -3684 0
49 -1156 3685 0
49 -3685 3686 0
49 -1157 -3685 0
49 -1157 3686 0
49 -1158 -3686 0
49 1159 1160 1161 1162 1163 1164 1165 1166 1167 1168 1169 1170 1171 1172 0
49 -1159 3687 0
49 -3687 3688 0
49 -1160 -3687 0
49 -1160 3688 0
49 -3688 3689 0
49 -1161 -3688 0
49 -1161 3689 0
49 -3689 3690 0
49 -1162 -3689 0
49 -1162 3690 0
49 -3690 3691 0
49 -1163 -3690 0
49 -1163 3691 0
49 -3691 3692 0
49 -1164 -3691 0
49 -1164 3692 0
49 -3692 3693 0
49 -1165 -3692 0
49 -1165 3693 0
49 -3693 3694 0
49 -1166 -3693 0
49 -1166 3694 0
49 -3694 3695 0
49 -1167 -3694 0
49 -1167 3695 0
49 -3695 3696 0
49 -1168 -3695 0
49 -1168 3696 0
49 -3696 3697 0
49 -1169 -3696 0
49 -1169 3697 0
49 -3697 3698 0
49 -1170 -3697 0
49 -1170 3698 0
49 -3698 3699 0
49 -1171 -3698 0
49 -1171 3699 0
49 -1172 -3699 0
49 1173 1174 1175 1176 1177 1178 1179 1180 1181 1182 1183 1184 1185 1186 0
49 -1173 3700 0
49 -3700 3701 0
49 -1174 -3700 0
49 -1174 3701 0
49 -3701 3702 0
49 -1175 -3701 0
49 -1175 3702 0
49 -3702 3703 0
49 -1176 -3702 0
49 -1176 3703 0
49 -3703 3704 0
49 -1177 -3703 0
49 -1177 3704 0
49 -3704 3705 0
49 -1178 -3704 0
49 -1178 3705 0
49 -3705 3706 0
49 -1179 -3705 0
49 -1179 3706 0
49 -3706 3707 0
49 -1180 -3706 0
49 -1180 3707 0
49 -3707 3708 0
49 -1181 -3707 0
49 -1181 3708 0
49 -3708 3709 0
49 -1182 -3708 0
49 -1182 3709 0
49 -3709 3710 0
49 -1183 -3709 0
49 -1183 3710 0
49 -3710 3711 0
49 -1184 -3710 0
49 -1184 3711 0
49 -3711 3712 0
49 -1185 -3711 0
49 -1185 3712 0
49 -1186 -3712 0
49 1187 1188 1189 0
49 -1187 3713 0
49 -3713 3714 0
49 -1188 -3713 0
49 -1188 3714 0
49 -1189 -3714 0
49 1190 1191 1192 0
49 -1190 3715 0
49 -3715 3716 0
49 -1191 -3715 0
49 -1191 3716 0
49 -1192 -3716 0
49 1193 0
49 1194 0
49 1195 1196 1197 1198 1199 1200 0
49 -1195 3717 0
49 -3717 3718 0
49 -1196 -3717 0
49 -1196 3718 0
49 -3718 3719 0
49 -1197 -3718 0
49 -1197 3719 0
49 -3719 3720 0
49 -1198 -3719 0
49 -1198 3720 0
49 -3720 3721 0
49 -1199 -3720 0
49 -1199 3721 0
49 -1200 -3721 0
49 1201 1202 1203 1204 1205 1206 0
49 -1201 3722 0
49 -3722 3723 0
49 -1202 -3722 0
49 -1202 3723 0
49 -3723 3724 0
49 -1203 -3723 0
49 -1203 3724 0
49 -3724 3725 0
49 -1204 -3724 0
49 -1204 3725 0
49 -3725 3726 0
49 -1205 -3725 0
49 -1205 3726 0
49 -1206 -3726 0
49 1207 0
49 1208 0
49 1209 0
49 1210 0
49 1211 1212 1213 1214 1215 1216 1217 0
49 -1211 3727 0
49 -3727 3728 0
49 -1212 -3727 0
49 -1212 3728 0
49 -3728 3729 0
49 -1213 -3728 0
49 -1213 3729 0
49 -3729 3730 0
49 -1214 -3729 0
49 -1214 3730 0
49 -3730 3731 0
49 -1215 -3730 0
49 -1215 3731 0
49 -3731 3732 0
49 -1216 -3731 0
49 -1216 3732 0
49 -1217 -3732 0
49 1218 1219 1220 1221 1222 1223 1224 0
49 -1218 3733 0
49 -3733 3734 0
49 -1219 -3733 0
49 -1219 3734 0
49 -3734 3735 0
49 -1220 -3734 0
49 -1220 3735 0
49 -3735 3736 0
49 -1221 -3735 0
49 -1221 3736 0
49 -3736 3737 0
49 -1222 -3736 0
49 -1222 3737 0
49 -3737 3738 0
49 -1223 -3737 0
49 -1223 3738 0
49 -1224 -3738 0
49 1225 0
49 1226 0
49 1227 1228 0
49 -1227 -1228 0
49 1229 1230 0
49 -1229 -1230 0
49 1231 0
49 1232 0
49 1233 0
49 1234 0
49 1235 1236 1237 1238 1239 1240 1241 0
49 -1235 3739 0
49 -3739 3740 0
49 -1236 -3739 0
49 -1236 3740 0
49 -3740 3741 0
49 -1237 -3740 0
49 -1237 3741 0
49 -3741 3742 0
49 -1238 -3741 0
49 -1238 3742 0
49 -3742 3743 0
49 -1239 -3742 0
49 -1239 3743 0
49 -3743 3744 0
49 -1240 -3743 0
49 -1240 3744 0
49 -1241 -3744 0
49 1242 1243 1244 1245 1246 1247 1248 0
49 -1242 3745 0
49 -3745 3746 0
49 -1243 -3745 0
49 -1243 3746 0
49 -3746 3747 0
49 -1244 -3746 0
49 -1244 3747 0
49 -3747 3748 0
49 -1245 -3747 0
49 -1245 3748 0
49 -3748 3749 0
49 -1246 -3748 0
49 -1246 3749 0
49 -3749 3750 0
49 -1247 -3749 0
49 -1247 3750 0
49 -1248 -3750 0
49 1249 1250 1251 1252 0
49 -1249 3751 0
49 -3751 3752 0
49 -1250 -3751 0
49 -1250 3752 0
49 -3752 3753 0
49 -1251 -3752 0
49 -1251 3753 0
49 -1252 -3753 0
49 1253 1254 1255 1256 0
49 -1253 3754 0
49 -3754 3755 0
49 -1254 -3754 0
49 -1254 3755 0
49 -3755 3756 0
49 -1255 -3755 0
49 -1255 3756 0
49 -1256 -3756 0
49 1257 0
49 1258 0
49 1259 0
49 1260 0
49 1261 1262 1263 1264 1265 1266 1267 0
49 -1261 3757 0
49 -3757 3758 0
49 -1262 -3757 0
49 -1262 3758 0
49 -3758 3759 0
49 -1263 -3758 0
49 -1263 3759 0
49 -3759 3760 0
49 -1264 -3759 0
49 -1264 3760 0
49 -3760 3761 0
49 -1265 -3760 0
49 -1265 3761 0
49 -3761 3762 0
49 -1266 -3761 0
49 -1266 3762 0
49 -1267 -3762 0
49 1268 1269 1270 1271 1272 1273 1274 0
49 -1268 3763 0
49 -3763 3764 0
49 -1269 -3763 0
49 -1269 3764 0
49 -3764 3765 0
49 -1270 -3764 0
49 -1270 3765 0
49 -3765 3766 0
49 -1271 -3765 0
49 -1271 3766 0
49 -3766 3767 0
49 -1272 -3766 0
49 -1272 3767 0
49 -3767 3768 0
49 -1273 -3767 0
49 -1273 3768 0
49 -1274 -3768 0
49 1275 1276 1277 1278 1279 1280 1281 1282 0
49 -1275 3769 0
49 -3769 3770 0
49 -1276 -3769 0
49 -1276 3770 0
49 -3770 3771 0
49 -1277 -3770 0
49 -1277 3771 0
49 -3771 3772 0
49 -1278 -3771 0
49 -1278 3772 0
49 -3772 3773 0
49 -1279 -3772 0
49 -1279 3773 0
49 -3773 3774 0
49 -1280 -3773 0
49 -1280 3774 0
49 -3774 3775 0
49 -1281 -3774 0
49 -1281 3775 0
49 -1282 -3775 0
49 1283 1284 1285 1286 1287 1288 1289 1290 0
49 -1283 3776 0
49 -3776 3777 0
49 -1284 -3776 0
49 -1284 3777 0
49 -3777 3778 0
49 -1285 -3777 0
49 -1285 3778 0
49 -3778 3779 0
49 -1286 -3778 0
49 -1286 3779 0
49 -3779 3780 0
49 -1287 -3779 0
49 -1287 3780 0
49 -3780 3781 0
49 -1288 -3780 0
49 -1288 3781 0
49 -3781 3782 0
49 -1289 -3781 0
49 -1289 3782 0
49 -1290 -3782 0
49 1291 1292 1293 1294 1295 1296 0
49 -1291 3783 0
49 -3783 3784 0
49 -1292 -3783 0
49 -1292 3784 0
49 -3784 3785 0
49 -1293 -3784 0
49 -1293 3785 0
49 -3785 3786 0
49 -1294 -3785 0
49 -1294 3786 0
49 -3786 3787 0
49 -1295 -3786 0
49 -1295 3787 0
49 -1296 -3787 0
49 1297 1298 1299 1300 1301 1302 0
49 -1297 3788 0
49 -3788 3789 0
49 -1298 -3788 0
49 -1298 3789 0
49 -3789 3790 0
49 -1299 -3789 0
49 -1299 3790 0
49 -3790 3791 0
49 -1300 -3790 0
49 -1300 3791 0
49 -3791 3792 0
49 -1301 -3791 0
49 -1301 3792 0
49 -1302 -3792 0
49 1303 0
49 1304 0
49 1305 1306 1307 1308 0
49 -1305 3793 0
49 -3793 3794 0
49 -1306 -3793 0
49 -1306 3794 0
49 -3794 3795 0
49 -1307 -3794 0
49 -1307 3795 0
49 -1308 -3795 0
49 1309 1310 1311 1312 0
49 -1309 3796 0
49 -3796 3797 0
49 -1310 -3796 0
49 -1310 3797 0
49 -3797 3798 0
49 -1311 -3797 0
49 -1311 3798 0
49 -1312 -3798 0
49 1313 0
49 1314 0
49 1315 0
49 1316 0
49 1317 0
49 1318 0
49 1319 0
49 1320 0
49 1321 1322 1323 1324 1325 1326 0
49 -1321 3799 0
49 -3799 3800 0
49 -1322 -3799 0
49 -1322 3800 0
49 -3800 3801 0
49 -1323 -3800 0
49 -1323 3801 0
49 -3801 3802 0
49 -1324 -3801 0
49 -1324 3802 0
49 -3802 3803 0
49 -1325 -3802 0
49 -1325 3803 0
49 -1326 -3803 0
49 1327 1328 1329 1330 1331 1332 0
49 -1327 3804 0
49 -3804 3805 0
49 -1328 -3804 0
49 -1328 3805 0
49 -3805 3806 0
49 -1329 -3805 0
49 -1329 3806 0
49 -3806 3807 0
49 -1330 -3806 0
49 -1330 3807 0
49 -3807 3808 0
49 -1331 -3807 0
49 -1331 3808 0
49 -1332 -3808 0
49 1333 0
49 1334 0
49 1335 0
49 1336 0
49 1337 0
49 1338 0
49 1339 0
49 1340 0
49 1341 1342 1343 1344 1345 1346 1347 1348 0
49 -1341 3809 0
49 -3809 3810 0
49 -1342 -3809 0
49 -1342 3810 0
49 -3810 3811 0
49 -1343 -3810 0
49 -1343 3811 0
49 -3811 3812 0
49 -1344 -3811 0
49 -1344 3812 0
49 -3812 3813 0
49 -1345 -3812 0
49 -1345 3813 0
49 -3813 3814 0
49 -1346 -3813 0
49 -1346 3814 0
49 -3814 3815 0
49 -1347 -3814 0
49 -1347 3815 0
49 -1348 -3815 0
49 1349 1350 1351 1352 1353 1354 1355 1356 0
49 -1349 3816 0
49 -3816 3817 0
49 -1350 -3816 0
49 -1350 3817 0
49 -3817 3818 0
49 -1351 -3817 0
49 -1351 3818 0
49 -3818 3819 0
49 -1352 -3818 0
49 -1352 3819 0
49 -3819 3820 0
49 -1353 -3819 0
49 -1353 3820 0
49 -3820 3821 0
49 -1354 -3820 0
49 -1354 3821 0
49 -3821 3822 0
49 -1355 -3821 0
49 -1355 3822 0
49 -1356 -3822 0
49 1357 0
49 1358 0
49 1359 0
49 1360 0
49 1361 0
49 1362 0
49 1363 0
49 1364 0
49 1365 1366 1367 0
49 -1365 3823 0
49 -3823 3824 0
49 -1366 -3823 0
49 -1366 3824 0
49 -1367 -3824 0
49 1368 1369 1370 0
49 -1368 3825 0
49 -3825 3826 0
49 -1369 -3825 0
49 -1369 3826 0
49 -1370 -3826 0
49 1371 1372 1373 1374 1375 1376 1377 1378 1379 1380 1381 0
49 -1371 3827 0
49 -3827 3828 0
49 -1372 -3827 0
49 -1372 3828 0
49 -3828 3829 0
49 -1373 -3828 0
49 -1373 3829 0
49 -3829 3830 0
49 -1374 -3829 0
49 -1374 3830 0
49 -3830 3831 0
49 -1375 -3830 0
49 -1375 3831 0
49 -3831 3832 0
49 -1376 -3831 0
49 -1376 3832 0
49 -3832 3833 0
49 -1377 -3832 0
49 -1377 3833 0
49 -3833 3834 0
49 -1378 -3833 0
49 -1378 3834 0
49 -3834 3835 0
49 -1379 -3834 0
49 -1379 3835 0
49 -3835 3836 0
49 -1380 -3835 0
49 -1380 3836 0
49 -1381 -3836 0
49 1382 1383 1384 1385 1386 1387 1388 1389 1390 1391 1392 0
49 -1382 3837 0
49 -3837 3838 0
49 -1383 -3837 0
49 -1383 3838 0
49 -3838 3839 0
49 -1384 -3838 0
49 -1384 3839 0
49 -3839 3840 0
49 -1385 -3839 0
49 -1385 3840 0
49 -3840 3841 0
49 -1386 -3840 0
49 -1386 3841 0
49 -3841 3842 0
49 -1387 -3841 0
49 -1387 3842 0
49 -3842 3843 0
49 -1388 -3842 0
49 -1388 3843 0
49 -3843 3844 0
49 -1389 -3843 0
49 -1389 3844 0
49 -3844 3845 0
49 -1390 -3844 0
49 -1390 3845 0
49 -3845 3846 0
49 -1391 -3845 0
49 -1391 3846 0
49 -1392 -3846 0
49 1393 0
49 1394 0
49 1395 1396 1397 1398 1399 1400 1401 1402 1403 1404 1405 1406 1407 1408 0
49 -1395 3847 0
49 -3847 3848 0
49 -1396 -3847 0
49 -1396 3848 0
49 -3848 3849 0
49 -1397 -3848 0
49 -1397 3849 0
49 -3849 3850 0
49 -1398 -3849 0
49 -1398 3850 0
49 -3850 3851 0
49 -1399 -3850 0
49 -1399 3851 0
49 -3851 3852 0
49 -1400 -3851 0
49 -1400 3852 0
49 -3852 3853 0
49 -1401 -3852 0
49 -1401 3853 0
49 -3853 3854 0
49 -1402 -3853 0
49 -1402 3854 0
49 -3854 3855 0
49 -1403 -3854 0
49 -1403 3855 0
49 -3855 3856 0
49 -1404 -3855 0
49 -1404 3856 0
49 -3856 3857 0
49 -1405 -3856 0
49 -1405 3857 0
49 -3857 3858 0
49 -1406 -3857 0
49 -1406 3858 0
49 -3858 3859 0
49 -1407 -3858 0
49 -1407 3859 0
49 -1408 -3859 0
49 1409 1410 1411 1412 1413 1414 1415 1416 1417 1418 1419 1420 1421 1422 0
49 -1409 3860 0
49 -3860 3861 0
49 -1410 -3860 0
49 -1410 3861 0
49 -3861 3862 0
49 -1411 -3861 0
49 -1411 3862 0
49 -3862 3863 0
49 -1412 -3862 0
49 -1412 3863 0
49 -3863 3864 0
49 -1413 -3863 0
49 -1413 3864 0
49 -3864 3865 0
49 -1414 -3864 0
49 -1414 3865 0
49 -3865 3866 0
49 -1415 -3865 0
49 -1415 3866 0
49 -3866 3867 0
49 -1416 -3866 0
49 -1416 3867 0
49 -3867 3868 0
49 -1417 -3867 0
49 -1417 3868 0
49 -3868 3869 0
49 -1418 -3868 0
49 -1418 3869 0
49 -3869 3870 0
49 -1419 -3869 0
49 -1419 3870 0
49 -3870 3871 0
49 -1420 -3870 0
49 -1420 3871 0
49 -3871 3872 0
49 -1421 -3871 0
49 -1421 3872 0
49 -1422 -3872 0
49 1423 0
49 1424 0
49 1425 0
49 1426 0
49 1427 0
49 1428 0
49 1429 1430 1431 1432 1433 0
49 -1429 3873 0
49 -3873 3874 0
49 -1430 -3873 0
49 -1430 3874 0
49 -3874 3875 0
49 -1431 -3874 0
49 -1431 3875 0
49 -3875 3876 0
49 -1432 -3875 0
49 -1432 3876 0
49 -1433 -3876 0
49 1434 1435 1436 1437 1438 0
49 -1434 3877 0
49 -3877 3878 0
49 -1435 -3877 0
49 -1435 3878 0
49 -3878 3879 0
49 -1436 -3878 0
49 -1436 3879 0
49 -3879 3880 0
49 -1437 -3879 0
49 -1437 3880 0
49 -1438 -3880 0
49 1439 0
49 1440 0
49 1441 0
49 1442 0
49 1443 1444 1445 1446 1447 1448 0
49 -1443 3881 0
49 -3881 3882 0
49 -1444 -3881 0
49 -1444 3882 0
49 -3882 3883 0
49 -1445 -3882 0
49 -1445 3883 0
49 -3883 3884 0
49 -1446 -3883 0
49 -1446 3884 0
49 -3884 3885 0
49 -1447 -3884 0
49 -1447 3885 0
49 -1448 -3885 0
49 1449 1450 1451 1452 1453 1454 0
49 -1449 3886 0
49 -3886 3887 0
49 -1450 -3886 0
49 -1450 3887 0
49 -3887 3888 0
49 -1451 -3887 0
49 -1451 3888 0
49 -3888 3889 0
49 -1452 -3888 0
49 -1452 3889 0
49 -3889 3890 0
49 -1453 -3889 0
49 -1453 3890 0
49 -1454 -3890 0
49 1455 1456 1457 1458 1459 1460 1461 0
49 -1455 3891 0
49 -3891 3892 0
49 -1456 -3891 0
49 -1456 3892 0
49 -3892 3893 0
49 -1457 -3892 0
49 -1457 3893 0
49 -3893 3894 0
49 -1458 -3893 0
49 -1458 3894 0
49 -3894 3895 0
49 -1459 -3894 0
49 -1459 3895 0
49 -3895 3896 0
49 -1460 -3895 0
49 -1460 3896 0
49 -1461 -3896 0
49 1462 1463 1464 1465 1466 1467 1468 0
49 -1462 3897 0
49 -3897 3898 0
49 -1463 -3897 0
49 -1463 3898 0
49 -3898 3899 0
49 -1464 -3898 0
49 -1464 3899 0
49 -3899 3900 0
49 -1465 -3899 0
49 -1465 3900 0
49 -3900 3901 0
49 -1466 -3900 0
49 -1466 3901 0
49 -3901 3902 0
49 -1467 -3901 0
49 -1467 3902 0
49 -1468 -3902 0
49 1469 0
49 1470 0
49 1471 0
49 1472 0
49 1473 1474 1475 1476 1477 1478 1479 1480 0
49 -1473 3903 0
49 -3903 3904 0
49 -1474 -3903 0
49 -1474 3904 0
49 -3904 3905 0
49 -1475 -3904 0
49 -1475 3905 0
49 -3905 3906 0
49 -1476 -3905 0
49 -1476 3906 0
49 -3906 3907 0
49 -1477 -3906 0
49 -1477 3907 0
49 -3907 3908 0
49 -1478 -3907 0
49 -1478 3908 0
49 -3908 3909 0
49 -1479 -3908 0
49 -1479 3909 0
49 -1480 -3909 0
49 1481 1482 1483 1484 1485 1486 1487 1488 0
49 -1481 3910 0
49 -3910 3911 0
49 -1482 -3910 0
49 -1482 3911 0
49 -3911 3912 0
49 -1483 -3911 0
49 -1483 3912 0
49 -3912 3913 0
49 -1484 -3912 0
49 -1484 3913 0
49 -3913 3914 0
49 -1485 -3913 0
49 -1485 3914 0
49 -3914 3915 0
49 -1486 -3914 0
49 -1486 3915 0
49 -3915 3916 0
49 -1487 -3915 0
49 -1487 3916 0
49 -1488 -3916 0
49 1489 1490 1491 1492 1493 1494 1495 1496 0
49 -1489 3917 0
49 -3917 3918 0
49 -1490 -3917 0
49 -1490 3918 0
49 -3918 3919 0
49 -1491 -3918 0
49 -1491 3919 0
49 -3919 3920 0
49 -1492 -3919 0
49 -1492 3920 0
49 -3920 3921 0
49 -1493 -3920 0
49 -1493 3921 0
49 -3921 3922 0
49 -1494 -3921 0
49 -1494 3922 0
49 -3922 3923 0
49 -1495 -3922 0
49 -1495 3923 0
49 -1496 -3923 0
49 1497 1498 1499 1500 1501 1502 1503 1504 0
49 -1497 3924 0
49 -3924 3925 0
49 -1498 -3924 0
49 -1498 3925 0
49 -3925 3926 0
49 -1499 -3925 0
49 -1499 3926 0
49 -3926 3927 0
49 -1500 -3926 0
49 -1500 3927 0
49 -3927 3928 0
49 -1501 -3927 0
49 -1501 3928 0
49 -3928 3929 0
49 -1502 -3928 0
49 -1502 3929 0
49 -3929 3930 0
49 -1503 -3929 0
49 -1503 3930 0
49 -1504 -3930 0
49 1505 0
49 1506 0
49 1507 1508 1509 1510 1511 1512 1513 1514 1515 1516 0
49 -1507 3931 0
49 -3931 3932 0
49 -1508 -3931 0
49 -1508 3932 0
49 -3932 3933 0
49 -1509 -3932 0
49 -1509 3933 0
49 -3933 3934 0
49 -1510 -3933 0
49 -1510 3934 0
49 -3934 3935 0
49 -1511 -3934 0
49 -1511 3935 0
49 -3935 3936 0
49 -1512 -3935 0
49 -1512 3936 0
49 -3936 3937 0
49 -1513 -3936 0
49 -1513 3937 0
49 -3937 3938 0
49 -1514 -3937 0
49 -1514 3938 0
49 -3938 3939 0
49 -1515 -3938 0
49 -1515 3939 0
49 -1516 -3939 0
49 1517 1518 1519 1520 1521 1522 1523 1524 1525 1526 0
49 -1517 3940 0
49 -3940 3941 0
49 -1518 -3940 0
49 -1518 3941 0
49 -3941 3942 0
49 -1519 -3941 0
49 -1519 3942 0
49 -3942 3943 0
49 -1520 -3942 0
49 -1520 3943 0
49 -3943 3944 0
49 -1521 -3943 0
49 -1521 3944 0
49 -3944 3945 0
49 -1522 -3944 0
49 -1522 3945 0
49 -3945 3946 0
49 -1523 -3945 0
49 -1523 3946 0
49 -3946 3947 0
49 -1524 -3946 0
49 -1524 3947 0
49 -3947 3948 0
49 -1525 -3947 0
49 -1525 3948 0
49 -1526 -3948 0
49 1527 1528 1529 1530 1531 1532 1533 1534 1535 1536 1537 1538 1539 1540 1541 1542 1543 1544 1545 1546 0
49 -1527 3949 0
49 -3949 3950 0
49 -1528 -3949 0
49 -1528 3950 0
49 -3950 3951 0
49 -1529 -3950 0
49 -1529 3951 0
49 -3951 3952 0
49 -1530 -3951 0
49 -1530 3952 0
49 -3952 3953 0
49 -1531 -3952 0
49 -1531 3953 0
49 -3953 3954 0
49 -1532 -3953 0
49 -1532 3954 0
49 -3954 3955 0
49 -1533 -3954 0
49 -1533 3955 0
49 -3955 3956 0
49 -1534 -3955 0
49 -1534 3956 0
49 -3956 3957 0
49 -1535 -3956 0
49 -1535 3957 0
49 -3957 3958 0
49 -1536 -3957 0
49 -1536 3958 0
49 -3958 3959 0
49 -1537 -3958 0
49 -1537 3959 0
49 -3959 3960 0
49 -1538 -3959 0
49 -1538 3960 0
49 -3960 3961 0
49 -1539 -3960 0
49 -1539 3961 0
49 -3961 3962 0
49 -1540 -3961 0
49 -1540 3962 0
49 -3962 3963 0
49 -1541 -3962 0
49 -1541 3963 0
49 -3963 3964 0
49 -1542 -3963 0
49 -1542 3964 0
49 -3964 3965 0
49 -1543 -3964 0
49 -1543 3965 0
49 -3965 3966 0
49 -1544 -3965 0
49 -1544 3966 0
49 -3966 3967 0
49 -1545 -3966 0
49 -1545 3967 0
49 -1546 -3967 0
49 1547 1548 1549 1550 1551 1552 1553 1554 1555 1556 1557 1558 1559 1560 1561 1562 1563 1564 1565 1566 0
49 -1547 3968 0
49 -3968 3969 0
49 -1548 -3968 0
49 -1548 3969 0
49 -3969 3970 0
49 -1549 -3969 0
49 -1549 3970 0
49 -3970 3971 0
49 -1550 -3970 0
49 -1550 3971 0
49 -3971 3972 0
49 -1551 -3971 0
49 -1551 3972 0
49 -3972 3973 0
49 -1552 -3972 0
49 -1552 3973 0
49 -3973 3974 0
49 -1553 -3973 0
49 -1553 3974 0
49 -3974 3975 0
49 -1554 -3974 0
49 -1554 3975 0
49 -3975 3976 0
49 -1555 -3975 0
49 -1555 3976 0
49 -3976 3977 0
49 -1556 -3976 0
49 -1556 3977 0
49 -3977 3978 0
49 -1557 -3977 0
49 -1557 3978 0
49 -3978 3979 0
49 -1558 -3978 0
49 -1558 3979 0
49 -3979 3980 0
49 -1559 -3979 0
49 -1559 3980 0
49 -3980 3981 0
49 -1560 -3980 0
49 -1560 3981 0
49 -3981 3982 0
49 -1561 -3981 0
49 -1561 3982 0
49 -3982 3983 0
49 -1562 -3982 0
49 -1562 3983 0
49 -3983 3984 0
49 -1563 -3983 0
49 -1563 3984 0
49 -3984 3985 0
49 -1564 -3984 0
49 -1564 3985 0
49 -3985 3986 0
49 -1565 -3985 0
49 -1565 3986 0
49 -1566 -3986 0
49 1567 1568 1569 1570 1571 1572 1573 1574 0
49 -1567 3987 0
49 -3987 3988 0
49 -1568 -3987 0
49 -1568 3988 0
49 -3988 3989 0
49 -1569 -3988 0
49 -1569 3989 0
49 -3989 3990 0
49 -1570 -3989 0
49 -1570 3990 0
49 -3990 3991 0
49 -1571 -3990 0
49 -1571 3991 0
49 -3991 3992 0
49 -1572 -3991 0
49 -1572 3992 0
49 -3992 3993 0
49 -1573 -3992 0
49 -1573 3993 0
49 -1574 -3993 0
49 1575 1576 1577 1578 1579 1580 1581 1582 0
49 -1575 3994 0
49 -3994 3995 0
49 -1576 -3994 0
49 -1576 3995 0
49 -3995 3996 0
49 -1577 -3995 0
49 -1577 3996 0
49 -3996 3997 0
49 -1578 -3996 0
49 -1578 3997 0
49 -3997 3998 0
49 -1579 -3997 0
49 -1579 3998 0
49 -3998 3999 0
49 -1580 -3998 0
49 -1580 3999 0
49 -3999 4000 0
49 -1581 -3999 0
49 -1581 4000 0
49 -1582 -4000 0
49 1583 1584 1585 1586 1587 1588 1589 1590 0
49 -1583 4001 0
49 -4001 4002 0
49 -1584 -4001 0
49 -1584 4002 0
49 -4002 4003 0
49 -1585 -4002 0
49 -1585 4003 0
49 -4003 4004 0
49 -1586 -4003 0
49 -1586 4004 0
49 -4004 4005 0
49 -1587 -4004 0
49 -1587 4005 0
49 -4005 4006 0
49 -1588 -4005 0
49 -1588 4006 0
49 -4006 4007 0
49 -1589 -4006 0
49 -1589 4007 0
49 -1590 -4007 0
49 1591 1592 1593 1594 1595 1596 1597 1598 0
49 -1591 4008 0
49 -4008 4009 0
49 -1592 -4008 0
49 -1592 4009 0
49 -4009 4010 0
49 -1593 -4009 0
49 -1593 4010 0
49 -4010 4011 0
49 -1594 -4010 0
49 -1594 4011 0
49 -4011 4012 0
49 -1595 -4011 0
49 -1595 4012 0
49 -4012 4013 0
49 -1596 -4012 0
49 -1596 4013 0
49 -4013 4014 0
49 -1597 -4013 0
49 -1597 4014 0
49 -1598 -4014 0
49 1599 0
49 1600 0
49 1601 1602 1603 1604 1605 1606 0
49 -1601 4015 0
49 -4015 4016 0
49 -1602 -4015 0
49 -1602 4016 0
49 -4016 4017 0
49 -1603 -4016 0
49 -1603 4017 0
49 -4017 4018 0
49 -1604 -4017 0
49 -1604 4018 0
49 -4018 4019 0
49 -1605 -4018 0
49 -1605 4019 0
49 -1606 -4019 0
49 1607 1608 1609 1610 1611 1612 0
49 -1607 4020 0
49 -4020 4021 0
49 -1608 -4020 0
49 -1608 4021 0
49 -4021 4022 0
49 -1609 -4021 0
49 -1609 4022 0
49 -4022 4023 0
49 -1610 -4022 0
49 -1610 4023 0
49 -4023 4024 0
49 -1611 -4023 0
49 -1611 4024 0
49 -1612 -4024 0
49 1613 0
49 1614 0
49 1615 1616 1617 1618 1619 1620 1621 1622 0
49 -1615 4025 0
49 -4025 4026 0
49 -1616 -4025 0
49 -1616 4026 0
49 -4026 4027 0
49 -1617 -4026 0
49 -1617 4027 0
49 -4027 4028 0
49 -1618 -4027 0
49 -1618 4028 0
49 -4028 4029 0
49 -1619 -4028 0
49 -1619 4029 0
49 -4029 4030 0
49 -1620 -4029 0
49 -1620 4030 0
49 -4030 4031 0
49 -1621 -4030 0
49 -1621 4031 0
49 -1622 -4031 0
49 1623 1624 1625 1626 1627 1628 1629 1630 0
49 -1623 4032 0
49 -4032 4033 0
49 -1624 -4032 0
49 -1624 4033 0
49 -4033 4034 0
49 -1625 -4033 0
49 -1625 4034 0
49 -4034 4035 0
49 -1626 -4034 0
49 -1626 4035 0
49 -4035 4036 0
49 -1627 -4035 0
49 -1627 4036 0
49 -4036 4037 0
49 -1628 -4036 0
49 -1628 4037 0
49 -4037 4038 0
49 -1629 -4037 0
49 -1629 4038 0
49 -1630 -4038 0
49 1631 0
49 1632 0
49 1633 0
49 1634 0
49 1635 0
49 1636 0
49 1637 0
49 1638 0
49 1639 0
49 1640 0
49 1641 1642 1643 1644 1645 1646 0
49 -1641 4039 0
49 -4039 4040 0
49 -1642 -4039 0
49 -1642 4040 0
49 -4040 4041 0
49 -1643 -4040 0
49 -1643 4041 0
49 -4041 4042 0
49 -1644 -4041 0
49 -1644 4042 0
49 -4042 4043 0
49 -1645 -4042 0
49 -1645 4043 0
49 -1646 -4043 0
49 1647 1648 1649 1650 1651 1652 0
49 -1647 4044 0
49 -4044 4045 0
49 -1648 -4044 0
49 -1648 4045 0
49 -4045 4046 0
49 -1649 -4045 0
49 -1649 4046 0
49 -4046 4047 0
49 -1650 -4046 0
49 -1650 4047 0
49 -4047 4048 0
49 -1651 -4047 0
49 -1651 4048 0
49 -1652 -4048 0
49 1653 0
49 1654 0
49 1655 1656 1657 1658 1659 1660 1661 1662 0
49 -1655 4049 0
49 -4049 4050 0
49 -1656 -4049 0
49 -1656 4050 0
49 -4050 4051 0
49 -1657 -4050 0
49 -1657 4051 0
49 -4051 4052 0
49 -1658 -4051 0
49 -1658 4052 0
49 -4052 4053 0
49 -1659 -4052 0
49 -1659 4053 0
49 -4053 4054 0
49 -1660 -4053 0
49 -1660 4054 0
49 -4054 4055 0
49 -1661 -4054 0
49 -1661 4055 0
49 -1662 -4055 0
49 1663 1664 1665 1666 1667 1668 1669 1670 0
49 -1663 4056 0
49 -4056 4057 0
49 -1664 -4056 0
49 -1664 4057 0
49 -4057 4058 0
49 -1665 -4057 0
49 -1665 4058 0
49 -4058 4059 0
49 -1666 -4058 0
49 -1666 4059 0
49 -4059 4060 0
49 -1667 -4059 0
49 -1667 4060 0
49 -4060 4061 0
49 -1668 -4060 0
49 -1668 4061 0
49 -4061 4062 0
49 -1669 -4061 0
49 -1669 4062 0
49 -1670 -4062 0
49 1671 0
49 1672 0
49 1673 1674 0
49 -1673 -1674 0
49 1675 1676 0
49 -1675 -1676 0
49 1677 1678 1679 1680 1681 1682 1683 1684 0
49 -1677 4063 0
49 -4063 4064 0
49 -1678 -4063 0
49 -1678 4064 0
49 -4064 4065 0
49 -1679 -4064 0
49 -1679 4065 0
49 -4065 4066 0
49 -1680 -4065 0
49 -1680 4066 0
49 -4066 4067 0
49 -1681 -4066 0
49 -1681 4067 0
49 -4067 4068 0
49 -1682 -4067 0
49 -1682 4068 0
49 -4068 4069 0
49 -1683 -4068 0
49 -1683 4069 0
49 -1684 -4069 0
49 1685 1686 1687 1688 1689 1690 1691 1692 0
49 -1685 4070 0
49 -4070 4071 0
49 -1686 -4070 0
49 -1686 4071 0
49 -4071 4072 0
49 -1687 -4071 0
49 -1687 4072 0
49 -4072 4073 0
49 -1688 -4072 0
49 -1688 4073 0
49 -4073 4074 0
49 -1689 -4073 0
49 -1689 4074 0
49 -4074 4075 0
49 -1690 -4074 0
49 -1690 4075 0
49 -4075 4076 0
49 -1691 -4075 0
49 -1691 4076 0
49 -1692 -4076 0
49 1693 0
49 1694 0
49 1695 0
49 1696 0
49 1697 1698 0
49 -1697 -1698 0
49 1699 1700 0
49 -1699 -1700 0
49 1701 1702 1703 1704 1705 1706 1707 1708 0
49 -1701 4077 0
49 -4077 4078 0
49 -1702 -4077 0
49 -1702 4078 0
49 -4078 4079 0
49 -1703 -4078 0
49 -1703 4079 0
49 -4079 4080 0
49 -1704 -4079 0
49 -1704 4080 0
49 -4080 4081 0
49 -1705 -4080 0
49 -1705 4081 0
49 -4081 4082 0
49 -1706 -4081 0
49 -1706 4082 0
49 -4082 4083 0
49 -1707 -4082 0
49 -1707 4083 0
49 -1708 -4083 0
49 1709 1710 1711 1712 1713 1714 1715 1716 0
49 -1709 4084 0
49 -4084 4085 0
49 -1710 -4084 0
49 -1710 4085 0
49 -4085 4086 0
49 -1711 -4085 0
49 -1711 4086 0
49 -4086 4087 0
49 -1712 -4086 0
49 -1712 4087 0
49 -4087 4088 0
49 -1713 -4087 0
49 -1713 4088 0
49 -4088 4089 0
49 -1714 -4088 0
49 -1714 4089 0
49 -4089 4090 0
49 -1715 -4089 0
49 -1715 4090 0
49 -1716 -4090 0
49 1717 0
49 1718 0
49 1719 0
49 1720 0
49 1721 0
49 1722 0
49 1723 0
49 1724 0
49 1725 0
49 1726 0
49 1727 0
49 1728 0
49 1729 1730 1731 1732 1733 1734 1735 1736 0
49 -1729 4091 0
49 -4091 4092 0
49 -1730 -4091 0
49 -1730 4092 0
49 -4092 4093 0
49 -1731 -4092 0
49 -1731 4093 0
49 -4093 4094 0
49 -1732 -4093 0
49 -1732 4094 0
49 -4094 4095 0
49 -1733 -4094 0
49 -1733 4095 0
49 -4095 4096 0
49 -1734 -4095 0
49 -1734 4096 0
49 -4096 4097 0
49 -1735 -4096 0
49 -1735 4097 0
49 -1736 -4097 0
49 1737 1738 1739 1740 1741 1742 1743 1744 0
49 -1737 4098 0
49 -4098 4099 0
49 -1738 -4098 0
49 -1738 4099 0
49 -4099 4100 0
49 -1739 -4099 0
49 -1739 4100 0
49 -4100 4101 0
49 -1740 -4100 0
49 -1740 4101 0
49 -4101 4102 0
49 -1741 -4101 0
49 -1741 4102 0
49 -4102 4103 0
49 -1742 -4102 0
49 -1742 4103 0
49 -4103 4104 0
49 -1743 -4103 0
49 -1743 4104 0
49 -1744 -4104 0
49 1745 0
49 1746 0
49 1747 0
49 1748 0
49 1749 1750 1751 1752 1753 1754 1755 1756 0
49 -1749 4105 0
49 -4105 4106 0
49 -1750 -4105 0
49 -1750 4106 0
49 -4106 4107 0
49 -1751 -4106 0
49 -1751 4107 0
49 -4107 4108 0
49 -1752 -4107 0
49 -1752 4108 0
49 -4108 4109 0
49 -1753 -4108 0
49 -1753 4109 0
49 -4109 4110 0
49 -1754 -4109 0
49 -1754 4110 0
49 -4110 4111 0
49 -1755 -4110 0
49 -1755 4111 0
49 -1756 -4111 0
49 1757 1758 1759 1760 1761 1762 1763 1764 0
49 -1757 4112 0
49 -4112 4113 0
49 -1758 -4112 0
49 -1758 4113 0
49 -4113 4114 0
49 -1759 -4113 0
49 -1759 4114 0
49 -4114 4115 0
49 -1760 -4114 0
49 -1760 4115 0
49 -4115 4116 0
49 -1761 -4115 0
49 -1761 4116 0
49 -4116 4117 0
49 -1762 -4116 0
49 -1762 4117 0
49 -4117 4118 0
49 -1763 -4117 0
49 -1763 4118 0
49 -1764 -4118 0
49 1765 0
49 1766 0
49 1767 0
49 1768 0
49 1769 1770 0
49 -1769 -1770 0
49 1771 1772 0
49 -1771 -1772 0
49 1773 0
49 1774 0
49 1775 0
49 1776 0
49 1777 1778 1779 1780 1781 1782 1783 1784 1785 0
49 -1777 4119 0
49 -4119 4120 0
49 -1778 -4119 0
49 -1778 4120 0
49 -4120 4121 0
49 -1779 -4120 0
49 -1779 4121 0
49 -4121 4122 0
49 -1780 -4121 0
49 -1780 4122 0
49 -4122 4123 0
49 -1781 -4122 0
49 -1781 4123 0
49 -4123 4124 0
49 -1782 -4123 0
49 -1782 4124 0
49 -4124 4125 0
49 -1783 -4124 0
49 -1783 4125 0
49 -4125 4126 0
49 -1784 -4125 0
49 -1784 4126 0
49 -1785 -4126 0
49 1786 1787 1788 1789 1790 1791 1792 1793 1794 0
49 -1786 4127 0
49 -4127 4128 0
49 -1787 -4127 0
49 -1787 4128 0
49 -4128 4129 0
49 -1788 -4128 0
49 -1788 4129 0
49 -4129 4130 0
49 -1789 -4129 0
49 -1789 4130 0
49 -4130 4131 0
49 -1790 -4130 0
49 -1790 4131 0
49 -4131 4132 0
49 -1791 -4131 0
49 -1791 4132 0
49 -4132 4133 0
49 -1792 -4132 0
49 -1792 4133 0
49 -4133 4134 0
49 -1793 -4133 0
49 -1793 4134 0
49 -1794 -4134 0
49 1795 1796 1797 1798 1799 0
49 -1795 4135 0
49 -4135 4136 0
49 -1796 -4135 0
49 -1796 4136 0
49 -4136 4137 0
49 -1797 -4136 0
49 -1797 4137 0
49 -4137 4138 0
49 -1798 -4137 0
49 -1798 4138 0
49 -1799 -4138 0
49 1800 1801 1802 1803 1804 0
49 -1800 4139 0
49 -4139 4140 0
49 -1801 -4139 0
49 -1801 4140 0
49 -4140 4141 0
49 -1802 -4140 0
49 -1802 4141 0
49 -4141 4142 0
49 -1803 -4141 0
49 -1803 4142 0
49 -1804 -4142 0
49 1805 1806 0
49 -1805 -1806 0
49 1807 1808 0
49 -1807 -1808 0
49 1809 0
49 1810 0
49 1811 0
49 1812 0
49 1813 0
49 1814 0
49 1815 0
49 1816 0
49 1817 1818 1819 1820 1821 1822 1823 1824 1825 1826 1827 0
49 -1817 4143 0
49 -4143 4144 0
49 -1818 -4143 0
49 -1818 4144 0
49 -4144 4145 0
49 -1819 -4144 0
49 -1819 4145 0
49 -4145 4146 0
49 -1820 -4145 0
49 -1820 4146 0
49 -4146 4147 0
49 -1821 -4146 0
49 -1821 4147 0
49 -4147 4148 0
49 -1822 -4147 0
49 -1822 4148 0
49 -4148 4149 0
49 -1823 -4148 0
49 -1823 4149 0
49 -4149 4150 0
49 -1824 -4149 0
49 -1824 4150 0
49 -4150 4151 0
49 -1825 -4150 0
49 -1825 4151 0
49 -4151 4152 0
49 -1826 -4151 0
49 -1826 4152 0
49 -1827 -4152 0
49 1828 1829 1830 1831 1832 1833 1834 1835 1836 1837 1838 0
49 -1828 4153 0
49 -4153 4154 0
49 -1829 -4153 0
49 -1829 4154 0
49 -4154 4155 0
49 -1830 -4154 0
49 -1830 4155 0
49 -4155 4156 0
49 -1831 -4155 0
49 -1831 4156 0
49 -4156 4157 0
49 -1832 -4156 0
49 -1832 4157 0
49 -4157 4158 0
49 -1833 -4157 0
49 -1833 4158 0
49 -4158 4159 0
49 -1834 -4158 0
49 -1834 4159 0
49 -4159 4160 0
49 -1835 -4159 0
49 -1835 4160 0
49 -4160 4161 0
49 -1836 -4160 0
49 -1836 4161 0
49 -4161 4162 0
49 -1837 -4161 0
49 -1837 4162 0
49 -1838 -4162 0
49 1839 0
49 1840 0
49 1841 0
49 1842 0
49 1843 0
49 1844 0
49 1845 0
49 1846 0
49 1847 0
49 1848 0
49 1849 1850 1851 1852 1853 1854 1855 1856 0
49 -1849 4163 0
49 -4163 4164 0
49 -1850 -4163 0
49 -1850 4164 0
49 -4164 4165 0
49 -1851 -4164 0
49 -1851 4165 0
49 -4165 4166 0
49 -1852 -4165 0
49 -1852 4166 0
49 -4166 4167 0
49 -1853 -4166 0
49 -1853 4167 0
49 -4167 4168 0
49 -1854 -4167 0
49 -1854 4168 0
49 -4168 4169 0
49 -1855 -4168 0
49 -1855 4169 0
49 -1856 -4169 0
49 1857 1858 1859 1860 1861 1862 1863 1864 0
49 -1857 4170 0
49 -4170 4171 0
49 -1858 -4170 0
49 -1858 4171 0
49 -4171 4172 0
49 -1859 -4171 0
49 -1859 4172 0
49 -4172 4173 0
49 -1860 -4172 0
49 -1860 4173 0
49 -4173 4174 0
49 -1861 -4173 0
49 -1861 4174 0
49 -4174 4175 0
49 -1862 -4174 0
49 -1862 4175 0
49 -4175 4176 0
49 -1863 -4175 0
49 -1863 4176 0
49 -1864 -4176 0
49 1865 0
49 1866 0
49 1867 1868 1869 0
49 -1867 4177 0
49 -4177 4178 0
49 -1868 -4177 0
49 -1868 4178 0
49 -1869 -4178 0
49 1870 1871 1872 0
49 -1870 4179 0
49 -4179 4180 0
49 -1871 -4179 0
49 -1871 4180 0
49 -1872 -4180 0
49 1873 0
49 1874 0
49 1875 0
49 1876 0
49 1877 0
49 1878 0
49 1879 0
49 1880 0
49 1881 1882 1883 0
49 -1881 4181 0
49 -4181 4182 0
49 -1882 -4181 0
49 -1882 4182 0
49 -1883 -4182 0
49 1884 1885 1886 0
49 -1884 4183 0
49 -4183 4184 0
49 -1885 -4183 0
49 -1885 4184 0
49 -1886 -4184 0
49 1887 0
49 1888 0
49 1889 0
49 1890 0
49 1891 0
49 1892 0
49 1893 0
49 1894 0
49 1895 0
49 1896 0
49 1897 0
49 1898 0
49 1899 0
49 1900 0
49 1901 0
49 1902 0
49 1903 0
49 1904 0
49 1905 0
49 1906 0
49 1907 0
49 1908 0
49 1909 1910 1911 1912 1913 1914 1915 1916 1917 1918 1919 0
49 -1909 4185 0
49 -4185 4186 0
49 -1910 -4185 0
49 -1910 4186 0
49 -4186 4187 0
49 -1911 -4186 0
49 -1911 4187 0
49 -4187 4188 0
49 -1912 -4187 0
49 -1912 4188 0
49 -4188 4189 0
49 -1913 -4188 0
49 -1913 4189 0
49 -4189 4190 0
49 -1914 -4189 0
49 -1914 4190 0
49 -4190 4191 0
49 -1915 -4190 0
49 -1915 4191 0
49 -4191 4192 0
49 -1916 -4191 0
49 -1916 4192 0
49 -4192 4193 0
49 -1917 -4192 0
49 -1917 4193 0
49 -4193 4194 0
49 -1918 -4193 0
49 -1918 4194 0
49 -1919 -4194 0
49 1920 1921 1922 1923 1924 1925 1926 1927 1928 1929 1930 0
49 -1920 4195 0
49 -4195 4196 0
49 -1921 -4195 0
49 -1921 4196 0
49 -4196 4197 0
49 -1922 -4196 0
49 -1922 4197 0
49 -4197 4198 0
49 -1923 -4197 0
49 -1923 4198 0
49 -4198 4199 0
49 -1924 -4198 0
49 -1924 4199 0
49 -4199 4200 0
49 -1925 -4199 0
49 -1925 4200 0
49 -4200 4201 0
49 -1926 -4200 0
49 -1926 4201 0
49 -4201 4202 0
49 -1927 -4201 0
49 -1927 4202 0
49 -4202 4203 0
49 -1928 -4202 0
49 -1928 4203 0
49 -4203 4204 0
49 -1929 -4203 0
49 -1929 4204 0
49 -1930 -4204 0
49 1931 0
49 1932 0
49 1933 0
49 1934 0
49 1935 0
49 1936 0
49 1937 0
49 1938 0
49 1939 0
49 1940 0
49 1941 0
49 1942 0
49 1943 1944 1945 1946 1947 0
49 -1943 4205 0
49 -4205 4206 0
49 -1944 -4205 0
49 -1944 4206 0
49 -4206 4207 0
49 -1945 -4206 0
49 -1945 4207 0
49 -4207 4208 0
49 -1946 -4207 0
49 -1946 4208 0
49 -1947 -4208 0
49 1948 1949 1950 1951 1952 0
49 -1948 4209 0
49 -4209 4210 0
49 -1949 -4209 0
49 -1949 4210 0
49 -4210 4211 0
49 -1950 -4210 0
49 -1950 4211 0
49 -4211 4212 0
49 -1951 -4211 0
49 -1951 4212 0
49 -1952 -4212 0
49 1953 1954 1955 1956 1957 1958 1959 1960 0
49 -1953 4213 0
49 -4213 4214 0
49 -1954 -4213 0
49 -1954 4214 0
49 -4214 4215 0
49 -1955 -4214 0
49 -1955 4215 0
49 -4215 4216 0
49 -1956 -4215 0
49 -1956 4216 0
49 -4216 4217 0
49 -1957 -4216 0
49 -1957 4217 0
49 -4217 4218 0
49 -1958 -4217 0
49 -1958 4218 0
49 -4218 4219 0
49 -1959 -4218 0
49 -1959 4219 0
49 -1960 -4219 0
49 1961 1962 1963 1964 1965 1966 1967 1968 0
49 -1961 4220 0
49 -4220 4221 0
49 -1962 -4220 0
49 -1962 4221 0
49 -4221 4222 0
49 -1963 -4221 0
49 -1963 4222 0
49 -4222 4223 0
49 -1964 -4222 0
49 -1964 4223 0
49 -4223 4224 0
49 -1965 -4223 0
49 -1965 4224 0
49 -4224 4225 0
49 -1966 -4224 0
49 -1966 4225 0
49 -4225 4226 0
49 -1967 -4225 0
49 -1967 4226 0
49 -1968 -4226 0
49 1969 1970 1971 0
49 -1969 4227 0
49 -4227 4228 0
49 -1970 -4227 0
49 -1970 4228 0
49 -1971 -4228 0
49 1972 1973 1974 0
49 -1972 4229 0
49 -4229 4230 0
49 -1973 -4229 0
49 -1973 4230 0
49 -1974 -4230 0
49 1975 0
49 1976 0
49 1977 0
49 1978 0
49 1979 1980 1981 1982 1983 1984 1985 1986 0
49 -1979 4231 0
49 -4231 4232 0
49 -1980 -4231 0
49 -1980 4232 0
49 -4232 4233 0
49 -1981 -4232 0
49 -1981 4233 0
49 -4233 4234 0
49 -1982 -4233 0
49 -1982 4234 0
49 -4234 4235 0
49 -1983 -4234 0
49 -1983 4235 0
49 -4235 4236 0
49 -1984 -4235 0
49 -1984 4236 0
49 -4236 4237 0
49 -1985 -4236 0
49 -1985 4237 0
49 -1986 -4237 0
49 1987 1988 1989 1990 1991 1992 1993 1994 0
49 -1987 4238 0
49 -4238 4239 0
49 -1988 -4238 0
49 -1988 4239 0
49 -4239 4240 0
49 -1989 -4239 0
49 -1989 4240 0
49 -4240 4241 0
49 -1990 -4240 0
49 -1990 4241 0
49 -4241 4242 0
49 -1991 -4241 0
49 -1991 4242 0
49 -4242 4243 0
49 -1992 -4242 0
49 -1992 4243 0
49 -4243 4244 0
49 -1993 -4243 0
49 -1993 4244 0
49 -1994 -4244 0
49 1995 0
49 1996 0
49 1997 1998 1999 2000 2001 2002 2003 2004 2005 2006 2007 2008 2009 2010 0
49 -1997 4245 0
49 -4245 4246 0
49 -1998 -4245 0
49 -1998 4246 0
49 -4246 4247 0
49 -1999 -4246 0
49 -1999 4247 0
49 -4247 4248 0
49 -2000 -4247 0
49 -2000 4248 0
49 -4248 4249 0
49 -2001 -4248 0
49 -2001 4249 0
49 -4249 4250 0
49 -2002 -4249 0
49 -2002 4250 0
49 -4250 4251 0
49 -2003 -4250 0
49 -2003 4251 0
49 -4251 4252 0
49 -2004 -4251 0
49 -2004 4252 0
49 -4252 4253 0
49 -2005 -4252 0
49 -2005 4253 0
49 -4253 4254 0
49 -2006 -4253 0
49 -2006 4254 0
49 -4254 4255 0
49 -2007 -4254 0
49 -2007 4255 0
49 -4255 4256 0
49 -2008 -4255 0
49 -2008 4256 0
49 -4256 4257 0
49 -2009 -4256 0
49 -2009 4257 0
49 -2010 -4257 0
49 2011 2012 2013 2014 2015 2016 2017 2018 2019 2020 2021 2022 2023 2024 0
49 -2011 4258 0
49 -4258 4259 0
49 -2012 -4258 0
49 -2012 4259 0
49 -4259 4260 0
49 -2013 -4259 0
49 -2013 4260 0
49 -4260 4261 0
49 -2014 -4260 0
49 -2014 4261 0
49 -4261 4262 0
49 -2015 -4261 0
49 -2015 4262 0
49 -4262 4263 0
49 -2016 -4262 0
49 -2016 4263 0
49 -4263 4264 0
49 -2017 -4263 0
49 -2017 4264 0
49 -4264 4265 0
49 -2018 -4264 0
49 -2018 4265 0
49 -4265 4266 0
49 -2019 -4265 0
49 -2019 4266 0
49 -4266 4267 0
49 -2020 -4266 0
49 -2020 4267 0
49 -4267 4268 0
49 -2021 -4267 0
49 -2021 4268 0
49 -4268 4269 0
49 -2022 -4268 0
49 -2022 4269 0
49 -4269 4270 0
49 -2023 -4269 0
49 -2023 4270 0
49 -2024 -4270 0
49 2025 0
49 2026 0
49 2027 2028 2029 2030 2031 2032 2033 2034 0
49 -2027 4271 0
49 -4271 4272 0
49 -2028 -4271 0
49 -2028 4272 0
49 -4272 4273 0
49 -2029 -4272 0
49 -2029 4273 0
49 -4273 4274 0
49 -2030 -4273 0
49 -2030 4274 0
49 -4274 4275 0
49 -2031 -4274 0
49 -2031 4275 0
49 -4275 4276 0
49 -2032 -4275 0
49 -2032 4276 0
49 -4276 4277 0
49 -2033 -4276 0
49 -2033 4277 0
49 -2034 -4277 0
49 2035 2036 2037 2038 2039 2040 2041 2042 0
49 -2035 4278 0
49 -4278 4279 0
49 -2036 -4278 0
49 -2036 4279 0
49 -4279 4280 0
49 -2037 -4279 0
49 -2037 4280 0
49 -4280 4281 0
49 -2038 -4280 0
49 -2038 4281 0
49 -4281 4282 0
49 -2039 -4281 0
49 -2039 4282 0
49 -4282 4283 0
49 -2040 -4282 0
49 -2040 4283 0
49 -4283 4284 0
49 -2041 -4283 0
49 -2041 4284 0
49 -2042 -4284 0
49 2043 0
49 2044 0
49 2045 2046 2047 2048 0
49 -2045 4285 0
49 -4285 4286 0
49 -2046 -4285 0
49 -2046 4286 0
49 -4286 4287 0
49 -2047 -4286 0
49 -2047 4287 0
49 -2048 -4287 0
49 2049 2050 2051 2052 0
49 -2049 4288 0
49 -4288 4289 0
49 -2050 -4288 0
49 -2050 4289 0
49 -4289 4290 0
49 -2051 -4289 0
49 -2051 4290 0
49 -2052 -4290 0
49 2053 0
49 2054 0
49 2055 0
49 2056 0
49 2057 0
49 2058 0
49 2059 0
49 2060 0
49 2061 0
49 2062 0
49 2063 0
49 2064 0
49 2065 2066 2067 2068 2069 2070 2071 2072 2073 0
49 -2065 4291 0
49 -4291 4292 0
49 -2066 -4291 0
49 -2066 4292 0
49 -4292 4293 0
49 -2067 -4292 0
49 -2067 4293 0
49 -4293 4294 0
49 -2068 -4293 0
49 -2068 4294 0
49 -4294 4295 0
49 -2069 -4294 0
49 -2069 4295 0
49 -4295 4296 0
49 -2070 -4295 0
49 -2070 4296 0
49 -4296 4297 0
49 -2071 -4296 0
49 -2071 4297 0
49 -4297 4298 0
49 -2072 -4297 0
49 -2072 4298 0
49 -2073 -4298 0
49 2074 2075 2076 2077 2078 2079 2080 2081 2082 0
49 -2074 4299 0
49 -4299 4300 0
49 -2075 -4299 0
49 -2075 4300 0
49 -4300 4301 0
49 -2076 -4300 0
49 -2076 4301 0
49 -4301 4302 0
49 -2077 -4301 0
49 -2077 4302 0
49 -4302 4303 0
49 -2078 -4302 0
49 -2078 4303 0
49 -4303 4304 0
49 -2079 -4303 0
49 -2079 4304 0
49 -4304 4305 0
49 -2080 -4304 0
49 -2080 4305 0
49 -4305 4306 0
49 -2081 -4305 0
49 -2081 4306 0
49 -2082 -4306 0
49 2083 0
49 2084 0
49 2085 0
49 2086 0
49 2087 2088 2089 2090 2091 2092 2093 2094 0
49 -2087 4307 0
49 -4307 4308 0
49 -2088 -4307 0
49 -2088 4308 0
49 -4308 4309 0
49 -2089 -4308 0
49 -2089 4309 0
49 -4309 4310 0
49 -2090 -4309 0
49 -2090 4310 0
49 -4310 4311 0
49 -2091 -4310 0
49 -2091 4311 0
49 -4311 4312 0
49 -2092 -4311 0
49 -2092 4312 0
49 -4312 4313 0
49 -2093 -4312 0
49 -2093 4313 0
49 -2094 -4313 0
49 2095 2096 2097 2098 2099 2100 2101 2102 0
49 -2095 4314 0
49 -4314 4315 0
49 -2096 -4314 0
49 -2096 4315 0
49 -4315 4316 0
49 -2097 -4315 0
49 -2097 4316 0
49 -4316 4317 0
49 -2098 -4316 0
49 -2098 4317 0
49 -4317 4318 0
49 -2099 -4317 0
49 -2099 4318 0
49 -4318 4319 0
49 -2100 -4318 0
49 -2100 4319 0
49 -4319 4320 0
49 -2101 -4319 0
49 -2101 4320 0
49 -2102 -4320 0
49 2103 0
49 2104 0
49 2105 0
49 2106 0
49 2107 0
49 2108 0
49 2109 0
49 2110 0
49 2111 2112 2113 2114 2115 2116 2117 0
49 -2111 4321 0
49 -4321 4322 0
49 -2112 -4321 0
49 -2112 4322 0
49 -4322 4323 0
49 -2113 -4322 0
49 -2113 4323 0
49 -4323 4324 0
49 -2114 -4323 0
49 -2114 4324 0
49 -4324 4325 0
49 -2115 -4324 0
49 -2115 4325 0
49 -4325 4326 0
49 -2116 -4325 0
49 -2116 4326 0
49 -2117 -4326 0
49 2118 2119 2120 2121 2122 2123 2124 0
49 -2118 4327 0
49 -4327 4328 0
49 -2119 -4327 0
49 -2119 4328 0
49 -4328 4329 0
49 -2120 -4328 0
49 -2120 4329 0
49 -4329 4330 0
49 -2121 -4329 0
49 -2121 4330 0
49 -4330 4331 0
49 -2122 -4330 0
49 -2122 4331 0
49 -4331 4332 0
49 -2123 -4331 0
49 -2123 4332 0
49 -2124 -4332 0
49 2125 2126 2127 2128 0
49 -2125 4333 0
49 -4333 4334 0
49 -2126 -4333 0
49 -2126 4334 0
49 -4334 4335 0
49 -2127 -4334 0
49 -2127 4335 0
49 -2128 -4335 0
49 2129 2130 2131 2132 0
49 -2129 4336 0
49 -4336 4337 0
49 -2130 -4336 0
49 -2130 4337 0
49 -4337 4338 0
49 -2131 -4337 0
49 -2131 4338 0
49 -2132 -4338 0
49 2133 2134 2135 2136 2137 2138 2139 2140 0
49 -2133 4339 0
49 -4339 4340 0
49 -2134 -4339 0
49 -2134 4340 0
49 -4340 4341 0
49 -2135 -4340 0
49 -2135 4341 0
49 -4341 4342 0
49 -2136 -4341 0
49 -2136 4342 0
49 -4342 4343 0
49 -2137 -4342 0
49 -2137 4343 0
49 -4343 4344 0
49 -2138 -4343 0
49 -2138 4344 0
49 -4344 4345 0
49 -2139 -4344 0
49 -2139 4345 0
49 -2140 -4345 0
49 2141 2142 2143 2144 2145 2146 2147 2148 0
49 -2141 4346 0
49 -4346 4347 0
49 -2142 -4346 0
49 -2142 4347 0
49 -4347 4348 0
49 -2143 -4347 0
49 -2143 4348 0
49 -4348 4349 0
49 -2144 -4348 0
49 -2144 4349 0
49 -4349 4350 0
49 -2145 -4349 0
49 -2145 4350 0
49 -4350 4351 0
49 -2146 -4350 0
49 -2146 4351 0
49 -4351 4352 0
49 -2147 -4351 0
49 -2147 4352 0
49 -2148 -4352 0
49 2149 0
49 2150 0
49 2151 0
49 2152 0
49 2153 0
49 2154 0
49 2155 0
49 2156 0
49 2157 0
49 2158 0
49 2159 0
49 2160 0
49 2161 0
49 2162 0
49 2163 2164 2165 2166 2167 2168 2169 2170 0
49 -2163 4353 0
49 -4353 4354 0
49 -2164 -4353 0
49 -2164 4354 0
49 -4354 4355 0
49 -2165 -4354 0
49 -2165 4355 0
49 -4355 4356 0
49 -2166 -4355 0
49 -2166 4356 0
49 -4356 4357 0
49 -2167 -4356 0
49 -2167 4357 0
49 -4357 4358 0
49 -2168 -4357 0
49 -2168 4358 0
49 -4358 4359 0
49 -2169 -4358 0
49 -2169 4359 0
49 -2170 -4359 0
49 2171 2172 2173 2174 2175 2176 2177 2178 0
49 -2171 4360 0
49 -4360 4361 0
49 -2172 -4360 0
49 -2172 4361 0
49 -4361 4362 0
49 -2173 -4361 0
49 -2173 4362 0
49 -4362 4363 0
49 -2174 -4362 0
49 -2174 4363 0
49 -4363 4364 0
49 -2175 -4363 0
49 -2175 4364 0
49 -4364 4365 0
49 -2176 -4364 0
49 -2176 4365 0
49 -4365 4366 0
49 -2177 -4365 0
49 -2177 4366 0
49 -2178 -4366 0
49 2179 0
49 2180 0
49 2181 0
49 2182 0
49 2183 2184 2185 0
49 -2183 4367 0
49 -4367 4368 0
49 -2184 -4367 0
49 -2184 4368 0
49 -2185 -4368 0
49 2186 2187 2188 0
49 -2186 4369 0
49 -4369 4370 0
49 -2187 -4369 0
49 -2187 4370 0
49 -2188 -4370 0
49 2189 0
49 2190 0
49 2191 0
49 2192 0
49 2193 0
49 2194 0
49 2195 0
49 2196 0
49 2197 2198 2199 2200 2201 2202 0
49 -2197 4371 0
49 -4371 4372 0
49 -2198 -4371 0
49 -2198 4372 0
49 -4372 4373 0
49 -2199 -4372 0
49 -2199 4373 0
49 -4373 4374 0
49 -2200 -4373 0
49 -2200 4374 0
49 -4374 4375 0
49 -2201 -4374 0
49 -2201 4375 0
49 -2202 -4375 0
49 2203 2204 2205 2206 2207 2208 0
49 -2203 4376 0
49 -4376 4377 0
49 -2204 -4376 0
49 -2204 4377 0
49 -4377 4378 0
49 -2205 -4377 0
49 -2205 4378 0
49 -4378 4379 0
49 -2206 -4378 0
49 -2206 4379 0
49 -4379 4380 0
49 -2207 -4379 0
49 -2207 4380 0
49 -2208 -4380 0
49 2209 0
49 2210 0
49 2211 0
49 2212 0
49 2213 0
49 2214 0
49 2215 2216 2217 2218 2219 2220 2221 2222 0
49 -2215 4381 0
49 -4381 4382 0
49 -2216 -4381 0
49 -2216 4382 0
49 -4382 4383 0
49 -2217 -4382 0
49 -2217 4383 0
49 -4383 4384 0
49 -2218 -4383 0
49 -2218 4384 0
49 -4384 4385 0
49 -2219 -4384 0
49 -2219 4385 0
49 -4385 4386 0
49 -2220 -4385 0
49 -2220 4386 0
49 -4386 4387 0
49 -2221 -4386 0
49 -2221 4387 0
49 -2222 -4387 0
49 2223 2224 2225 2226 2227 2228 2229 2230 0
49 -2223 4388 0
49 -4388 4389 0
49 -2224 -4388 0
49 -2224 4389 0
49 -4389 4390 0
49 -2225 -4389 0
49 -2225 4390 0
49 -4390 4391 0
49 -2226 -4390 0
49 -2226 4391 0
49 -4391 4392 0
49 -2227 -4391 0
49 -2227 4392 0
49 -4392 4393 0
49 -2228 -4392 0
49 -2228 4393 0
49 -4393 4394 0
49 -2229 -4393 0
49 -2229 4394 0
49 -2230 -4394 0
49 2231 0
49 2232 0
49 2233 0
49 2234 0
49 2235 0
49 2236 0
49 2237 2238 2239 2240 2241 2242 2243 2244 0
49 -2237 4395 0
49 -4395 4396 0
49 -2238 -4395 0
49 -2238 4396 0
49 -4396 4397 0
49 -2239 -4396 0
49 -2239 4397 0
49 -4397 4398 0
49 -2240 -4397 0
49 -2240 4398 0
49 -4398 4399 0
49 -2241 -4398 0
49 -2241 4399 0
49 -4399 4400 0
49 -2242 -4399 0
49 -2242 4400 0
49 -4400 4401 0
49 -2243 -4400 0
49 -2243 4401 0
49 -2244 -4401 0
49 2245 2246 2247 2248 2249 2250 2251 2252 0
49 -2245 4402 0
49 -4402 4403 0
49 -2246 -4402 0
49 -2246 4403 0
49 -4403 4404 0
49 -2247 -4403 0
49 -2247 4404 0
49 -4404 4405 0
49 -2248 -4404 0
49 -2248 4405 0
49 -4405 4406 0
49 -2249 -4405 0
49 -2249 4406 0
49 -4406 4407 0
49 -2250 -4406 0
49 -2250 4407 0
49 -4407 4408 0
49 -2251 -4407 0
49 -2251 4408 0
49 -2252 -4408 0
49 2253 0
49 2254 0
49 2255 0
49 2256 0
49 2257 0
49 2258 0
49 2259 0
49 2260 0
49 2261 0
49 2262 0
49 2263 2264 2265 2266 2267 2268 2269 2270 0
49 -2263 4409 0
49 -4409 4410 0
49 -2264 -4409 0
49 -2264 4410 0
49 -4410 4411 0
49 -2265 -4410 0
49 -2265 4411 0
49 -4411 4412 0
49 -2266 -4411 0
49 -2266 4412 0
49 -4412 4413 0
49 -2267 -4412 0
49 -2267 4413 0
49 -4413 4414 0
49 -2268 -4413 0
49 -2268 4414 0
49 -4414 4415 0
49 -2269 -4414 0
49 -2269 4415 0
49 -2270 -4415 0
49 2271 2272 2273 2274 2275 2276 2277 2278 0
49 -2271 4416 0
49 -4416 4417 0
49 -2272 -4416 0
49 -2272 4417 0
49 -4417 4418 0
49 -2273 -4417 0
49 -2273 4418 0
49 -4418 4419 0
49 -2274 -4418 0
49 -2274 4419 0
49 -4419 4420 0
49 -2275 -4419 0
49 -2275 4420 0
49 -4420 4421 0
49 -2276 -4420 0
49 -2276 4421 0
49 -4421 4422 0
49 -2277 -4421 0
49 -2277 4422 0
49 -2278 -4422 0
49 2279 2280 0
49 -2279 -2280 0
49 2281 2282 0
49 -2281 -2282 0
49 2283 0
49 2284 0
49 2285 0
49 2286 0
49 2287 0
49 2288 0
49 2289 0
49 2290 0
49 2291 0
49 2292 0
49 2293 0
49 2294 0
49 2295 2296 2297 2298 2299 2300 2301 2302 2303 0
49 -2295 4423 0
49 -4423 4424 0
49 -2296 -4423 0
49 -2296 4424 0
49 -4424 4425 0
49 -2297 -4424 0
49 -2297 4425 0
49 -4425 4426 0
49 -2298 -4425 0
49 -2298 4426 0
49 -4426 4427 0
49 -2299 -4426 0
49 -2299 4427 0
49 -4427 4428 0
49 -2300 -4427 0
49 -2300 4428 0
49 -4428 4429 0
49 -2301 -4428 0
49 -2301 4429 0
49 -4429 4430 0
49 -2302 -4429 0
49 -2302 4430 0
49 -2303 -4430 0
49 2304 2305 2306 2307 2308 2309 2310 2311 2312 0
49 -2304 4431 0
49 -4431 4432 0
49 -2305 -4431 0
49 -2305 4432 0
49 -4432 4433 0
49 -2306 -4432 0
49 -2306 4433 0
49 -4433 4434 0
49 -2307 -4433 0
49 -2307 4434 0
49 -4434 4435 0
49 -2308 -4434 0
49 -2308 4435 0
49 -4435 4436 0
49 -2309 -4435 0
49 -2309 4436 0
49 -4436 4437 0
49 -2310 -4436 0
49 -2310 4437 0
49 -4437 4438 0
49 -2311 -4437 0
49 -2311 4438 0
49 -2312 -4438 0
49 2313 0
49 2314 0
49 2315 0
49 2316 0
49 2317 2318 2319 2320 2321 2322 2323 2324 0
49 -2317 4439 0
49 -4439 4440 0
49 -2318 -4439 0
49 -2318 4440 0
49 -4440 4441 0
49 -2319 -4440 0
49 -2319 4441 0
49 -4441 4442 0
49 -2320 -4441 0
49 -2320 4442 0
49 -4442 4443 0
49 -2321 -4442 0
49 -2321 4443 0
49 -4443 4444 0
49 -2322 -4443 0
49 -2322 4444 0
49 -4444 4445 0
49 -2323 -4444 0
49 -2323 4445 0
49 -2324 -4445 0
49 2325 2326 2327 2328 2329 2330 2331 2332 0
49 -2325 4446 0
49 -4446 4447 0
49 -2326 -4446 0
49 -2326 4447 0
49 -4447 4448 0
49 -2327 -4447 0
49 -2327 4448 0
49 -4448 4449 0
49 -2328 -4448 0
49 -2328 4449 0
49 -4449 4450 0
49 -2329 -4449 0
49 -2329 4450 0
49 -4450 4451 0
49 -2330 -4450 0
49 -2330 4451 0
49 -4451 4452 0
49 -2331 -4451 0
49 -2331 4452 0
49 -2332 -4452 0
49 2333 0
49 2334 0
49 2335 2336 2337 2338 2339 2340 2341 2342 0
49 -2335 4453 0
49 -4453 4454 0
49 -2336 -4453 0
49 -2336 4454 0
49 -4454 4455 0
49 -2337 -4454 0
49 -2337 4455 0
49 -4455 4456 0
49 -2338 -4455 0
49 -2338 4456 0
49 -4456 4457 0
49 -2339 -4456 0
49 -2339 4457 0
49 -4457 4458 0
49 -2340 -4457 0
49 -2340 4458 0
49 -4458 4459 0
49 -2341 -4458 0
49 -2341 4459 0
49 -2342 -4459 0
49 2343 2344 2345 2346 2347 2348 2349 2350 0
49 -2343 4460 0
49 -4460 4461 0
49 -2344 -4460 0
49 -2344 4461 0
49 -4461 4462 0
49 -2345 -4461 0
49 -2345 4462 0
49 -4462 4463 0
49 -2346 -4462 0
49 -2346 4463 0
49 -4463 4464 0
49 -2347 -4463 0
49 -2347 4464 0
49 -4464 4465 0
49 -2348 -4464 0
49 -2348 4465 0
49 -4465 4466 0
49 -2349 -4465 0
49 -2349 4466 0
49 -2350 -4466 0
49 2351 0
49 2352 0
49 2353 0
49 2354 0
49 2355 0
49 2356 0
49 2357 2358 2359 2360 2361 2362 2363 2364 0
49 -2357 4467 0
49 -4467 4468 0
49 -2358 -4467 0
49 -2358 4468 0
49 -4468 4469 0
49 -2359 -4468 0
49 -2359 4469 0
49 -4469 4470 0
49 -2360 -4469 0
49 -2360 4470 0
49 -4470 4471 0
49 -2361 -4470 0
49 -2361 4471 0
49 -4471 4472 0
49 -2362 -4471 0
49 -2362 4472 0
49 -4472 4473 0
49 -2363 -4472 0
49 -2363 4473 0
49 -2364 -4473 0
49 2365 2366 2367 2368 2369 2370 2371 2372 0
49 -2365 4474 0
49 -4474 4475 0
49 -2366 -4474 0
49 -2366 4475 0
49 -4475 4476 0
49 -2367 -4475 0
49 -2367 4476 0
49 -4476 4477 0
49 -2368 -4476 0
49 -2368 4477 0
49 -4477 4478 0
49 -2369 -4477 0
49 -2369 4478 0
49 -4478 4479 0
49 -2370 -4478 0
49 -2370 4479 0
49 -4479 4480 0
49 -2371 -4479 0
49 -2371 4480 0
49 -2372 -4480 0
49 2373 0
49 2374 0
49 2375 0
49 2376 0
49 2377 2378 2379 2380 2381 2382 2383 2384 0
49 -2377 4481 0
49 -4481 4482 0
49 -2378 -4481 0
49 -2378 4482 0
49 -4482 4483 0
49 -2379 -4482 0
49 -2379 4483 0
49 -4483 4484 0
49 -2380 -4483 0
49 -2380 4484 0
49 -4484 4485 0
49 -2381 -4484 0
49 -2381 4485 0
49 -4485 4486 0
49 -2382 -4485 0
49 -2382 4486 0
49 -4486 4487 0
49 -2383 -4486 0
49 -2383 4487 0
49 -2384 -4487 0
49 2385 2386 2387 2388 2389 2390 2391 2392 0
49 -2385 4488 0
49 -4488 4489 0
49 -2386 -4488 0
49 -2386 4489 0
49 -4489 4490 0
49 -2387 -4489 0
49 -2387 4490 0
49 -4490 4491 0
49 -2388 -4490 0
49 -2388 4491 0
49 -4491 4492 0
49 -2389 -4491 0
49 -2389 4492 0
49 -4492 4493 0
49 -2390 -4492 0
49 -2390 4493 0
49 -4493 4494 0
49 -2391 -4493 0
49 -2391 4494 0
49 -2392 -4494 0
49 2393 0
49 2394 0
49 2395 0
49 2396 0
49 2397 2398 2399 2400 2401 2402 0
49 -2397 4495 0
49 -4495 4496 0
49 -2398 -4495 0
49 -2398 4496 0
49 -4496 4497 0
49 -2399 -4496 0
49 -2399 4497 0
49 -4497 4498 0
49 -2400 -4497 0
49 -2400 4498 0
49 -4498 4499 0
49 -2401 -4498 0
49 -2401 4499 0
49 -2402 -4499 0
49 2403 2404 2405 2406 2407 2408 0
49 -2403 4500 0
49 -4500 4501 0
49 -2404 -4500 0
49 -2404 4501 0
49 -4501 4502 0
49 -2405 -4501 0
49 -2405 4502 0
49 -4502 4503 0
49 -2406 -4502 0
49 -2406 4503 0
49 -4503 4504 0
49 -2407 -4503 0
49 -2407 4504 0
49 -2408 -4504 0
49 2409 0
49 2410 0
49 2411 0
49 2412 0
49 2413 0
49 2414 0
49 2415 2416 2417 2418 2419 2420 2421 2422 0
49 -2415 4505 0
49 -4505 4506 0
49 -2416 -4505 0
49 -2416 4506 0
49 -4506 4507 0
49 -2417 -4506 0
49 -2417 4507 0
49 -4507 4508 0
49 -2418 -4507 0
49 -2418 4508 0
49 -4508 4509 0
49 -2419 -4508 0
49 -2419 4509 0
49 -4509 4510 0
49 -2420 -4509 0
49 -2420 4510 0
49 -4510 4511 0
49 -2421 -4510 0
49 -2421 4511 0
49 -2422 -4511 0
49 2423 2424 2425 2426 2427 2428 2429 2430 0
49 -2423 4512 0
49 -4512 4513 0
49 -2424 -4512 0
49 -2424 4513 0
49 -4513 4514 0
49 -2425 -4513 0
49 -2425 4514 0
49 -4514 4515 0
49 -2426 -4514 0
49 -2426 4515 0
49 -4515 4516 0
49 -2427 -4515 0
49 -2427 4516 0
49 -4516 4517 0
49 -2428 -4516 0
49 -2428 4517 0
49 -4517 4518 0
49 -2429 -4517 0
49 -2429 4518 0
49 -2430 -4518 0
49 2431 0
49 2432 0
49 2433 2434 2435 2436 0
49 -2433 4519 0
49 -4519 4520 0
49 -2434 -4519 0
49 -2434 4520 0
49 -4520 4521 0
49 -2435 -4520 0
49 -2435 4521 0
49 -2436 -4521 0
49 2437 2438 2439 2440 0
49 -2437 4522 0
49 -4522 4523 0
49 -2438 -4522 0
49 -2438 4523 0
49 -4523 4524 0
49 -2439 -4523 0
49 -2439 4524 0
49 -2440 -4524 0
49 2441 0
49 2442 0
49 2443 0
49 2444 0
49 2445 0
49 2446 0
49 2447 0
49 2448 0
49 2449 2450 2451 2452 2453 2454 2455 2456 0
49 -2449 4525 0
49 -4525 4526 0
49 -2450 -4525 0
49 -2450 4526 0
49 -4526 4527 0
49 -2451 -4526 0
49 -2451 4527 0
49 -4527 4528 0
49 -2452 -4527 0
49 -2452 4528 0
49 -4528 4529 0
49 -2453 -4528 0
49 -2453 4529 0
49 -4529 4530 0
49 -2454 -4529 0
49 -2454 4530 0
49 -4530 4531 0
49 -2455 -4530 0
49 -2455 4531 0
49 -2456 -4531 0
49 2457 2458 2459 2460 2461 2462 2463 2464 0
49 -2457 4532 0
49 -4532 4533 0
49 -2458 -4532 0
49 -2458 4533 0
49 -4533 4534 0
49 -2459 -4533 0
49 -2459 4534 0
49 -4534 4535 0
49 -2460 -4534 0
49 -2460 4535 0
49 -4535 4536 0
49 -2461 -4535 0
49 -2461 4536 0
49 -4536 4537 0
49 -2462 -4536 0
49 -2462 4537 0
49 -4537 4538 0
49 -2463 -4537 0
49 -2463 4538 0
49 -2464 -4538 0
49 2465 0
49 2466 0
49 2467 0
49 2468 0
49 2469 2470 0
49 -2469 -2470 0
49 2471 2472 0
49 -2471 -2472 0
49 2473 2474 2475 2476 2477 2478 2479 2480 0
49 -2473 4539 0
49 -4539 4540 0
49 -2474 -4539 0
49 -2474 4540 0
49 -4540 4541 0
49 -2475 -4540 0
49 -2475 4541 0
49 -4541 4542 0
49 -2476 -4541 0
49 -2476 4542 0
49 -4542 4543 0
49 -2477 -4542 0
49 -2477 4543 0
49 -4543 4544 0
49 -2478 -4543 0
49 -2478 4544 0
49 -4544 4545 0
49 -2479 -4544 0
49 -2479 4545 0
49 -2480 -4545 0
49 2481 2482 2483 2484 2485 2486 2487 2488 0
49 -2481 4546 0
49 -4546 4547 0
49 -2482 -4546 0
49 -2482 4547 0
49 -4547 4548 0
49 -2483 -4547 0
49 -2483 4548 0
49 -4548 4549 0
49 -2484 -4548 0
49 -2484 4549 0
49 -4549 4550 0
49 -2485 -4549 0
49 -2485 4550 0
49 -4550 4551 0
49 -2486 -4550 0
49 -2486 4551 0
49 -4551 4552 0
49 -2487 -4551 0
49 -2487 4552 0
49 -2488 -4552 0
49 2489 2490 2491 2492 2493 2494 2495 2496 2497 2498 2499 0
49 -2489 4553 0
49 -4553 4554 0
49 -2490 -4553 0
49 -2490 4554 0
49 -4554 4555 0
49 -2491 -4554 0
49 -2491 4555 0
49 -4555 4556 0
49 -2492 -4555 0
49 -2492 4556 0
49 -4556 4557 0
49 -2493 -4556 0
49 -2493 4557 0
49 -4557 4558 0
49 -2494 -4557 0
49 -2494 4558 0
49 -4558 4559 0
49 -2495 -4558 0
49 -2495 4559 0
49 -4559 4560 0
49 -2496 -4559 0
49 -2496 4560 0
49 -4560 4561 0
49 -2497 -4560 0
49 -2497 4561 0
49 -4561 4562 0
49 -2498 -4561 0
49 -2498 4562 0
49 -2499 -4562 0
49 2500 2501 2502 2503 2504 2505 2506 2507 2508 2509 2510 0
49 -2500 4563 0
49 -4563 4564 0
49 -2501 -4563 0
49 -2501 4564 0
49 -4564 4565 0
49 -2502 -4564 0
49 -2502 4565 0
49 -4565 4566 0
49 -2503 -4565 0
49 -2503 4566 0
49 -4566 4567 0
49 -2504 -4566 0
49 -2504 4567 0
49 -4567 4568 0
49 -2505 -4567 0
49 -2505 4568 0
49 -4568 4569 0
49 -2506 -4568 0
49 -2506 4569 0
49 -4569 4570 0
49 -2507 -4569 0
49 -2507 4570 0
49 -4570 4571 0
49 -2508 -4570 0
49 -2508 4571 0
49 -4571 4572 0
49 -2509 -4571 0
49 -2509 4572 0
49 -2510 -4572 0
49 2511 0
49 2512 0
49 2513 0
49 2514 0
49 2515 0
49 2516 0
49 2517 2518 2519 2520 2521 2522 2523 2524 0
49 -2517 4573 0
49 -4573 4574 0
49 -2518 -4573 0
49 -2518 4574 0
49 -4574 4575 0
49 -2519 -4574 0
49 -2519 4575 0
49 -4575 4576 0
49 -2520 -4575 0
49 -2520 4576 0
49 -4576 4577 0
49 -2521 -4576 0
49 -2521 4577 0
49 -4577 4578 0
49 -2522 -4577 0
49 -2522 4578 0
49 -4578 4579 0
49 -2523 -4578 0
49 -2523 4579 0
49 -2524 -4579 0
49 2525 2526 2527 2528 2529 2530 2531 2532 0
49 -2525 4580 0
49 -4580 4581 0
49 -2526 -4580 0
49 -2526 4581 0
49 -4581 4582 0
49 -2527 -4581 0
49 -2527 4582 0
49 -4582 4583 0
49 -2528 -4582 0
49 -2528 4583 0
49 -4583 4584 0
49 -2529 -4583 0
49 -2529 4584 0
49 -4584 4585 0
49 -2530 -4584 0
49 -2530 4585 0
49 -4585 4586 0
49 -2531 -4585 0
49 -2531 4586 0
49 -2532 -4586 0
49 2533 0
49 2534 0
49 2535 0
49 2536 0
49 2537 2538 2539 2540 0
49 -2537 4587 0
49 -4587 4588 0
49 -2538 -4587 0
49 -2538 4588 0
49 -4588 4589 0
49 -2539 -4588 0
49 -2539 4589 0
49 -2540 -4589 0
49 2541 2542 2543 2544 0
49 -2541 4590 0
49 -4590 4591 0
49 -2542 -4590 0
49 -2542 4591 0
49 -4591 4592 0
49 -2543 -4591 0
49 -2543 4592 0
49 -2544 -4592 0
49 2545 0
49 2546 0
49 2547 2548 2549 0
49 -2547 4593 0
49 -4593 4594 0
49 -2548 -4593 0
49 -2548 4594 0
49 -2549 -4594 0
49 2550 2551 2552 0
49 -2550 4595 0
49 -4595 4596 0
49 -2551 -4595 0
49 -2551 4596 0
49 -2552 -4596 0
49 2553 0
49 2554 0
49 2555 0
49 2556 0
49 2557 0
49 2558 0
49 2559 2560 2561 2562 2563 2564 2565 2566 0
49 -2559 4597 0
49 -4597 4598 0
49 -2560 -4597 0
49 -2560 4598 0
49 -4598 4599 0
49 -2561 -4598 0
49 -2561 4599 0
49 -4599 4600 0
49 -2562 -4599 0
49 -2562 4600 0
49 -4600 4601 0
49 -2563 -4600 0
49 -2563 4601 0
49 -4601 4602 0
49 -2564 -4601 0
49 -2564 4602 0
49 -4602 4603 0
49 -2565 -4602 0
49 -2565 4603 0
49 -2566 -4603 0
49 2567 2568 2569 2570 2571 2572 2573 2574 0
49 -2567 4604 0
49 -4604 4605 0
49 -2568 -4604 0
49 -2568 4605 0
49 -4605 4606 0
49 -2569 -4605 0
49 -2569 4606 0
49 -4606 4607 0
49 -2570 -4606 0
49 -2570 4607 0
49 -4607 4608 0
49 -2571 -4607 0
49 -2571 4608 0
49 -4608 4609 0
49 -2572 -4608 0
49 -2572 4609 0
49 -4609 4610 0
49 -2573 -4609 0
49 -2573 4610 0
49 -2574 -4610 0
49 2575 0
49 2576 0
49 2577 0
49 2578 0
49 2579 0
49 2580 0
49 2581 0
49 2582 0
49 2583 0
49 2584 0
49 2585 0
49 2586 0
49 2587 2588 2589 2590 2591 2592 2593 2594 0
49 -2587 4611 0
49 -4611 4612 0
49 -2588 -4611 0
49 -2588 4612 0
49 -4612 4613 0
49 -2589 -4612 0
49 -2589 4613 0
49 -4613 4614 0
49 -2590 -4613 0
49 -2590 4614 0
49 -4614 4615 0
49 -2591 -4614 0
49 -2591 4615 0
49 -4615 4616 0
49 -2592 -4615 0
49 -2592 4616 0
49 -4616 4617 0
49 -2593 -4616 0
49 -2593 4617 0
49 -2594 -4617 0
49 2595 2596 2597 2598 2599 2600 2601 2602 0
49 -2595 4618 0
49 -4618 4619 0
49 -2596 -4618 0
49 -2596 4619 0
49 -4619 4620 0
49 -2597 -4619 0
49 -2597 4620 0
49 -4620 4621 0
49 -2598 -4620 0
49 -2598 4621 0
49 -4621 4622 0
49 -2599 -4621 0
49 -2599 4622 0
49 -4622 4623 0
49 -2600 -4622 0
49 -2600 4623 0
49 -4623 4624 0
49 -2601 -4623 0
49 -2601 4624 0
49 -2602 -4624 0
49 2603 0
49 2604 0
49 2605 0
49 2606 0
49 2607 2608 2609 2610 2611 2612 2613 2614 2615 2616 0
49 -2607 4625 0
49 -4625 4626 0
49 -2608 -4625 0
49 -2608 4626 0
49 -4626 4627 0
49 -2609 -4626 0
49 -2609 4627 0
49 -4627 4628 0
49 -2610 -4627 0
49 -2610 4628 0
49 -4628 4629 0
49 -2611 -4628 0
49 -2611 4629 0
49 -4629 4630 0
49 -2612 -4629 0
49 -2612 4630 0
49 -4630 4631 0
49 -2613 -4630 0
49 -2613 4631 0
49 -4631 4632 0
49 -2614 -4631 0
49 -2614 4632 0
49 -4632 4633 0
49 -2615 -4632 0
49 -2615 4633 0
49 -2616 -4633 0
49 2617 2618 2619 2620 2621 2622 2623 2624 2625 2626 0
49 -2617 4634 0
49 -4634 4635 0
49 -2618 -4634 0
49 -2618 4635 0
49 -4635 4636 0
49 -2619 -4635 0
49 -2619 4636 0
49 -4636 4637 0
49 -2620 -4636 0
49 -2620 4637 0
49 -4637 4638 0
49 -2621 -4637 0
49 -2621 4638 0
49 -4638 4639 0
49 -2622 -4638 0
49 -2622 4639 0
49 -4639 4640 0
49 -2623 -4639 0
49 -2623 4640 0
49 -4640 4641 0
49 -2624 -4640 0
49 -2624 4641 0
49 -4641 4642 0
49 -2625 -4641 0
49 -2625 4642 0
49 -2626 -4642 0
49 2627 2628 2629 2630 2631 2632 2633 2634 0
49 -2627 4643 0
49 -4643 4644 0
49 -2628 -4643 0
49 -2628 4644 0
49 -4644 4645 0
49 -2629 -4644 0
49 -2629 4645 0
49 -4645 4646 0
49 -2630 -4645 0
49 -2630 4646 0
49 -4646 4647 0
49 -2631 -4646 0
49 -2631 4647 0
49 -4647 4648 0
49 -2632 -4647 0
49 -2632 4648 0
49 -4648 4649 0
49 -2633 -4648 0
49 -2633 4649 0
49 -2634 -4649 0
49 2635 2636 2637 2638 2639 2640 2641 2642 0
49 -2635 4650 0
49 -4650 4651 0
49 -2636 -4650 0
49 -2636 4651 0
49 -4651 4652 0
49 -2637 -4651 0
49 -2637 4652 0
49 -4652 4653 0
49 -2638 -4652 0
49 -2638 4653 0
49 -4653 4654 0
49 -2639 -4653 0
49 -2639 4654 0
49 -4654 4655 0
49 -2640 -4654 0
49 -2640 4655 0
49 -4655 4656 0
49 -2641 -4655 0
49 -2641 4656 0
49 -2642 -4656 0
49 2643 2644 2645 2646 2647 2648 2649 2650 0
49 -2643 4657 0
49 -4657 4658 0
49 -2644 -4657 0
49 -2644 4658 0
49 -4658 4659 0
49 -2645 -4658 0
49 -2645 4659 0
49 -4659 4660 0
49 -2646 -4659 0
49 -2646 4660 0
49 -4660 4661 0
49 -2647 -4660 0
49 -2647 4661 0
49 -4661 4662 0
49 -2648 -4661 0
49 -2648 4662 0
49 -4662 4663 0
49 -2649 -4662 0
49 -2649 4663 0
49 -2650 -4663 0
49 2651 2652 2653 2654 2655 2656 2657 2658 0
49 -2651 4664 0
49 -4664 4665 0
49 -2652 -4664 0
49 -2652 4665 0
49 -4665 4666 0
49 -2653 -4665 0
49 -2653 4666 0
49 -4666 4667 0
49 -2654 -4666 0
49 -2654 4667 0
49 -4667 4668 0
49 -2655 -4667 0
49 -2655 4668 0
49 -4668 4669 0
49 -2656 -4668 0
49 -2656 4669 0
49 -4669 4670 0
49 -2657 -4669 0
49 -2657 4670 0
49 -2658 -4670 0
49 2659 0
49 2660 0
49 2661 0
49 2662 0
49 2663 0
49 2664 0
49 2665 2666 2667 2668 2669 2670 2671 2672 2673 2674 2675 2676 0
49 -2665 4671 0
49 -4671 4672 0
49 -2666 -4671 0
49 -2666 4672 0
49 -4672 4673 0
49 -2667 -4672 0
49 -2667 4673 0
49 -4673 4674 0
49 -2668 -4673 0
49 -2668 4674 0
49 -4674 4675 0
49 -2669 -4674 0
49 -2669 4675 0
49 -4675 4676 0
49 -2670 -4675 0
49 -2670 4676 0
49 -4676 4677 0
49 -2671 -4676 0
49 -2671 4677 0
49 -4677 4678 0
49 -2672 -4677 0
49 -2672 4678 0
49 -4678 4679 0
49 -2673 -4678 0
49 -2673 4679 0
49 -4679 4680 0
49 -2674 -4679 0
49 -2674 4680 0
49 -4680 4681 0
49 -2675 -4680 0
49 -2675 4681 0
49 -2676 -4681 0
49 2677 2678 2679 2680 2681 2682 2683 2684 2685 2686 2687 2688 0
49 -2677 4682 0
49 -4682 4683 0
49 -2678 -4682 0
49 -2678 4683 0
49 -4683 4684 0
49 -2679 -4683 0
49 -2679 4684 0
49 -4684 4685 0
49 -2680 -4684 0
49 -2680 4685 0
49 -4685 4686 0
49 -2681 -4685 0
49 -2681 4686 0
49 -4686 4687 0
49 -2682 -4686 0
49 -2682 4687 0
49 -4687 4688 0
49 -2683 -4687 0
49 -2683 4688 0
49 -4688 4689 0
49 -2684 -4688 0
49 -2684 4689 0
49 -4689 4690 0
49 -2685 -4689 0
49 -2685 4690 0
49 -4690 4691 0
49 -2686 -4690 0
49 -2686 4691 0
49 -4691 4692 0
49 -2687 -4691 0
49 -2687 4692 0
49 -2688 -4692 0
49 2689 2690 2691 2692 2693 2694 2695 2696 0
49 -2689 4693 0
49 -4693 4694 0
49 -2690 -4693 0
49 -2690 4694 0
49 -4694 4695 0
49 -2691 -4694 0
49 -2691 4695 0
49 -4695 4696 0
49 -2692 -4695 0
49 -2692 4696 0
49 -4696 4697 0
49 -2693 -4696 0
49 -2693 4697 0
49 -4697 4698 0
49 -2694 -4697 0
49 -2694 4698 0
49 -4698 4699 0
49 -2695 -4698 0
49 -2695 4699 0
49 -2696 -4699 0
49 2697 2698 2699 2700 2701 2702 2703 2704 0
49 -2697 4700 0
49 -4700 4701 0
49 -2698 -4700 0
49 -2698 4701 0
49 -4701 4702 0
49 -2699 -4701 0
49 -2699 4702 0
49 -4702 4703 0
49 -2700 -4702 0
49 -2700 4703 0
49 -4703 4704 0
49 -2701 -4703 0
49 -2701 4704 0
49 -4704 4705 0
49 -2702 -4704 0
49 -2702 4705 0
49 -4705 4706 0
49 -2703 -4705 0
49 -2703 4706 0
49 -2704 -4706 0
49 2705 0
49 2706 0
49 2707 2708 2709 2710 2711 2712 2713 0
49 -2707 4707 0
49 -4707 4708 0
49 -2708 -4707 0
49 -2708 4708 0
49 -4708 4709 0
49 -2709 -4708 0
49 -2709 4709 0
49 -4709 4710 0
49 -2710 -4709 0
49 -2710 4710 0
49 -4710 4711 0
49 -2711 -4710 0
49 -2711 4711 0
49 -4711 4712 0
49 -2712 -4711 0
49 -2712 4712 0
49 -2713 -4712 0
49 2714 2715 2716 2717 2718 2719 2720 0
49 -2714 4713 0
49 -4713 4714 0
49 -2715 -4713 0
49 -2715 4714 0
49 -4714 4715 0
49 -2716 -4714 0
49 -2716 4715 0
49 -4715 4716 0
49 -2717 -4715 0
49 -2717 4716 0
49 -4716 4717 0
49 -2718 -4716 0
49 -2718 4717 0
49 -4717 4718 0
49 -2719 -4717 0
49 -2719 4718 0
49 -2720 -4718 0
49 2721 0
49 2722 0
49 2723 0
49 2724 0
49 2725 0
49 2726 0
49 2727 2728 2729 2730 2731 2732 2733 2734 0
49 -2727 4719 0
49 -4719 4720 0
49 -2728 -4719 0
49 -2728 4720 0
49 -4720 4721 0
49 -2729 -4720 0
49 -2729 4721 0
49 -4721 4722 0
49 -2730 -4721 0
49 -2730 4722 0
49 -4722 4723 0
49 -2731 -4722 0
49 -2731 4723 0
49 -4723 4724 0
49 -2732 -4723 0
49 -2732 4724 0
49 -4724 4725 0
49 -2733 -4724 0
49 -2733 4725 0
49 -2734 -4725 0
49 2735 2736 2737 2738 2739 2740 2741 2742 0
49 -2735 4726 0
49 -4726 4727 0
49 -2736 -4726 0
49 -2736 4727 0
49 -4727 4728 0
49 -2737 -4727 0
49 -2737 4728 0
49 -4728 4729 0
49 -2738 -4728 0
49 -2738 4729 0
49 -4729 4730 0
49 -2739 -4729 0
49 -2739 4730 0
49 -4730 4731 0
49 -2740 -4730 0
49 -2740 4731 0
49 -4731 4732 0
49 -2741 -4731 0
49 -2741 4732 0
49 -2742 -4732 0
49 2743 2744 2745 2746 2747 2748 2749 2750 0
49 -2743 4733 0
49 -4733 4734 0
49 -2744 -4733 0
49 -2744 4734 0
49 -4734 4735 0
49 -2745 -4734 0
49 -2745 4735 0
49 -4735 4736 0
49 -2746 -4735 0
49 -2746 4736 0
49 -4736 4737 0
49 -2747 -4736 0
49 -2747 4737 0
49 -4737 4738 0
49 -2748 -4737 0
49 -2748 4738 0
49 -4738 4739 0
49 -2749 -4738 0
49 -2749 4739 0
49 -2750 -4739 0
49 2751 2752 2753 2754 2755 2756 2757 2758 0
49 -2751 4740 0
49 -4740 4741 0
49 -2752 -4740 0
49 -2752 4741 0
49 -4741 4742 0
49 -2753 -4741 0
49 -2753 4742 0
49 -4742 4743 0
49 -2754 -4742 0
49 -2754 4743 0
49 -4743 4744 0
49 -2755 -4743 0
49 -2755 4744 0
49 -4744 4745 0
49 -2756 -4744 0
49 -2756 4745 0
49 -4745 4746 0
49 -2757 -4745 0
49 -2757 4746 0
49 -2758 -4746 0
49 2759 2760 2761 2762 2763 0
49 -2759 4747 0
49 -4747 4748 0
49 -2760 -4747 0
49 -2760 4748 0
49 -4748 4749 0
49 -2761 -4748 0
49 -2761 4749 0
49 -4749 4750 0
49 -2762 -4749 0
49 -2762 4750 0
49 -2763 -4750 0
49 2764 2765 2766 2767 2768 0
49 -2764 4751 0
49 -4751 4752 0
49 -2765 -4751 0
49 -2765 4752 0
49 -4752 4753 0
49 -2766 -4752 0
49 -2766 4753 0
49 -4753 4754 0
49 -2767 -4753 0
49 -2767 4754 0
49 -2768 -4754 0
49 2769 0
49 2770 0
49 2771 0
49 2772 0
49 2773 0
49 2774 0
49 2775 0
49 2776 0
49 2777 0
49 2778 0
49 2779 0
49 2780 0
49 2781 2782 2783 0
49 -2781 4755 0
49 -4755 4756 0
49 -2782 -4755 0
49 -2782 4756 0
49 -2783 -4756 0
49 2784 2785 2786 0
49 -2784 4757 0
49 -4757 4758 0
49 -2785 -4757 0
49 -2785 4758 0
49 -2786 -4758 0
49 2787 0
49 2788 0
49 2789 0
49 2790 0
49 2791 0
49 2792 0
49 2793 2794 2795 2796 2797 2798 2799 2800 0
49 -2793 4759 0
49 -4759 4760 0
49 -2794 -4759 0
49 -2794 4760 0
49 -4760 4761 0
49 -2795 -4760 0
49 -2795 4761 0
49 -4761 4762 0
49 -2796 -4761 0
49 -2796 4762 0
49 -4762 4763 0
49 -2797 -4762 0
49 -2797 4763 0
49 -4763 4764 0
49 -2798 -4763 0
49 -2798 4764 0
49 -4764 4765 0
49 -2799 -4764 0
49 -2799 4765 0
49 -2800 -4765 0
49 2801 2802 2803 2804 2805 2806 2807 2808 0
49 -2801 4766 0
49 -4766 4767 0
49 -2802 -4766 0
49 -2802 4767 0
49 -4767 4768 0
49 -2803 -4767 0
49 -2803 4768 0
49 -4768 4769 0
49 -2804 -4768 0
49 -2804 4769 0
49 -4769 4770 0
49 -2805 -4769 0
49 -2805 4770 0
49 -4770 4771 0
49 -2806 -4770 0
49 -2806 4771 0
49 -4771 4772 0
49 -2807 -4771 0
49 -2807 4772 0
49 -2808 -4772 0
49 2809 0
49 2810 0
49 2811 2812 2813 2814 2815 2816 2817 2818 0
49 -2811 4773 0
49 -4773 4774 0
49 -2812 -4773 0
49 -2812 4774 0
49 -4774 4775 0
49 -2813 -4774 0
49 -2813 4775 0
49 -4775 4776 0
49 -2814 -4775 0
49 -2814 4776 0
49 -4776 4777 0
49 -2815 -4776 0
49 -2815 4777 0
49 -4777 4778 0
49 -2816 -4777 0
49 -2816 4778 0
49 -4778 4779 0
49 -2817 -4778 0
49 -2817 4779 0
49 -2818 -4779 0
49 2819 2820 2821 2822 2823 2824 2825 2826 0
49 -2819 4780 0
49 -4780 4781 0
49 -2820 -4780 0
49 -2820 4781 0
49 -4781 4782 0
49 -2821 -4781 0
49 -2821 4782 0
49 -4782 4783 0
49 -2822 -4782 0
49 -2822 4783 0
49 -4783 4784 0
49 -2823 -4783 0
49 -2823 4784 0
49 -4784 4785 0
49 -2824 -4784 0
49 -2824 4785 0
49 -4785 4786 0
49 -2825 -4785 0
49 -2825 4786 0
49 -2826 -4786 0
49 2827 2828 2829 2830 2831 2832 2833 2834 0
49 -2827 4787 0
49 -4787 4788 0
49 -2828 -4787 0
49 -2828 4788 0
49 -4788 4789 0
49 -2829 -4788 0
49 -2829 4789 0
49 -4789 4790 0
49 -2830 -4789 0
49 -2830 4790 0
49 -4790 4791 0
49 -2831 -4790 0
49 -2831 4791 0
49 -4791 4792 0
49 -2832 -4791 0
49 -2832 4792 0
49 -4792 4793 0
49 -2833 -4792 0
49 -2833 4793 0
49 -2834 -4793 0
49 2835 2836 2837 2838 2839 2840 2841 2842 0
49 -2835 4794 0
49 -4794 4795 0
49 -2836 -4794 0
49 -2836 4795 0
49 -4795 4796 0
49 -2837 -4795 0
49 -2837 4796 0
49 -4796 4797 0
49 -2838 -4796 0
49 -2838 4797 0
49 -4797 4798 0
49 -2839 -4797 0
49 -2839 4798 0
49 -4798 4799 0
49 -2840 -4798 0
49 -2840 4799 0
49 -4799 4800 0
49 -2841 -4799 0
49 -2841 4800 0
49 -2842 -4800 0
49 2843 0
49 2844 0
49 2845 2846 2847 2848 2849 2850 0
49 -2845 4801 0
49 -4801 4802 0
49 -2846 -4801 0
49 -2846 4802 0
49 -4802 4803 0
49 -2847 -4802 0
49 -2847 4803 0
49 -4803 4804 0
49 -2848 -4803 0
49 -2848 4804 0
49 -4804 4805 0
49 -2849 -4804 0
49 -2849 4805 0
49 -2850 -4805 0
49 2851 2852 2853 2854 2855 2856 0
49 -2851 4806 0
49 -4806 4807 0
49 -2852 -4806 0
49 -2852 4807 0
49 -4807 4808 0
49 -2853 -4807 0
49 -2853 4808 0
49 -4808 4809 0
49 -2854 -4808 0
49 -2854 4809 0
49 -4809 4810 0
49 -2855 -4809 0
49 -2855 4810 0
49 -2856 -4810 0
49 2857 0
49 2858 0
49 2859 2860 2861 2862 2863 2864 2865 2866 0
49 -2859 4811 0
49 -4811 4812 0
49 -2860 -4811 0
49 -2860 4812 0
49 -4812 4813 0
49 -2861 -4812 0
49 -2861 4813 0
49 -4813 4814 0
49 -2862 -4813 0
49 -2862 4814 0
49 -4814 4815 0
49 -2863 -4814 0
49 -2863 4815 0
49 -4815 4816 0
49 -2864 -4815 0
49 -2864 4816 0
49 -4816 4817 0
49 -2865 -4816 0
49 -2865 4817 0
49 -2866 -4817 0
49 2867 2868 2869 2870 2871 2872 2873 2874 0
49 -2867 4818 0
49 -4818 4819 0
49 -2868 -4818 0
49 -2868 4819 0
49 -4819 4820 0
49 -2869 -4819 0
49 -2869 4820 0
49 -4820 4821 0
49 -2870 -4820 0
49 -2870 4821 0
49 -4821 4822 0
49 -2871 -4821 0
49 -2871 4822 0
49 -4822 4823 0
49 -2872 -4822 0
49 -2872 4823 0
49 -4823 4824 0
49 -2873 -4823 0
49 -2873 4824 0
49 -2874 -4824 0
49 2875 2876 2877 2878 2879 2880 0
49 -2875 4825 0
49 -4825 4826 0
49 -2876 -4825 0
49 -2876 4826 0
49 -4826 4827 0
49 -2877 -4826 0
49 -2877 4827 0
49 -4827 4828 0
49 -2878 -4827 0
49 -2878 4828 0
49 -4828 4829 0
49 -2879 -4828 0
49 -2879 4829 0
49 -2880 -4829 0
49 2881 2882 2883 2884 2885 2886 0
49 -2881 4830 0
49 -4830 4831 0
49 -2882 -4830 0
49 -2882 4831 0
49 -4831 4832 0
49 -2883 -4831 0
49 -2883 4832 0
49 -4832 4833 0
49 -2884 -4832 0
49 -2884 4833 0
49 -4833 4834 0
49 -2885 -4833 0
49 -2885 4834 0
49 -2886 -4834 0
49 -1 2 0
49 -3 4 0
49 -5 12 0
49 -6 13 0
49 -7 14 0
49 -8 15 0
49 -9 16 0
49 -10 17 0
49 -11 18 0
49 -5 -280 0
49 -6 -281 0
49 -7 -282 0
49 -8 -283 0
49 -9 -284 0
49 -10 -285 0
49 -5 -287 0
49 -5 -288 0
49 -5 -289 0
49 -5 -290 0
49 -5 -291 0
49 -5 -292 0
49 -6 -288 0
49 -6 -289 0
49 -6 -290 0
49 -6 -291 0
49 -6 -292 0
49 -7 -289 0
49 -7 -290 0
49 -7 -291 0
49 -7 -292 0
49 -8 -290 0
49 -8 -291 0
49 -8 -292 0
49 -9 -291 0
49 -9 -292 0
49 -10 -292 0
49 -5 -1973 0
49 -5 -1974 0
49 -6 -1973 0
49 -6 -1974 0
49 -7 -1973 0
49 -7 -1974 0
49 -8 -1973 0
49 -8 -1974 0
49 -9 -1973 0
49 -9 -1974 0
49 -10 -1974 0
49 -13 -477 0
49 -14 -477 0
49 -15 -477 0
49 -15 -478 0
49 -16 -477 0
49 -16 -478 0
49 -17 -477 0
49 -17 -478 0
49 -17 -479 0
49 -18 -477 0
49 -18 -478 0
49 -18 -479 0
49 -13 -481 0
49 -15 -482 0
49 -17 -483 0
49 -17 -1698 0
49 -18 -1698 0
49 -19 20 0
49 -21 22 0
49 -23 24 0
49 -25 26 0
49 -27 28 0
49 -29 30 0
49 -31 36 0
49 -32 37 0
49 -33 38 0
49 -34 39 0
49 -35 40 0
49 -36 -393 0
49 -37 -393 0
49 -38 -393 0
49 -39 -393 0
49 -41 42 0
49 -43 54 0
49 -44 55 0
49 -45 56 0
49 -46 57 0
49 -47 58 0
49 -48 59 0
49 -49 60 0
49 -50 61 0
49 -51 62 0
49 -52 63 0
49 -53 64 0
49 -43 -1048 0
49 -43 -1049 0
49 -43 -1050 0
49 -43 -1051 0
49 -43 -1052 0
49 -43 -1053 0
49 -43 -1054 0
49 -44 -1049 0
49 -44 -1050 0
49 -44 -1051 0
49 -44 -1052 0
49 -44 -1053 0
49 -44 -1054 0
49 -45 -1050 0
49 -45 -1051 0
49 -45 -1052 0
49 -45 -1053 0
49 -45 -1054 0
49 -46 -1051 0
49 -46 -1052 0
49 -46 -1053 0
49 -46 -1054 0
49 -47 -1052 0
49 -47 -1053 0
49 -47 -1054 0
49 -48 -1053 0
49 -48 -1054 0
49 -49 -1054 0
49 -43 -1806 0
49 -44 -1806 0
49 -45 -1806 0
49 -46 -1806 0
49 -47 -1806 0
49 -48 -1806 0
49 -49 -1806 0
49 -50 -1806 0
49 -51 -1806 0
49 -52 -1806 0
49 -55 -1554 0
49 -56 -1554 0
49 -56 -1555 0
49 -57 -1554 0
49 -57 -1555 0
49 -57 -1556 0
49 -58 -1554 0
49 -58 -1555 0
49 -58 -1556 0
49 -58 -1557 0
49 -59 -1554 0
49 -59 -1555 0
49 -59 -1556 0
49 -59 -1557 0
49 -60 -1554 0
49 -60 -1555 0
49 -60 -1556 0
49 -60 -1557 0
49 -61 -1554 0
49 -61 -1555 0
49 -61 -1556 0
49 -61 -1557 0
49 -62 -1554 0
49 -62 -1555 0
49 -62 -1556 0
49 -62 -1557 0
49 -63 -1554 0
49 -63 -1555 0
49 -63 -1556 0
49 -63 -1557 0
49 -64 -1554 0
49 -64 -1555 0
49 -64 -1556 0
49 -64 -1557 0
49 -65 73 0
49 -66 74 0
49 -67 75 0
49 -68 76 0
49 -69 77 0
49 -70 78 0
49 -71 79 0
49 -72 80 0
49 -65 -86 0
49 -65 -87 0
49 -65 -88 0
49 -66 -86 0
49 -66 -87 0
49 -66 -88 0
49 -67 -87 0
49 -67 -88 0
49 -68 -87 0
49 -68 -88 0
49 -69 -88 0
49 -70 -88 0
49 -73 -456 0
49 -74 -456 0
49 -75 -456 0
49 -76 -456 0
49 -77 -456 0
49 -73 -458 0
49 -74 -458 0
49 -75 -458 0
49 -76 -458 0
49 -77 -458 0
49 -81 85 0
49 -82 86 0
49 -83 87 0
49 -84 88 0
49 -81 -280 0
49 -81 -281 0
49 -81 -282 0
49 -82 -282 0
49 -82 -283 0
49 -82 -284 0
49 -83 -284 0
49 -83 -285 0
49 -81 -458 0
49 -82 -458 0
49 -83 -458 0
49 -86 -279 0
49 -86 -280 0
49 -87 -279 0
49 -87 -280 0
49 -87 -281 0
49 -87 -282 0
49 -88 -279 0
49 -88 -280 0
49 -88 -281 0
49 -88 -282 0
49 -88 -283 0
49 -88 -284 0
49 -86 -458 0
49 -87 -458 0
49 -89 90 0
49 -91 92 0
49 -93 101 0
49 -94 102 0
49 -95 103 0
49 -96 104 0
49 -97 105 0
49 -98 106 0
49 -99 107 0
49 -100 108 0
49 -93 -386 0
49 -94 -386 0
49 -95 -386 0
49 -96 -386 0
49 -97 -386 0
49 -98 -386 0
49 -102 -259 0
49 -103 -259 0
49 -103 -260 0
49 -104 -259 0
49 -104 -260 0
49 -104 -261 0
49 -105 -259 0
49 -105 -260 0
49 -105 -261 0
49 -105 -262 0
49 -106 -259 0
49 -106 -260 0
49 -106 -261 0
49 -106 -262 0
49 -106 -263 0
49 -107 -259 0
49 -107 -260 0
49 -107 -261 0
49 -107 -262 0
49 -107 -263 0
49 -107 -264 0
49 -108 -259 0
49 -108 -260 0
49 -108 -261 0
49 -108 -262 0
49 -108 -263 0
49 -108 -264 0
49 -108 -265 0
49 -101 -268 0
49 -102 -269 0
49 -103 -270 0
49 -104 -271 0
49 -105 -272 0
49 -106 -273 0
49 -107 -274 0
49 -101 -301 0
49 -101 -302 0
49 -101 -303 0
49 -102 -302 0
49 -102 -303 0
49 -103 -303 0
49 -101 -305 0
49 -101 -306 0
49 -101 -307 0
49 -101 -308 0
49 -101 -309 0
49 -101 -310 0
49 -102 -306 0
49 -102 -307 0
49 -102 -308 0
49 -102 -309 0
49 -102 -310 0
49 -103 -307 0
49 -103 -308 0
49 -103 -309 0
49 -103 -310 0
49 -104 -308 0
49 -104 -309 0
49 -104 -310 0
49 -105 -309 0
49 -105 -310 0
49 -106 -310 0
49 -102 -329 0
49 -103 -329 0
49 -103 -330 0
49 -104 -329 0
49 -104 -330 0
49 -104 -331 0
49 -105 -330 0
49 -105 -331 0
49 -105 -332 0
49 -106 -331 0
49 -106 -332 0
49 -106 -333 0
49 -107 -332 0
49 -107 -333 0
49 -107 -334 0
49 -108 -333 0
49 -108 -334 0
49 -108 -335 0
49 -101 -386 0
49 -102 -386 0
49 -103 -386 0
49 -104 -386 0
49 -105 -386 0
49 -106 -386 0
49 -107 -386 0
49 -101 -1466 0
49 -101 -1467 0
49 -101 -1468 0
49 -102 -1467 0
49 -102 -1468 0
49 -103 -1468 0
49 -109 111 0
49 -110 112 0
49 -110 -177 0
49 -110 -178 0
49 -110 -179 0
49 -112 -597 0
49 -112 -598 0
49 -112 -599 0
49 -112 -600 0
49 -112 -601 0
49 -113 114 0
49 -115 116 0
49 -117 118 0
49 -119 124 0
49 -120 125 0
49 -121 126 0
49 -122 127 0
49 -123 128 0
49 -125 -1871 0
49 -125 -1872 0
49 -126 -1871 0
49 -126 -1872 0
49 -127 -1871 0
49 -127 -1872 0
49 -128 -1871 0
49 -128 -1872 0
49 -129 130 0
49 -131 132 0
49 -133 141 0
49 -134 142 0
49 -135 143 0
49 -136 144 0
49 -137 145 0
49 -138 146 0
49 -139 147 0
49 -140 148 0
49 -133 -178 0
49 -133 -179 0
49 -133 -180 0
49 -133 -181 0
49 -133 -182 0
49 -134 -178 0
49 -134 -179 0
49 -134 -180 0
49 -134 -181 0
49 -134 -182 0
49 -135 -178 0
49 -135 -179 0
49 -135 -180 0
49 -135 -181 0
49 -135 -182 0
49 -136 -179 0
49 -136 -180 0
49 -136 -181 0
49 -136 -182 0
49 -137 -180 0
49 -137 -181 0
49 -137 -182 0
49 -138 -181 0
49 -138 -182 0
49 -139 -182 0
49 -149 153 0
49 -150 154 0
49 -151 155 0
49 -152 156 0
49 -157 164 0
49 -158 165 0
49 -159 166 0
49 -160 167 0
49 -161 168 0
49 -162 169 0
49 -163 170 0
49 -161 -1021 0
49 -162 -1021 0
49 -162 -1022 0
49 -163 -1021 0
49 -163 -1022 0
49 -163 -1023 0
49 -168 -979 0
49 -168 -980 0
49 -168 -981 0
49 -168 -982 0
49 -168 -983 0
49 -169 -979 0
49 -169 -980 0
49 -169 -981 0
49 -169 -982 0
49 -169 -983 0
49 -169 -984 0
49 -170 -979 0
49 -170 -980 0
49 -170 -981 0
49 -170 -982 0
49 -170 -983 0
49 -170 -984 0
49 -170 -985 0
49 -168 -987 0
49 -168 -988 0
49 -168 -989 0
49 -168 -990 0
49 -168 -991 0
49 -169 -987 0
49 -169 -988 0
49 -169 -989 0
49 -169 -990 0
49 -169 -991 0
49 -169 -992 0
49 -170 -987 0
49 -170 -988 0
49 -170 -989 0
49 -170 -990 0
49 -170 -991 0
49 -170 -992 0
49 -170 -993 0
49 -164 -1429 0
49 -165 -1429 0
49 -166 -1429 0
49 -169 -1430 0
49 -170 -1430 0
49 -170 -1431 0
49 -164 -1434 0
49 -165 -1434 0
49 -166 -1434 0
49 -169 -1435 0
49 -170 -1435 0
49 -170 -1436 0
49 -171 177 0
49 -172 178 0
49 -173 179 0
49 -174 180 0
49 -175 181 0
49 -176 182 0
49 -171 -2471 0
49 -182 -597 0
49 -183 194 0
49 -184 195 0
49 -185 196 0
49 -186 197 0
49 -187 198 0
49 -188 199 0
49 -189 200 0
49 -190 201 0
49 -191 202 0
49 -192 203 0
49 -193 204 0
49 -184 -689 0
49 -185 -689 0
49 -185 -690 0
49 -186 -689 0
49 -186 -690 0
49 -186 -691 0
49 -187 -689 0
49 -187 -690 0
49 -187 -691 0
49 -187 -692 0
49 -188 -689 0
49 -188 -690 0
49 -188 -691 0
49 -188 -692 0
49 -188 -693 0
49 -189 -690 0
49 -189 -691 0
49 -189 -692 0
49 -189 -693 0
49 -189 -694 0
49 -190 -691 0
49 -190 -692 0
49 -190 -693 0
49 -190 -694 0
49 -190 -695 0
49 -191 -692 0
49 -191 -693 0
49 -191 -694 0
49 -191 -695 0
49 -191 -696 0
49 -192 -693 0
49 -192 -694 0
49 -192 -695 0
49 -192 -696 0
49 -193 -694 0
49 -193 -695 0
49 -193 -696 0
49 -205 206 0
49 -207 208 0
49 -209 220 0
49 -210 221 0
49 -211 222 0
49 -212 223 0
49 -213 224 0
49 -214 225 0
49 -215 226 0
49 -216 227 0
49 -217 228 0
49 -218 229 0
49 -219 230 0
49 -220 -450 0
49 -221 -450 0
49 -227 -451 0
49 -228 -451 0
49 -229 -451 0
49 -230 -451 0
49 -220 -616 0
49 -221 -616 0
49 -222 -616 0
49 -223 -616 0
49 -224 -616 0
49 -221 -818 0
49 -222 -818 0
49 -222 -819 0
49 -223 -818 0
49 -223 -819 0
49 -224 -818 0
49 -224 -819 0
49 -225 -818 0
49 -225 -819 0
49 -226 -818 0
49 -226 -819 0
49 -227 -818 0
49 -227 -819 0
49 -228 -818 0
49 -228 -819 0
49 -229 -818 0
49 -229 -819 0
49 -230 -818 0
49 -230 -819 0
49 -220 -954 0
49 -221 -954 0
49 -222 -954 0
49 -223 -954 0
49 -224 -954 0
49 -225 -954 0
49 -226 -954 0
49 -227 -954 0
49 -228 -954 0
49 -229 -954 0
49 -231 239 0
49 -232 240 0
49 -233 241 0
49 -234 242 0
49 -235 243 0
49 -236 244 0
49 -237 245 0
49 -238 246 0
49 -231 -550 0
49 -232 -551 0
49 -233 -552 0
49 -234 -553 0
49 -235 -554 0
49 -236 -555 0
49 -237 -556 0
49 -231 -818 0
49 -231 -819 0
49 -232 -818 0
49 -232 -819 0
49 -233 -818 0
49 -233 -819 0
49 -234 -818 0
49 -234 -819 0
49 -235 -818 0
49 -235 -819 0
49 -236 -818 0
49 -236 -819 0
49 -237 -819 0
49 -231 -821 0
49 -231 -822 0
49 -232 -821 0
49 -232 -822 0
49 -233 -821 0
49 -233 -822 0
49 -234 -821 0
49 -234 -822 0
49 -235 -822 0
49 -239 -453 0
49 -240 -453 0
49 -240 -454 0
49 -241 -454 0
49 -242 -454 0
49 -243 -454 0
49 -244 -454 0
49 -245 -454 0
49 -246 -454 0
49 -239 -558 0
49 -240 -559 0
49 -241 -560 0
49 -242 -561 0
49 -243 -562 0
49 -244 -563 0
49 -245 -564 0
49 -247 248 0
49 -249 250 0
49 -251 252 0
49 -253 254 0
49 -255 256 0
49 -257 258 0
49 -259 267 0
49 -260 268 0
49 -261 269 0
49 -262 270 0
49 -263 271 0
49 -264 272 0
49 -265 273 0
49 -266 274 0
49 -260 -321 0
49 -261 -321 0
49 -261 -322 0
49 -262 -321 0
49 -262 -322 0
49 -262 -323 0
49 -263 -321 0
49 -263 -322 0
49 -263 -323 0
49 -263 -324 0
49 -264 -321 0
49 -264 -322 0
49 -264 -323 0
49 -264 -324 0
49 -264 -325 0
49 -265 -322 0
49 -265 -323 0
49 -265 -324 0
49 -265 -325 0
49 -265 -326 0
49 -266 -323 0
49 -266 -324 0
49 -266 -325 0
49 -266 -326 0
49 -266 -327 0
49 -259 -330 0
49 -259 -331 0
49 -259 -332 0
49 -259 -333 0
49 -259 -334 0
49 -259 -335 0
49 -259 -336 0
49 -260 -331 0
49 -260 -332 0
49 -260 -333 0
49 -260 -334 0
49 -260 -335 0
49 -260 -336 0
49 -261 -332 0
49 -261 -333 0
49 -261 -334 0
49 -261 -335 0
49 -261 -336 0
49 -262 -333 0
49 -262 -334 0
49 -262 -335 0
49 -262 -336 0
49 -263 -334 0
49 -263 -335 0
49 -263 -336 0
49 -264 -335 0
49 -264 -336 0
49 -265 -336 0
49 -268 -963 0
49 -269 -963 0
49 -269 -964 0
49 -270 -963 0
49 -270 -964 0
49 -270 -965 0
49 -271 -963 0
49 -271 -964 0
49 -271 -965 0
49 -271 -966 0
49 -272 -963 0
49 -272 -964 0
49 -272 -965 0
49 -272 -966 0
49 -272 -967 0
49 -273 -963 0
49 -273 -964 0
49 -273 -965 0
49 -273 -966 0
49 -273 -967 0
49 -273 -968 0
49 -274 -963 0
49 -274 -964 0
49 -274 -965 0
49 -274 -966 0
49 -274 -967 0
49 -274 -968 0
49 -274 -969 0
49 -268 -1979 0
49 -269 -1979 0
49 -269 -1980 0
49 -270 -1979 0
49 -270 -1980 0
49 -270 -1981 0
49 -271 -1979 0
49 -271 -1980 0
49 -271 -1981 0
49 -271 -1982 0
49 -272 -1979 0
49 -272 -1980 0
49 -272 -1981 0
49 -272 -1982 0
49 -272 -1983 0
49 -273 -1979 0
49 -273 -1980 0
49 -273 -1981 0
49 -273 -1982 0
49 -273 -1983 0
49 -273 -1984 0
49 -274 -1979 0
49 -274 -1980 0
49 -274 -1981 0
49 -274 -1982 0
49 -274 -1983 0
49 -274 -1984 0
49 -274 -1985 0
49 -268 -1987 0
49 -269 -1987 0
49 -269 -1988 0
49 -270 -1987 0
49 -270 -1988 0
49 -270 -1989 0
49 -271 -1987 0
49 -271 -1988 0
49 -271 -1989 0
49 -271 -1990 0
49 -272 -1987 0
49 -272 -1988 0
49 -272 -1989 0
49 -272 -1990 0
49 -272 -1991 0
49 -273 -1988 0
49 -273 -1989 0
49 -273 -1990 0
49 -273 -1991 0
49 -273 -1992 0
49 -274 -1989 0
49 -274 -1990 0
49 -274 -1991 0
49 -274 -1992 0
49 -274 -1993 0
49 -275 276 0
49 -277 278 0
49 -279 286 0
49 -280 287 0
49 -281 288 0
49 -282 289 0
49 -283 290 0
49 -284 291 0
49 -285 292 0
49 -279 -531 0
49 -279 -532 0
49 -279 -533 0
49 -279 -534 0
49 -279 -535 0
49 -279 -536 0
49 -280 -532 0
49 -280 -533 0
49 -280 -534 0
49 -280 -535 0
49 -280 -536 0
49 -281 -533 0
49 -281 -534 0
49 -281 -535 0
49 -281 -536 0
49 -282 -534 0
49 -282 -535 0
49 -282 -536 0
49 -283 -535 0
49 -283 -536 0
49 -284 -536 0
49 -286 -456 0
49 -287 -456 0
49 -288 -456 0
49 -289 -456 0
49 -290 -456 0
49 -293 294 0
49 -295 296 0
49 -297 304 0
49 -298 305 0
49 -299 306 0
49 -300 307 0
49 -301 308 0
49 -302 309 0
49 -303 310 0
49 -301 -573 0
49 -302 -573 0
49 -302 -574 0
49 -303 -573 0
49 -303 -574 0
49 -303 -575 0
49 -298 -1382 0
49 -299 -1382 0
49 -299 -1383 0
49 -300 -1382 0
49 -300 -1383 0
49 -300 -1384 0
49 -301 -1382 0
49 -301 -1383 0
49 -301 -1384 0
49 -301 -1385 0
49 -302 -1382 0
49 -302 -1383 0
49 -302 -1384 0
49 -302 -1385 0
49 -302 -1386 0
49 -303 -1382 0
49 -303 -1383 0
49 -303 -1384 0
49 -303 -1385 0
49 -303 -1386 0
49 -303 -1387 0
49 -306 -321 0
49 -307 -321 0
49 -307 -322 0
49 -308 -321 0
49 -308 -322 0
49 -308 -323 0
49 -309 -321 0
49 -309 -322 0
49 -309 -323 0
49 -309 -324 0
49 -310 -321 0
49 -310 -322 0
49 -310 -323 0
49 -310 -324 0
49 -310 -325 0
49 -304 -1462 0
49 -304 -1463 0
49 -304 -1464 0
49 -305 -1463 0
49 -305 -1464 0
49 -305 -1465 0
49 -306 -1464 0
49 -306 -1465 0
49 -306 -1466 0
49 -307 -1465 0
49 -307 -1466 0
49 -307 -1467 0
49 -308 -1466 0
49 -308 -1467 0
49 -308 -1468 0
49 -309 -1467 0
49 -309 -1468 0
49 -310 -1468 0
49 -311 312 0
49 -313 314 0
49 -315 316 0
49 -317 318 0
49 -319 320 0
49 -321 329 0
49 -322 330 0
49 -323 331 0
49 -324 332 0
49 -325 333 0
49 -326 334 0
49 -327 335 0
49 -328 336 0
49 -325 -764 0
49 -326 -765 0
49 -327 -766 0
49 -321 -768 0
49 -321 -769 0
49 -321 -770 0
49 -322 -768 0
49 -322 -769 0
49 -322 -770 0
49 -323 -768 0
49 -323 -769 0
49 -323 -770 0
49 -324 -768 0
49 -324 -769 0
49 -324 -770 0
49 -325 -768 0
49 -325 -769 0
49 -325 -770 0
49 -326 -769 0
49 -326 -770 0
49 -327 -770 0
49 -329 -1383 0
49 -329 -1384 0
49 -329 -1385 0
49 -329 -1386 0
49 -329 -1387 0
49 -329 -1388 0
49 -330 -1383 0
49 -330 -1384 0
49 -330 -1385 0
49 -330 -1386 0
49 -330 -1387 0
49 -330 -1388 0
49 -330 -1389 0
49 -331 -1384 0
49 -331 -1385 0
49 -331 -1386 0
49 -331 -1387 0
49 -331 -1388 0
49 -331 -1389 0
49 -331 -1390 0
49 -332 -1385 0
49 -332 -1386 0
49 -332 -1387 0
49 -332 -1388 0
49 -332 -1389 0
49 -332 -1390 0
49 -332 -1391 0
49 -333 -1386 0
49 -333 -1387 0
49 -333 -1388 0
49 -333 -1389 0
49 -333 -1390 0
49 -333 -1391 0
49 -334 -1387 0
49 -334 -1388 0
49 -334 -1389 0
49 -334 -1390 0
49 -334 -1391 0
49 -335 -1388 0
49 -335 -1389 0
49 -335 -1390 0
49 -335 -1391 0
49 -336 -1389 0
49 -336 -1390 0
49 -336 -1391 0
49 -329 -1466 0
49 -329 -1467 0
49 -329 -1468 0
49 -330 -1467 0
49 -330 -1468 0
49 -331 -1468 0
49 -337 338 0
49 -339 347 0
49 -340 348 0
49 -341 349 0
49 -342 350 0
49 -343 351 0
49 -344 352 0
49 -345 353 0
49 -346 354 0
49 -339 -1124 0
49 -339 -1125 0
49 -339 -1126 0
49 -339 -1127 0
49 -339 -1128 0
49 -339 -1129 0
49 -339 -1130 0
49 -340 -1125 0
49 -340 -1126 0
49 -340 -1127 0
49 -340 -1128 0
49 -340 -1129 0
49 -340 -1130 0
49 -341 -1126 0
49 -341 -1127 0
49 -341 -1128 0
49 -341 -1129 0
49 -341 -1130 0
49 -342 -1127 0
49 -342 -1128 0
49 -342 -1129 0
49 -342 -1130 0
49 -343 -1128 0
49 -343 -1129 0
49 -343 -1130 0
49 -344 -1129 0
49 -344 -1130 0
49 -345 -1130 0
49 -355 356 0
49 -357 365 0
49 -358 366 0
49 -359 367 0
49 -360 368 0
49 -361 369 0
49 -362 370 0
49 -363 371 0
49 -364 372 0
49 -358 -931 0
49 -359 -932 0
49 -360 -933 0
49 -361 -934 0
49 -362 -935 0
49 -363 -936 0
49 -360 -937 0
49 -361 -937 0
49 -361 -938 0
49 -362 -937 0
49 -362 -938 0
49 -362 -939 0
49 -363 -937 0
49 -363 -938 0
49 -363 -939 0
49 -363 -940 0
49 -364 -937 0
49 -364 -938 0
49 -364 -939 0
49 -364 -940 0
49 -364 -941 0
49 -366 -937 0
49 -367 -938 0
49 -368 -939 0
49 -369 -940 0
49 -370 -941 0
49 -371 -942 0
49 -365 -1395 0
49 -366 -1395 0
49 -366 -1396 0
49 -367 -1395 0
49 -367 -1396 0
49 -367 -1397 0
49 -368 -1395 0
49 -368 -1396 0
49 -368 -1397 0
49 -369 -1395 0
49 -369 -1396 0
49 -369 -1397 0
49 -370 -1395 0
49 -370 -1396 0
49 -370 -1397 0
49 -371 -1395 0
49 -371 -1396 0
49 -371 -1397 0
49 -372 -1396 0
49 -372 -1397 0
49 -367 -1409 0
49 -368 -1409 0
49 -369 -1409 0
49 -370 -1409 0
49 -371 -1409 0
49 -365 -1697 0
49 -366 -1697 0
49 -367 -1697 0
49 -368 -1697 0
49 -369 -1697 0
49 -370 -1697 0
49 -371 -1697 0
49 -373 374 0
49 -375 376 0
49 -377 380 0
49 -378 381 0
49 -379 382 0
49 -378 -1738 0
49 -378 -1739 0
49 -378 -1740 0
49 -378 -1741 0
49 -378 -1742 0
49 -378 -1743 0
49 -378 -1744 0
49 -379 -1739 0
49 -379 -1740 0
49 -379 -1741 0
49 -379 -1742 0
49 -379 -1743 0
49 -379 -1744 0
49 -381 -400 0
49 -380 -1228 0
49 -381 -1269 0
49 -381 -1270 0
49 -381 -1271 0
49 -381 -1272 0
49 -382 -1269 0
49 -382 -1270 0
49 -382 -1271 0
49 -382 -1272 0
49 -382 -1273 0
49 -381 -1473 0
49 -381 -1474 0
49 -381 -1475 0
49 -381 -1476 0
49 -381 -1477 0
49 -381 -1478 0
49 -382 -1473 0
49 -382 -1474 0
49 -382 -1475 0
49 -382 -1476 0
49 -382 -1477 0
49 -382 -1478 0
49 -382 -1479 0
49 -381 -1729 0
49 -381 -1730 0
49 -381 -1731 0
49 -381 -1732 0
49 -381 -1733 0
49 -381 -1734 0
49 -382 -1729 0
49 -382 -1730 0
49 -382 -1731 0
49 -382 -1732 0
49 -382 -1733 0
49 -382 -1734 0
49 -382 -1735 0
49 -381 -1738 0
49 -381 -1739 0
49 -381 -1740 0
49 -381 -1741 0
49 -381 -1742 0
49 -382 -1739 0
49 -382 -1740 0
49 -382 -1741 0
49 -382 -1742 0
49 -382 -1743 0
49 -381 -1910 0
49 -381 -1911 0
49 -381 -1912 0
49 -381 -1913 0
49 -381 -1914 0
49 -382 -1910 0
49 -382 -1911 0
49 -382 -1912 0
49 -382 -1913 0
49 -382 -1914 0
49 -382 -1915 0
49 -383 385 0
49 -384 386 0
49 -384 -646 0
49 -384 -654 0
49 -384 -655 0
49 -384 -656 0
49 -384 -657 0
49 -384 -658 0
49 -384 -659 0
49 -384 -660 0
49 -383 -1459 0
49 -386 -1372 0
49 -387 388 0
49 -389 390 0
49 -391 392 0
49 -393 397 0
49 -394 398 0
49 -395 399 0
49 -396 400 0
49 -394 -1230 0
49 -395 -1230 0
49 -396 -1230 0
49 -394 -1271 0
49 -394 -1272 0
49 -394 -1273 0
49 -394 -1274 0
49 -395 -1272 0
49 -395 -1273 0
49 -395 -1274 0
49 -396 -1273 0
49 -396 -1274 0
49 -393 -1459 0
49 -393 -1460 0
49 -393 -1461 0
49 -393 -1462 0
49 -393 -1463 0
49 -393 -1464 0
49 -394 -1924 0
49 -394 -1925 0
49 -394 -1926 0
49 -394 -1927 0
49 -394 -1928 0
49 -394 -1929 0
49 -394 -1930 0
49 -395 -1925 0
49 -395 -1926 0
49 -395 -1927 0
49 -395 -1928 0
49 -395 -1929 0
49 -395 -1930 0
49 -396 -1926 0
49 -396 -1927 0
49 -396 -1928 0
49 -396 -1929 0
49 -396 -1930 0
49 -398 -1269 0
49 -399 -1269 0
49 -399 -1270 0
49 -400 -1269 0
49 -400 -1270 0
49 -400 -1271 0
49 -398 -1473 0
49 -398 -1474 0
49 -398 -1475 0
49 -398 -1476 0
49 -398 -1477 0
49 -399 -1473 0
49 -399 -1474 0
49 -399 -1475 0
49 -399 -1476 0
49 -399 -1477 0
49 -399 -1478 0
49 -400 -1473 0
49 -400 -1474 0
49 -400 -1475 0
49 -400 -1476 0
49 -400 -1477 0
49 -400 -1478 0
49 -400 -1479 0
49 -398 -1729 0
49 -398 -1730 0
49 -398 -1731 0
49 -398 -1732 0
49 -398 -1733 0
49 -399 -1729 0
49 -399 -1730 0
49 -399 -1731 0
49 -399 -1732 0
49 -399 -1733 0
49 -399 -1734 0
49 -400 -1729 0
49 -400 -1730 0
49 -400 -1731 0
49 -400 -1732 0
49 -400 -1733 0
49 -400 -1734 0
49 -400 -1735 0
49 -401 402 0
49 -403 411 0
49 -404 412 0
49 -405 413 0
49 -406 414 0
49 -407 415 0
49 -408 416 0
49 -409 417 0
49 -410 418 0
49 -403 -1292 0
49 -404 -1292 0
49 -404 -1293 0
49 -405 -1292 0
49 -405 -1293 0
49 -405 -1294 0
49 -406 -1292 0
49 -406 -1293 0
49 -406 -1294 0
49 -406 -1295 0
49 -407 -1292 0
49 -407 -1293 0
49 -407 -1294 0
49 -407 -1295 0
49 -407 -1296 0
49 -408 -1292 0
49 -408 -1293 0
49 -408 -1294 0
49 -408 -1295 0
49 -408 -1296 0
49 -409 -1292 0
49 -409 -1293 0
49 -409 -1294 0
49 -409 -1295 0
49 -409 -1296 0
49 -410 -1293 0
49 -410 -1294 0
49 -410 -1295 0
49 -410 -1296 0
49 -403 -1702 0
49 -404 -1703 0
49 -405 -1704 0
49 -406 -1705 0
49 -407 -1706 0
49 -408 -1707 0
49 -409 -1708 0
49 -412 -1701 0
49 -413 -1701 0
49 -413 -1702 0
49 -414 -1701 0
49 -414 -1702 0
49 -414 -1703 0
49 -415 -1701 0
49 -415 -1702 0
49 -415 -1703 0
49 -415 -1704 0
49 -416 -1701 0
49 -416 -1702 0
49 -416 -1703 0
49 -416 -1704 0
49 -416 -1705 0
49 -417 -1701 0
49 -417 -1702 0
49 -417 -1703 0
49 -417 -1704 0
49 -417 -1705 0
49 -417 -1706 0
49 -418 -1701 0
49 -418 -1702 0
49 -418 -1703 0
49 -418 -1704 0
49 -418 -1705 0
49 -418 -1706 0
49 -418 -1707 0
49 -419 420 0
49 -421 429 0
49 -422 430 0
49 -423 431 0
49 -424 432 0
49 -425 433 0
49 -426 434 0
49 -427 435 0
49 -428 436 0
49 -422 -791 0
49 -423 -791 0
49 -423 -792 0
49 -424 -791 0
49 -424 -792 0
49 -424 -793 0
49 -425 -792 0
49 -425 -793 0
49 -425 -794 0
49 -426 -793 0
49 -426 -794 0
49 -426 -795 0
49 -427 -794 0
49 -427 -795 0
49 -427 -796 0
49 -428 -795 0
49 -428 -796 0
49 -428 -797 0
49 -421 -800 0
49 -421 -801 0
49 -421 -802 0
49 -421 -803 0
49 -421 -804 0
49 -421 -805 0
49 -421 -806 0
49 -422 -801 0
49 -422 -802 0
49 -422 -803 0
49 -422 -804 0
49 -422 -805 0
49 -422 -806 0
49 -423 -802 0
49 -423 -803 0
49 -423 -804 0
49 -423 -805 0
49 -423 -806 0
49 -424 -803 0
49 -424 -804 0
49 -424 -805 0
49 -424 -806 0
49 -425 -804 0
49 -425 -805 0
49 -425 -806 0
49 -426 -805 0
49 -426 -806 0
49 -427 -806 0
49 -422 -2449 0
49 -423 -2450 0
49 -424 -2451 0
49 -425 -2452 0
49 -426 -2453 0
49 -427 -2454 0
49 -428 -2455 0
49 -421 -2458 0
49 -421 -2459 0
49 -421 -2460 0
49 -421 -2461 0
49 -421 -2462 0
49 -421 -2463 0
49 -421 -2464 0
49 -422 -2459 0
49 -422 -2460 0
49 -422 -2461 0
49 -422 -2462 0
49 -422 -2463 0
49 -422 -2464 0
49 -423 -2460 0
49 -423 -2461 0
49 -423 -2462 0
49 -423 -2463 0
49 -423 -2464 0
49 -424 -2461 0
49 -424 -2462 0
49 -424 -2463 0
49 -424 -2464 0
49 -425 -2462 0
49 -425 -2463 0
49 -425 -2464 0
49 -426 -2463 0
49 -426 -2464 0
49 -427 -2464 0
49 -430 -791 0
49 -431 -791 0
49 -431 -792 0
49 -432 -791 0
49 -432 -792 0
49 -432 -793 0
49 -433 -791 0
49 -433 -792 0
49 -433 -793 0
49 -433 -794 0
49 -434 -791 0
49 -434 -792 0
49 -434 -793 0
49 -434 -794 0
49 -434 -795 0
49 -435 -791 0
49 -435 -792 0
49 -435 -793 0
49 -435 -794 0
49 -435 -795 0
49 -435 -796 0
49 -436 -791 0
49 -436 -792 0
49 -436 -793 0
49 -436 -794 0
49 -436 -795 0
49 -436 -796 0
49 -436 -797 0
49 -430 -799 0
49 -431 -799 0
49 -431 -800 0
49 -432 -799 0
49 -432 -800 0
49 -432 -801 0
49 -433 -800 0
49 -433 -801 0
49 -433 -802 0
49 -434 -801 0
49 -434 -802 0
49 -434 -803 0
49 -435 -802 0
49 -435 -803 0
49 -435 -804 0
49 -436 -803 0
49 -436 -804 0
49 -436 -805 0
49 -430 -2449 0
49 -431 -2449 0
49 -431 -2450 0
49 -432 -2449 0
49 -432 -2450 0
49 -432 -2451 0
49 -433 -2449 0
49 -433 -2450 0
49 -433 -2451 0
49 -433 -2452 0
49 -434 -2449 0
49 -434 -2450 0
49 -434 -2451 0
49 -434 -2452 0
49 -434 -2453 0
49 -435 -2449 0
49 -435 -2450 0
49 -435 -2451 0
49 -435 -2452 0
49 -435 -2453 0
49 -435 -2454 0
49 -436 -2449 0
49 -436 -2450 0
49 -436 -2451 0
49 -436 -2452 0
49 -436 -2453 0
49 -436 -2454 0
49 -436 -2455 0
49 -430 -2457 0
49 -431 -2458 0
49 -432 -2459 0
49 -433 -2460 0
49 -434 -2461 0
49 -435 -2462 0
49 -436 -2463 0
49 -437 438 0
49 -439 440 0
49 -441 444 0
49 -442 445 0
49 -443 446 0
49 -441 -698 0
49 -441 -699 0
49 -441 -700 0
49 -441 -701 0
49 -441 -702 0
49 -441 -703 0
49 -441 -704 0
49 -442 -704 0
49 -447 448 0
49 -449 452 0
49 -450 453 0
49 -451 454 0
49 -450 -557 0
49 -450 -558 0
49 -451 -561 0
49 -451 -562 0
49 -451 -563 0
49 -451 -564 0
49 -449 -1190 0
49 -449 -1191 0
49 -450 -1190 0
49 -450 -1191 0
49 -453 -820 0
49 -455 457 0
49 -456 458 0
49 -458 -549 0
49 -458 -550 0
49 -458 -551 0
49 -458 -552 0
49 -458 -553 0
49 -458 -558 0
49 -458 -559 0
49 -458 -560 0
49 -458 -561 0
49 -459 467 0
49 -460 468 0
49 -461 469 0
49 -462 470 0
49 -463 471 0
49 -464 472 0
49 -465 473 0
49 -466 474 0
49 -459 -1584 0
49 -459 -1585 0
49 -459 -1586 0
49 -459 -1587 0
49 -459 -1588 0
49 -460 -1585 0
49 -460 -1586 0
49 -460 -1587 0
49 -460 -1588 0
49 -460 -1589 0
49 -461 -1586 0
49 -461 -1587 0
49 -461 -1588 0
49 -461 -1589 0
49 -461 -1590 0
49 -462 -1587 0
49 -462 -1588 0
49 -462 -1589 0
49 -462 -1590 0
49 -463 -1588 0
49 -463 -1589 0
49 -463 -1590 0
49 -464 -1589 0
49 -464 -1590 0
49 -465 -1590 0
49 -463 -1674 0
49 -464 -1674 0
49 -465 -1674 0
49 -459 -1676 0
49 -460 -1676 0
49 -461 -1676 0
49 -462 -1676 0
49 -463 -1676 0
49 -464 -1676 0
49 -465 -1676 0
49 -468 -1192 0
49 -469 -1192 0
49 -475 476 0
49 -477 481 0
49 -478 482 0
49 -479 483 0
49 -480 484 0
49 -482 -1489 0
49 -482 -1490 0
49 -483 -1489 0
49 -483 -1490 0
49 -483 -1491 0
49 -483 -1492 0
49 -484 -1489 0
49 -484 -1490 0
49 -484 -1491 0
49 -484 -1492 0
49 -484 -1493 0
49 -484 -1494 0
49 -485 493 0
49 -486 494 0
49 -487 495 0
49 -488 496 0
49 -489 497 0
49 -490 498 0
49 -491 499 0
49 -492 500 0
49 -491 -780 0
49 -491 -781 0
49 -491 -782 0
49 -491 -783 0
49 -491 -784 0
49 -491 -785 0
49 -491 -786 0
49 -492 -781 0
49 -492 -782 0
49 -492 -783 0
49 -492 -784 0
49 -492 -785 0
49 -492 -786 0
49 -493 -2200 0
49 -493 -2201 0
49 -493 -2202 0
49 -494 -2201 0
49 -494 -2202 0
49 -495 -2202 0
49 -496 -2202 0
49 -497 -2202 0
49 -493 -2295 0
49 -493 -2296 0
49 -493 -2297 0
49 -493 -2298 0
49 -493 -2299 0
49 -493 -2300 0
49 -493 -2301 0
49 -493 -2302 0
49 -494 -2296 0
49 -494 -2297 0
49 -494 -2298 0
49 -494 -2299 0
49 -494 -2300 0
49 -494 -2301 0
49 -494 -2302 0
49 -495 -2297 0
49 -495 -2298 0
49 -495 -2299 0
49 -495 -2300 0
49 -495 -2301 0
49 -495 -2302 0
49 -496 -2298 0
49 -496 -2299 0
49 -496 -2300 0
49 -496 -2301 0
49 -496 -2302 0
49 -497 -2299 0
49 -497 -2300 0
49 -497 -2301 0
49 -497 -2302 0
49 -501 512 0
49 -502 513 0
49 -503 514 0
49 -504 515 0
49 -505 516 0
49 -506 517 0
49 -507 518 0
49 -508 519 0
49 -509 520 0
49 -510 521 0
49 -511 522 0
49 -502 -2357 0
49 -503 -2357 0
49 -503 -2358 0
49 -504 -2357 0
49 -504 -2358 0
49 -504 -2359 0
49 -505 -2357 0
49 -505 -2358 0
49 -505 -2359 0
49 -505 -2360 0
49 -506 -2357 0
49 -506 -2358 0
49 -506 -2359 0
49 -506 -2360 0
49 -506 -2361 0
49 -507 -2358 0
49 -507 -2359 0
49 -507 -2360 0
49 -507 -2361 0
49 -507 -2362 0
49 -508 -2359 0
49 -508 -2360 0
49 -508 -2361 0
49 -508 -2362 0
49 -508 -2363 0
49 -509 -2360 0
49 -509 -2361 0
49 -509 -2362 0
49 -509 -2363 0
49 -509 -2364 0
49 -510 -2361 0
49 -510 -2362 0
49 -510 -2363 0
49 -510 -2364 0
49 -511 -2362 0
49 -511 -2363 0
49 -511 -2364 0
49 -501 -2715 0
49 -501 -2716 0
49 -501 -2717 0
49 -501 -2718 0
49 -501 -2719 0
49 -501 -2720 0
49 -502 -2716 0
49 -502 -2717 0
49 -502 -2718 0
49 -502 -2719 0
49 -502 -2720 0
49 -503 -2717 0
49 -503 -2718 0
49 -503 -2719 0
49 -503 -2720 0
49 -504 -2717 0
49 -504 -2718 0
49 -504 -2719 0
49 -504 -2720 0
49 -505 -2718 0
49 -505 -2719 0
49 -505 -2720 0
49 -506 -2719 0
49 -506 -2720 0
49 -507 -2720 0
49 -512 -2715 0
49 -512 -2716 0
49 -512 -2717 0
49 -512 -2718 0
49 -512 -2719 0
49 -512 -2720 0
49 -513 -2716 0
49 -513 -2717 0
49 -513 -2718 0
49 -513 -2719 0
49 -513 -2720 0
49 -514 -2717 0
49 -514 -2718 0
49 -514 -2719 0
49 -514 -2720 0
49 -515 -2717 0
49 -515 -2718 0
49 -515 -2719 0
49 -515 -2720 0
49 -516 -2718 0
49 -516 -2719 0
49 -516 -2720 0
49 -517 -2719 0
49 -517 -2720 0
49 -518 -2720 0
49 -513 -2835 0
49 -514 -2835 0
49 -514 -2836 0
49 -515 -2835 0
49 -515 -2836 0
49 -515 -2837 0
49 -516 -2836 0
49 -516 -2837 0
49 -516 -2838 0
49 -517 -2837 0
49 -517 -2838 0
49 -517 -2839 0
49 -518 -2838 0
49 -518 -2839 0
49 -518 -2840 0
49 -519 -2839 0
49 -519 -2840 0
49 -519 -2841 0
49 -520 -2840 0
49 -520 -2841 0
49 -520 -2842 0
49 -521 -2841 0
49 -521 -2842 0
49 -522 -2842 0
49 -523 530 0
49 -524 531 0
49 -525 532 0
49 -526 533 0
49 -527 534 0
49 -528 535 0
49 -529 536 0
49 -537 538 0
49 -539 544 0
49 -540 545 0
49 -541 546 0
49 -542 547 0
49 -543 548 0
49 -549 557 0
49 -550 558 0
49 -551 559 0
49 -552 560 0
49 -553 561 0
49 -554 562 0
49 -555 563 0
49 -556 564 0
49 -558 -743 0
49 -559 -743 0
49 -559 -744 0
49 -560 -743 0
49 -560 -744 0
49 -560 -745 0
49 -561 -743 0
49 -561 -744 0
49 -561 -745 0
49 -561 -746 0
49 -562 -743 0
49 -562 -744 0
49 -562 -745 0
49 -562 -746 0
49 -562 -747 0
49 -563 -743 0
49 -563 -744 0
49 -563 -745 0
49 -563 -746 0
49 -563 -747 0
49 -563 -748 0
49 -564 -743 0
49 -564 -744 0
49 -564 -745 0
49 -564 -746 0
49 -564 -747 0
49 -564 -748 0
49 -564 -749 0
49 -557 -754 0
49 -558 -755 0
49 -559 -756 0
49 -560 -757 0
49 -561 -758 0
49 -562 -759 0
49 -563 -760 0
49 -564 -761 0
49 -565 573 0
49 -566 574 0
49 -567 575 0
49 -568 576 0
49 -569 577 0
49 -570 578 0
49 -571 579 0
49 -572 580 0
49 -565 -2852 0
49 -565 -2853 0
49 -565 -2854 0
49 -565 -2855 0
49 -565 -2856 0
49 -566 -2852 0
49 -566 -2853 0
49 -566 -2854 0
49 -566 -2855 0
49 -566 -2856 0
49 -567 -2852 0
49 -567 -2853 0
49 -567 -2854 0
49 -567 -2855 0
49 -567 -2856 0
49 -568 -2853 0
49 -568 -2854 0
49 -568 -2855 0
49 -568 -2856 0
49 -569 -2854 0
49 -569 -2855 0
49 -569 -2856 0
49 -570 -2855 0
49 -570 -2856 0
49 -571 -2856 0
49 -574 -2859 0
49 -575 -2859 0
49 -575 -2860 0
49 -576 -2859 0
49 -576 -2860 0
49 -576 -2861 0
49 -577 -2859 0
49 -577 -2860 0
49 -577 -2861 0
49 -577 -2862 0
49 -578 -2859 0
49 -578 -2860 0
49 -578 -2861 0
49 -578 -2862 0
49 -578 -2863 0
49 -579 -2859 0
49 -579 -2860 0
49 -579 -2861 0
49 -579 -2862 0
49 -579 -2863 0
49 -579 -2864 0
49 -580 -2859 0
49 -580 -2860 0
49 -580 -2861 0
49 -580 -2862 0
49 -580 -2863 0
49 -580 -2864 0
49 -580 -2865 0
49 -573 -2868 0
49 -574 -2869 0
49 -575 -2870 0
49 -576 -2871 0
49 -577 -2872 0
49 -578 -2873 0
49 -579 -2874 0
49 -581 585 0
49 -582 586 0
49 -583 587 0
49 -584 588 0
49 -581 -864 0
49 -581 -865 0
49 -581 -866 0
49 -581 -867 0
49 -586 -2133 0
49 -586 -2134 0
49 -586 -2135 0
49 -586 -2136 0
49 -587 -2133 0
49 -587 -2134 0
49 -587 -2135 0
49 -587 -2136 0
49 -587 -2137 0
49 -588 -2133 0
49 -588 -2134 0
49 -588 -2135 0
49 -588 -2136 0
49 -588 -2137 0
49 -588 -2138 0
49 -586 -2689 0
49 -586 -2690 0
49 -586 -2691 0
49 -586 -2692 0
49 -586 -2693 0
49 -587 -2689 0
49 -587 -2690 0
49 -587 -2691 0
49 -587 -2692 0
49 -587 -2693 0
49 -587 -2694 0
49 -588 -2689 0
49 -588 -2690 0
49 -588 -2691 0
49 -588 -2692 0
49 -588 -2693 0
49 -588 -2694 0
49 -588 -2695 0
49 -589 590 0
49 -591 592 0
49 -593 594 0
49 -595 605 0
49 -596 606 0
49 -597 607 0
49 -598 608 0
49 -599 609 0
49 -600 610 0
49 -601 611 0
49 -602 612 0
49 -603 613 0
49 -604 614 0
49 -615 617 0
49 -616 618 0
49 -615 -1187 0
49 -615 -1188 0
49 -616 -1189 0
49 -616 -2317 0
49 -616 -2325 0
49 -616 -2326 0
49 -616 -2327 0
49 -616 -2328 0
49 -616 -2329 0
49 -619 622 0
49 -620 623 0
49 -621 624 0
49 -625 626 0
49 -627 628 0
49 -629 630 0
49 -631 632 0
49 -633 634 0
49 -635 636 0
49 -637 638 0
49 -639 640 0
49 -641 642 0
49 -643 644 0
49 -645 653 0
49 -646 654 0
49 -647 655 0
49 -648 656 0
49 -649 657 0
49 -650 658 0
49 -651 659 0
49 -652 660 0
49 -646 -1004 0
49 -646 -1005 0
49 -646 -1006 0
49 -646 -1007 0
49 -646 -1008 0
49 -646 -1009 0
49 -646 -1010 0
49 -647 -1005 0
49 -647 -1006 0
49 -647 -1007 0
49 -647 -1008 0
49 -647 -1009 0
49 -647 -1010 0
49 -648 -1006 0
49 -648 -1007 0
49 -648 -1008 0
49 -648 -1009 0
49 -648 -1010 0
49 -649 -1007 0
49 -649 -1008 0
49 -649 -1009 0
49 -649 -1010 0
49 -650 -1008 0
49 -650 -1009 0
49 -650 -1010 0
49 -651 -1009 0
49 -651 -1010 0
49 -652 -1010 0
49 -645 -1647 0
49 -645 -1648 0
49 -661 665 0
49 -662 666 0
49 -663 667 0
49 -664 668 0
49 -665 -724 0
49 -665 -725 0
49 -665 -726 0
49 -666 -725 0
49 -666 -726 0
49 -667 -726 0
49 -665 -1189 0
49 -666 -1189 0
49 -667 -1189 0
49 -669 670 0
49 -671 674 0
49 -672 675 0
49 -673 676 0
49 -671 -931 0
49 -672 -933 0
49 -673 -935 0
49 -674 -817 0
49 -675 -817 0
49 -674 -1184 0
49 -675 -1184 0
49 -675 -1185 0
49 -676 -1185 0
49 -677 678 0
49 -679 680 0
49 -681 685 0
49 -682 686 0
49 -683 687 0
49 -684 688 0
49 -681 -1250 0
49 -681 -1251 0
49 -681 -1252 0
49 -682 -1251 0
49 -682 -1252 0
49 -683 -1252 0
49 -685 -1250 0
49 -685 -1251 0
49 -685 -1252 0
49 -686 -1251 0
49 -686 -1252 0
49 -687 -1252 0
49 -689 697 0
49 -690 698 0
49 -691 699 0
49 -692 700 0
49 -693 701 0
49 -694 702 0
49 -695 703 0
49 -696 704 0
49 -697 -1459 0
49 -697 -1460 0
49 -697 -1461 0
49 -698 -1460 0
49 -698 -1461 0
49 -699 -1461 0
49 -697 -1466 0
49 -697 -1467 0
49 -697 -1468 0
49 -698 -1467 0
49 -698 -1468 0
49 -699 -1468 0
49 -705 706 0
49 -707 708 0
49 -709 710 0
49 -711 712 0
49 -713 714 0
49 -715 716 0
49 -717 718 0
49 -719 720 0
49 -721 722 0
49 -723 727 0
49 -724 728 0
49 -725 729 0
49 -726 730 0
49 -731 737 0
49 -732 738 0
49 -733 739 0
49 -734 740 0
49 -735 741 0
49 -736 742 0
49 -743 753 0
49 -744 754 0
49 -745 755 0
49 -746 756 0
49 -747 757 0
49 -748 758 0
49 -749 759 0
49 -750 760 0
49 -751 761 0
49 -752 762 0
49 -752 -2280 0
49 -763 767 0
49 -764 768 0
49 -765 769 0
49 -766 770 0
49 -764 -1603 0
49 -765 -1604 0
49 -766 -1605 0
49 -763 -1608 0
49 -763 -1609 0
49 -763 -1610 0
49 -763 -1611 0
49 -763 -1612 0
49 -764 -1611 0
49 -764 -1612 0
49 -765 -1612 0
49 -768 -1601 0
49 -768 -1602 0
49 -768 -1603 0
49 -769 -1601 0
49 -769 -1602 0
49 -769 -1603 0
49 -769 -1604 0
49 -770 -1601 0
49 -770 -1602 0
49 -770 -1603 0
49 -770 -1604 0
49 -770 -1605 0
49 -768 -1609 0
49 -769 -1610 0
49 -770 -1611 0
49 -771 779 0
49 -772 780 0
49 -773 781 0
49 -774 782 0
49 -775 783 0
49 -776 784 0
49 -777 785 0
49 -778 786 0
49 -771 -2001 0
49 -771 -2002 0
49 -771 -2003 0
49 -771 -2004 0
49 -771 -2005 0
49 -772 -2002 0
49 -772 -2003 0
49 -772 -2004 0
49 -772 -2005 0
49 -772 -2006 0
49 -773 -2003 0
49 -773 -2004 0
49 -773 -2005 0
49 -773 -2006 0
49 -773 -2007 0
49 -774 -2004 0
49 -774 -2005 0
49 -774 -2006 0
49 -774 -2007 0
49 -774 -2008 0
49 -775 -2005 0
49 -775 -2006 0
49 -775 -2007 0
49 -775 -2008 0
49 -775 -2009 0
49 -776 -2006 0
49 -776 -2007 0
49 -776 -2008 0
49 -776 -2009 0
49 -776 -2010 0
49 -777 -2007 0
49 -777 -2008 0
49 -777 -2009 0
49 -777 -2010 0
49 -778 -2008 0
49 -778 -2009 0
49 -778 -2010 0
49 -771 -2386 0
49 -771 -2387 0
49 -771 -2388 0
49 -771 -2389 0
49 -771 -2390 0
49 -771 -2391 0
49 -771 -2392 0
49 -772 -2387 0
49 -772 -2388 0
49 -772 -2389 0
49 -772 -2390 0
49 -772 -2391 0
49 -772 -2392 0
49 -773 -2388 0
49 -773 -2389 0
49 -773 -2390 0
49 -773 -2391 0
49 -773 -2392 0
49 -774 -2389 0
49 -774 -2390 0
49 -774 -2391 0
49 -774 -2392 0
49 -775 -2390 0
49 -775 -2391 0
49 -775 -2392 0
49 -776 -2391 0
49 -776 -2392 0
49 -777 -2392 0
49 -780 -2027 0
49 -781 -2027 0
49 -781 -2028 0
49 -782 -2027 0
49 -782 -2028 0
49 -782 -2029 0
49 -783 -2027 0
49 -783 -2028 0
49 -783 -2029 0
49 -783 -2030 0
49 -784 -2027 0
49 -784 -2028 0
49 -784 -2029 0
49 -784 -2030 0
49 -784 -2031 0
49 -785 -2027 0
49 -785 -2028 0
49 -785 -2029 0
49 -785 -2030 0
49 -785 -2031 0
49 -785 -2032 0
49 -786 -2027 0
49 -786 -2028 0
49 -786 -2029 0
49 -786 -2030 0
49 -786 -2031 0
49 -786 -2032 0
49 -786 -2033 0
49 -779 -2036 0
49 -779 -2037 0
49 -779 -2038 0
49 -779 -2039 0
49 -779 -2040 0
49 -780 -2037 0
49 -780 -2038 0
49 -780 -2039 0
49 -780 -2040 0
49 -780 -2041 0
49 -781 -2038 0
49 -781 -2039 0
49 -781 -2040 0
49 -781 -2041 0
49 -781 -2042 0
49 -782 -2039 0
49 -782 -2040 0
49 -782 -2041 0
49 -782 -2042 0
49 -783 -2040 0
49 -783 -2041 0
49 -783 -2042 0
49 -784 -2041 0
49 -784 -2042 0
49 -785 -2042 0
49 -787 788 0
49 -789 790 0
49 -791 799 0
49 -792 800 0
49 -793 801 0
49 -794 802 0
49 -795 803 0
49 -796 804 0
49 -797 805 0
49 -798 806 0
49 -791 -2450 0
49 -792 -2451 0
49 -793 -2452 0
49 -794 -2453 0
49 -795 -2454 0
49 -796 -2455 0
49 -797 -2456 0
49 -791 -2458 0
49 -791 -2459 0
49 -791 -2460 0
49 -791 -2461 0
49 -791 -2462 0
49 -791 -2463 0
49 -791 -2464 0
49 -792 -2459 0
49 -792 -2460 0
49 -792 -2461 0
49 -792 -2462 0
49 -792 -2463 0
49 -792 -2464 0
49 -793 -2460 0
49 -793 -2461 0
49 -793 -2462 0
49 -793 -2463 0
49 -793 -2464 0
49 -794 -2461 0
49 -794 -2462 0
49 -794 -2463 0
49 -794 -2464 0
49 -795 -2462 0
49 -795 -2463 0
49 -795 -2464 0
49 -796 -2463 0
49 -796 -2464 0
49 -797 -2464 0
49 -800 -2449 0
49 -801 -2449 0
49 -801 -2450 0
49 -802 -2449 0
49 -802 -2450 0
49 -802 -2451 0
49 -803 -2449 0
49 -803 -2450 0
49 -803 -2451 0
49 -803 -2452 0
49 -804 -2449 0
49 -804 -2450 0
49 -804 -2451 0
49 -804 -2452 0
49 -804 -2453 0
49 -805 -2449 0
49 -805 -2450 0
49 -805 -2451 0
49 -805 -2452 0
49 -805 -2453 0
49 -805 -2454 0
49 -806 -2449 0
49 -806 -2450 0
49 -806 -2451 0
49 -806 -2452 0
49 -806 -2453 0
49 -806 -2454 0
49 -806 -2455 0
49 -799 -2458 0
49 -800 -2459 0
49 -801 -2460 0
49 -802 -2461 0
49 -803 -2462 0
49 -804 -2463 0
49 -805 -2464 0
49 -807 808 0
49 -809 810 0
49 -811 812 0
49 -813 814 0
49 -815 816 0
49 -817 820 0
49 -818 821 0
49 -819 822 0
49 -823 824 0
49 -825 826 0
49 -827 828 0
49 -829 853 0
49 -830 854 0
49 -831 855 0
49 -832 856 0
49 -833 844 0
49 -834 845 0
49 -835 846 0
49 -836 847 0
49 -837 848 0
49 -838 849 0
49 -839 850 0
49 -840 851 0
49 -841 852 0
49 -842 857 0
49 -843 858 0
49 -854 -2133 0
49 -855 -2133 0
49 -855 -2134 0
49 -856 -2133 0
49 -856 -2134 0
49 -856 -2135 0
49 -857 -2133 0
49 -857 -2134 0
49 -857 -2135 0
49 -857 -2136 0
49 -857 -2137 0
49 -857 -2138 0
49 -858 -2133 0
49 -858 -2134 0
49 -858 -2135 0
49 -858 -2136 0
49 -858 -2137 0
49 -858 -2138 0
49 -858 -2139 0
49 -855 -2627 0
49 -856 -2627 0
49 -856 -2628 0
49 -857 -2627 0
49 -857 -2628 0
49 -857 -2629 0
49 -857 -2630 0
49 -857 -2631 0
49 -858 -2627 0
49 -858 -2628 0
49 -858 -2629 0
49 -858 -2630 0
49 -858 -2631 0
49 -858 -2632 0
49 -844 -2665 0
49 -845 -2665 0
49 -846 -2665 0
49 -847 -2665 0
49 -848 -2665 0
49 -848 -2666 0
49 -849 -2665 0
49 -849 -2666 0
49 -849 -2667 0
49 -850 -2665 0
49 -850 -2666 0
49 -850 -2667 0
49 -850 -2668 0
49 -851 -2665 0
49 -851 -2666 0
49 -851 -2667 0
49 -851 -2668 0
49 -851 -2669 0
49 -852 -2665 0
49 -852 -2666 0
49 -852 -2667 0
49 -852 -2668 0
49 -852 -2669 0
49 -852 -2670 0
49 -853 -2666 0
49 -853 -2667 0
49 -853 -2668 0
49 -853 -2669 0
49 -853 -2670 0
49 -853 -2671 0
49 -853 -2672 0
49 -853 -2673 0
49 -853 -2674 0
49 -853 -2675 0
49 -853 -2676 0
49 -854 -2666 0
49 -854 -2667 0
49 -854 -2668 0
49 -854 -2669 0
49 -854 -2670 0
49 -854 -2671 0
49 -854 -2672 0
49 -854 -2673 0
49 -854 -2674 0
49 -854 -2675 0
49 -854 -2676 0
49 -855 -2666 0
49 -855 -2667 0
49 -855 -2668 0
49 -855 -2669 0
49 -855 -2670 0
49 -855 -2671 0
49 -855 -2672 0
49 -855 -2673 0
49 -855 -2674 0
49 -855 -2675 0
49 -855 -2676 0
49 -856 -2666 0
49 -856 -2667 0
49 -856 -2668 0
49 -856 -2669 0
49 -856 -2670 0
49 -856 -2671 0
49 -856 -2672 0
49 -856 -2673 0
49 -856 -2674 0
49 -856 -2675 0
49 -856 -2676 0
49 -857 -2666 0
49 -857 -2667 0
49 -857 -2668 0
49 -857 -2669 0
49 -857 -2670 0
49 -857 -2671 0
49 -857 -2672 0
49 -857 -2673 0
49 -857 -2674 0
49 -857 -2675 0
49 -857 -2676 0
49 -858 -2667 0
49 -858 -2668 0
49 -858 -2669 0
49 -858 -2670 0
49 -858 -2671 0
49 -858 -2672 0
49 -858 -2673 0
49 -858 -2674 0
49 -858 -2675 0
49 -858 -2676 0
49 -844 -2677 0
49 -844 -2678 0
49 -844 -2679 0
49 -844 -2680 0
49 -844 -2681 0
49 -845 -2677 0
49 -845 -2678 0
49 -845 -2679 0
49 -845 -2680 0
49 -845 -2681 0
49 -845 -2682 0
49 -846 -2677 0
49 -846 -2678 0
49 -846 -2679 0
49 -846 -2680 0
49 -846 -2681 0
49 -846 -2682 0
49 -846 -2683 0
49 -847 -2678 0
49 -847 -2679 0
49 -847 -2680 0
49 -847 -2681 0
49 -847 -2682 0
49 -847 -2683 0
49 -847 -2684 0
49 -848 -2679 0
49 -848 -2680 0
49 -848 -2681 0
49 -848 -2682 0
49 -848 -2683 0
49 -848 -2684 0
49 -848 -2685 0
49 -849 -2680 0
49 -849 -2681 0
49 -849 -2682 0
49 -849 -2683 0
49 -849 -2684 0
49 -849 -2685 0
49 -849 -2686 0
49 -850 -2681 0
49 -850 -2682 0
49 -850 -2683 0
49 -850 -2684 0
49 -850 -2685 0
49 -850 -2686 0
49 -850 -2687 0
49 -851 -2682 0
49 -851 -2683 0
49 -851 -2684 0
49 -851 -2685 0
49 -851 -2686 0
49 -851 -2687 0
49 -852 -2683 0
49 -852 -2684 0
49 -852 -2685 0
49 -852 -2686 0
49 -852 -2687 0
49 -854 -2688 0
49 -855 -2688 0
49 -856 -2688 0
49 -857 -2688 0
49 -858 -2688 0
49 -859 864 0
49 -860 865 0
49 -861 866 0
49 -862 867 0
49 -863 868 0
49 -869 870 0
49 -871 872 0
49 -873 874 0
49 -875 903 0
49 -876 904 0
49 -877 905 0
49 -878 906 0
49 -879 907 0
49 -880 908 0
49 -881 920 0
49 -882 921 0
49 -883 922 0
49 -884 923 0
49 -885 924 0
49 -886 925 0
49 -887 926 0
49 -888 927 0
49 -889 928 0
49 -890 929 0
49 -891 930 0
49 -892 909 0
49 -893 910 0
49 -894 911 0
49 -895 912 0
49 -896 913 0
49 -897 914 0
49 -898 915 0
49 -899 916 0
49 -900 917 0
49 -901 918 0
49 -902 919 0
49 -931 937 0
49 -932 938 0
49 -933 939 0
49 -934 940 0
49 -935 941 0
49 -936 942 0
49 -937 -1184 0
49 -938 -1184 0
49 -939 -1184 0
49 -939 -1185 0
49 -940 -1185 0
49 -941 -1185 0
49 -942 -1185 0
49 -943 944 0
49 -945 946 0
49 -947 956 0
49 -948 957 0
49 -949 958 0
49 -950 959 0
49 -951 960 0
49 -952 961 0
49 -953 962 0
49 -954 955 0
49 -963 971 0
49 -964 972 0
49 -965 973 0
49 -966 974 0
49 -967 975 0
49 -968 976 0
49 -969 977 0
49 -970 978 0
49 -975 -2130 0
49 -976 -2131 0
49 -977 -2132 0
49 -979 987 0
49 -980 988 0
49 -981 989 0
49 -982 990 0
49 -983 991 0
49 -984 992 0
49 -985 993 0
49 -986 994 0
49 -988 -1655 0
49 -989 -1655 0
49 -989 -1656 0
49 -990 -1655 0
49 -990 -1656 0
49 -990 -1657 0
49 -991 -1655 0
49 -991 -1656 0
49 -991 -1657 0
49 -991 -1658 0
49 -992 -1655 0
49 -992 -1656 0
49 -992 -1657 0
49 -992 -1658 0
49 -992 -1659 0
49 -993 -1655 0
49 -993 -1656 0
49 -993 -1657 0
49 -993 -1658 0
49 -993 -1659 0
49 -993 -1660 0
49 -994 -1655 0
49 -994 -1656 0
49 -994 -1657 0
49 -994 -1658 0
49 -994 -1659 0
49 -994 -1660 0
49 -994 -1661 0
49 -995 1003 0
49 -996 1004 0
49 -997 1005 0
49 -998 1006 0
49 -999 1007 0
49 -1000 1008 0
49 -1001 1009 0
49 -1002 1010 0
49 -995 -2088 0
49 -996 -2089 0
49 -997 -2090 0
49 -998 -2091 0
49 -999 -2092 0
49 -1000 -2093 0
49 -1001 -2094 0
49 -995 -2096 0
49 -995 -2097 0
49 -995 -2098 0
49 -995 -2099 0
49 -995 -2100 0
49 -995 -2101 0
49 -995 -2102 0
49 -996 -2097 0
49 -996 -2098 0
49 -996 -2099 0
49 -996 -2100 0
49 -996 -2101 0
49 -996 -2102 0
49 -997 -2098 0
49 -997 -2099 0
49 -997 -2100 0
49 -997 -2101 0
49 -997 -2102 0
49 -998 -2099 0
49 -998 -2100 0
49 -998 -2101 0
49 -998 -2102 0
49 -999 -2100 0
49 -999 -2101 0
49 -999 -2102 0
49 -1000 -2101 0
49 -1000 -2102 0
49 -1001 -2102 0
49 -1004 -2727 0
49 -1005 -2727 0
49 -1005 -2728 0
49 -1006 -2727 0
49 -1006 -2728 0
49 -1006 -2729 0
49 -1007 -2727 0
49 -1007 -2728 0
49 -1007 -2729 0
49 -1007 -2730 0
49 -1008 -2727 0
49 -1008 -2728 0
49 -1008 -2729 0
49 -1008 -2730 0
49 -1008 -2731 0
49 -1009 -2727 0
49 -1009 -2728 0
49 -1009 -2729 0
49 -1009 -2730 0
49 -1009 -2731 0
49 -1009 -2732 0
49 -1010 -2727 0
49 -1010 -2728 0
49 -1010 -2729 0
49 -1010 -2730 0
49 -1010 -2731 0
49 -1010 -2732 0
49 -1010 -2733 0
49 -1011 1012 0
49 -1013 1014 0
49 -1015 1016 0
49 -1017 1018 0
49 -1019 1020 0
49 -1021 1029 0
49 -1022 1030 0
49 -1023 1031 0
49 -1024 1032 0
49 -1025 1033 0
49 -1026 1034 0
49 -1027 1035 0
49 -1028 1036 0
49 -1030 -2215 0
49 -1031 -2215 0
49 -1031 -2216 0
49 -1032 -2215 0
49 -1032 -2216 0
49 -1032 -2217 0
49 -1033 -2215 0
49 -1033 -2216 0
49 -1033 -2217 0
49 -1033 -2218 0
49 -1034 -2215 0
49 -1034 -2216 0
49 -1034 -2217 0
49 -1034 -2218 0
49 -1034 -2219 0
49 -1035 -2215 0
49 -1035 -2216 0
49 -1035 -2217 0
49 -1035 -2218 0
49 -1035 -2219 0
49 -1035 -2220 0
49 -1036 -2215 0
49 -1036 -2216 0
49 -1036 -2217 0
49 -1036 -2218 0
49 -1036 -2219 0
49 -1036 -2220 0
49 -1036 -2221 0
49 -1037 1038 0
49 -1039 1047 0
49 -1040 1048 0
49 -1041 1049 0
49 -1042 1050 0
49 -1043 1051 0
49 -1044 1052 0
49 -1045 1053 0
49 -1046 1054 0
49 -1048 -1808 0
49 -1049 -1808 0
49 -1055 1056 0
49 -1057 1058 0
49 -1059 1060 0
49 -1061 1062 0
49 -1063 1071 0
49 -1064 1072 0
49 -1065 1073 0
49 -1066 1074 0
49 -1067 1075 0
49 -1068 1076 0
49 -1069 1077 0
49 -1070 1078 0
49 -1063 -2752 0
49 -1063 -2753 0
49 -1063 -2754 0
49 -1063 -2755 0
49 -1063 -2756 0
49 -1063 -2757 0
49 -1063 -2758 0
49 -1064 -2753 0
49 -1064 -2754 0
49 -1064 -2755 0
49 -1064 -2756 0
49 -1064 -2757 0
49 -1064 -2758 0
49 -1065 -2754 0
49 -1065 -2755 0
49 -1065 -2756 0
49 -1065 -2757 0
49 -1065 -2758 0
49 -1066 -2755 0
49 -1066 -2756 0
49 -1066 -2757 0
49 -1066 -2758 0
49 -1067 -2756 0
49 -1067 -2757 0
49 -1067 -2758 0
49 -1068 -2757 0
49 -1068 -2758 0
49 -1069 -2758 0
49 -1072 -1079 0
49 -1073 -1079 0
49 -1073 -1080 0
49 -1074 -1079 0
49 -1074 -1080 0
49 -1074 -1081 0
49 -1075 -1079 0
49 -1075 -1080 0
49 -1075 -1081 0
49 -1075 -1082 0
49 -1076 -1079 0
49 -1076 -1080 0
49 -1076 -1081 0
49 -1076 -1082 0
49 -1076 -1083 0
49 -1077 -1079 0
49 -1077 -1080 0
49 -1077 -1081 0
49 -1077 -1082 0
49 -1077 -1083 0
49 -1077 -1084 0
49 -1078 -1079 0
49 -1078 -1080 0
49 -1078 -1081 0
49 -1078 -1082 0
49 -1078 -1083 0
49 -1078 -1084 0
49 -1078 -1085 0
49 -1072 -2751 0
49 -1073 -2752 0
49 -1074 -2753 0
49 -1075 -2754 0
49 -1076 -2755 0
49 -1077 -2756 0
49 -1078 -2757 0
49 -1079 1087 0
49 -1080 1088 0
49 -1081 1089 0
49 -1082 1090 0
49 -1083 1091 0
49 -1084 1092 0
49 -1085 1093 0
49 -1086 1094 0
49 -1079 -1954 0
49 -1080 -1955 0
49 -1081 -1956 0
49 -1082 -1957 0
49 -1083 -1958 0
49 -1084 -1959 0
49 -1085 -1960 0
49 -1079 -1962 0
49 -1079 -1963 0
49 -1079 -1964 0
49 -1079 -1965 0
49 -1079 -1966 0
49 -1079 -1967 0
49 -1079 -1968 0
49 -1080 -1963 0
49 -1080 -1964 0
49 -1080 -1965 0
49 -1080 -1966 0
49 -1080 -1967 0
49 -1080 -1968 0
49 -1081 -1964 0
49 -1081 -1965 0
49 -1081 -1966 0
49 -1081 -1967 0
49 -1081 -1968 0
49 -1082 -1965 0
49 -1082 -1966 0
49 -1082 -1967 0
49 -1082 -1968 0
49 -1083 -1966 0
49 -1083 -1967 0
49 -1083 -1968 0
49 -1084 -1967 0
49 -1084 -1968 0
49 -1085 -1968 0
49 -1079 -2490 0
49 -1079 -2491 0
49 -1079 -2492 0
49 -1079 -2493 0
49 -1079 -2494 0
49 -1080 -2491 0
49 -1080 -2492 0
49 -1080 -2493 0
49 -1080 -2494 0
49 -1080 -2495 0
49 -1081 -2492 0
49 -1081 -2493 0
49 -1081 -2494 0
49 -1081 -2495 0
49 -1081 -2496 0
49 -1082 -2493 0
49 -1082 -2494 0
49 -1082 -2495 0
49 -1082 -2496 0
49 -1082 -2497 0
49 -1083 -2494 0
49 -1083 -2495 0
49 -1083 -2496 0
49 -1083 -2497 0
49 -1083 -2498 0
49 -1084 -2495 0
49 -1084 -2496 0
49 -1084 -2497 0
49 -1084 -2498 0
49 -1084 -2499 0
49 -1085 -2496 0
49 -1085 -2497 0
49 -1085 -2498 0
49 -1085 -2499 0
49 -1086 -2497 0
49 -1086 -2498 0
49 -1086 -2499 0
49 -1079 -2752 0
49 -1079 -2753 0
49 -1079 -2754 0
49 -1079 -2755 0
49 -1079 -2756 0
49 -1079 -2757 0
49 -1079 -2758 0
49 -1080 -2753 0
49 -1080 -2754 0
49 -1080 -2755 0
49 -1080 -2756 0
49 -1080 -2757 0
49 -1080 -2758 0
49 -1081 -2754 0
49 -1081 -2755 0
49 -1081 -2756 0
49 -1081 -2757 0
49 -1081 -2758 0
49 -1082 -2755 0
49 -1082 -2756 0
49 -1082 -2757 0
49 -1082 -2758 0
49 -1083 -2756 0
49 -1083 -2757 0
49 -1083 -2758 0
49 -1084 -2757 0
49 -1084 -2758 0
49 -1085 -2758 0
49 -1087 -2501 0
49 -1087 -2502 0
49 -1087 -2503 0
49 -1087 -2504 0
49 -1087 -2505 0
49 -1088 -2502 0
49 -1088 -2503 0
49 -1088 -2504 0
49 -1088 -2505 0
49 -1088 -2506 0
49 -1089 -2503 0
49 -1089 -2504 0
49 -1089 -2505 0
49 -1089 -2506 0
49 -1089 -2507 0
49 -1090 -2504 0
49 -1090 -2505 0
49 -1090 -2506 0
49 -1090 -2507 0
49 -1090 -2508 0
49 -1091 -2505 0
49 -1091 -2506 0
49 -1091 -2507 0
49 -1091 -2508 0
49 -1091 -2509 0
49 -1092 -2506 0
49 -1092 -2507 0
49 -1092 -2508 0
49 -1092 -2509 0
49 -1092 -2510 0
49 -1093 -2507 0
49 -1093 -2508 0
49 -1093 -2509 0
49 -1093 -2510 0
49 -1094 -2508 0
49 -1094 -2509 0
49 -1094 -2510 0
49 -1087 -2752 0
49 -1088 -2753 0
49 -1089 -2754 0
49 -1090 -2755 0
49 -1091 -2756 0
49 -1092 -2757 0
49 -1093 -2758 0
49 -1095 1096 0
49 -1097 1098 0
49 -1099 1100 0
49 -1101 1102 0
49 -1103 1104 0
49 -1105 1106 0
49 -1107 1110 0
49 -1108 1111 0
49 -1109 1112 0
49 -1107 -2264 0
49 -1108 -2270 0
49 -1107 -2272 0
49 -1107 -2273 0
49 -1107 -2274 0
49 -1107 -2275 0
49 -1107 -2276 0
49 -1107 -2277 0
49 -1107 -2278 0
49 -1108 -2278 0
49 -1108 -2478 0
49 -1109 -2479 0
49 -1107 -2482 0
49 -1107 -2483 0
49 -1107 -2484 0
49 -1107 -2485 0
49 -1107 -2486 0
49 -1107 -2487 0
49 -1107 -2488 0
49 -1108 -2488 0
49 -1107 -2518 0
49 -1108 -2524 0
49 -1107 -2526 0
49 -1107 -2527 0
49 -1107 -2528 0
49 -1107 -2529 0
49 -1107 -2530 0
49 -1107 -2531 0
49 -1107 -2532 0
49 -1108 -2532 0
49 -1111 -2263 0
49 -1111 -2264 0
49 -1111 -2265 0
49 -1111 -2266 0
49 -1111 -2267 0
49 -1111 -2268 0
49 -1112 -2263 0
49 -1112 -2264 0
49 -1112 -2265 0
49 -1112 -2266 0
49 -1112 -2267 0
49 -1112 -2268 0
49 -1112 -2269 0
49 -1110 -2272 0
49 -1111 -2278 0
49 -1111 -2473 0
49 -1111 -2474 0
49 -1111 -2475 0
49 -1111 -2476 0
49 -1111 -2477 0
49 -1111 -2478 0
49 -1112 -2473 0
49 -1112 -2474 0
49 -1112 -2475 0
49 -1112 -2476 0
49 -1112 -2477 0
49 -1112 -2478 0
49 -1112 -2479 0
49 -1111 -2486 0
49 -1112 -2487 0
49 -1113 1114 0
49 -1115 1123 0
49 -1116 1124 0
49 -1117 1125 0
49 -1118 1126 0
49 -1119 1127 0
49 -1120 1128 0
49 -1121 1129 0
49 -1122 1130 0
49 -1115 -2588 0
49 -1115 -2589 0
49 -1115 -2590 0
49 -1116 -2589 0
49 -1116 -2590 0
49 -1116 -2591 0
49 -1117 -2590 0
49 -1117 -2591 0
49 -1117 -2592 0
49 -1118 -2591 0
49 -1118 -2592 0
49 -1118 -2593 0
49 -1119 -2592 0
49 -1119 -2593 0
49 -1119 -2594 0
49 -1120 -2593 0
49 -1120 -2594 0
49 -1121 -2594 0
49 -1115 -2596 0
49 -1115 -2597 0
49 -1115 -2598 0
49 -1115 -2599 0
49 -1115 -2600 0
49 -1115 -2601 0
49 -1115 -2602 0
49 -1116 -2597 0
49 -1116 -2598 0
49 -1116 -2599 0
49 -1116 -2600 0
49 -1116 -2601 0
49 -1116 -2602 0
49 -1117 -2598 0
49 -1117 -2599 0
49 -1117 -2600 0
49 -1117 -2601 0
49 -1117 -2602 0
49 -1118 -2599 0
49 -1118 -2600 0
49 -1118 -2601 0
49 -1118 -2602 0
49 -1119 -2600 0
49 -1119 -2601 0
49 -1119 -2602 0
49 -1120 -2601 0
49 -1120 -2602 0
49 -1121 -2602 0
49 -1131 1132 0
49 -1133 1134 0
49 -1135 1143 0
49 -1136 1144 0
49 -1137 1145 0
49 -1138 1146 0
49 -1139 1147 0
49 -1140 1148 0
49 -1141 1149 0
49 -1142 1150 0
49 -1135 -2828 0
49 -1136 -2829 0
49 -1137 -2830 0
49 -1138 -2831 0
49 -1139 -2832 0
49 -1140 -2833 0
49 -1141 -2834 0
49 -1135 -2836 0
49 -1135 -2837 0
49 -1135 -2838 0
49 -1135 -2839 0
49 -1135 -2840 0
49 -1135 -2841 0
49 -1135 -2842 0
49 -1136 -2837 0
49 -1136 -2838 0
49 -1136 -2839 0
49 -1136 -2840 0
49 -1136 -2841 0
49 -1136 -2842 0
49 -1137 -2838 0
49 -1137 -2839 0
49 -1137 -2840 0
49 -1137 -2841 0
49 -1137 -2842 0
49 -1138 -2839 0
49 -1138 -2840 0
49 -1138 -2841 0
49 -1138 -2842 0
49 -1139 -2840 0
49 -1139 -2841 0
49 -1139 -2842 0
49 -1140 -2841 0
49 -1140 -2842 0
49 -1141 -2842 0
49 -1143 -1829 0
49 -1143 -1830 0
49 -1143 -1831 0
49 -1143 -1832 0
49 -1143 -1833 0
49 -1144 -1830 0
49 -1144 -1831 0
49 -1144 -1832 0
49 -1144 -1833 0
49 -1144 -1834 0
49 -1145 -1831 0
49 -1145 -1832 0
49 -1145 -1833 0
49 -1145 -1834 0
49 -1145 -1835 0
49 -1146 -1832 0
49 -1146 -1833 0
49 -1146 -1834 0
49 -1146 -1835 0
49 -1146 -1836 0
49 -1147 -1833 0
49 -1147 -1834 0
49 -1147 -1835 0
49 -1147 -1836 0
49 -1147 -1837 0
49 -1148 -1834 0
49 -1148 -1835 0
49 -1148 -1836 0
49 -1148 -1837 0
49 -1148 -1838 0
49 -1149 -1835 0
49 -1149 -1836 0
49 -1149 -1837 0
49 -1149 -1838 0
49 -1150 -1836 0
49 -1150 -1837 0
49 -1150 -1838 0
49 -1151 1155 0
49 -1152 1156 0
49 -1153 1157 0
49 -1154 1158 0
49 -1151 -1218 0
49 -1151 -1219 0
49 -1151 -1220 0
49 -1151 -1221 0
49 -1151 -1222 0
49 -1151 -1223 0
49 -1152 -1341 0
49 -1152 -1342 0
49 -1152 -1343 0
49 -1152 -1344 0
49 -1152 -1345 0
49 -1153 -1341 0
49 -1153 -1342 0
49 -1153 -1343 0
49 -1153 -1344 0
49 -1153 -1345 0
49 -1153 -1346 0
49 -1154 -1341 0
49 -1154 -1342 0
49 -1154 -1343 0
49 -1154 -1344 0
49 -1154 -1345 0
49 -1154 -1346 0
49 -1154 -1347 0
49 -1151 -1771 0
49 -1152 -1772 0
49 -1156 -1341 0
49 -1156 -1342 0
49 -1156 -1343 0
49 -1156 -1344 0
49 -1157 -1341 0
49 -1157 -1342 0
49 -1157 -1343 0
49 -1157 -1344 0
49 -1157 -1345 0
49 -1158 -1341 0
49 -1158 -1342 0
49 -1158 -1343 0
49 -1158 -1344 0
49 -1158 -1345 0
49 -1158 -1346 0
49 -1159 1184 0
49 -1160 1185 0
49 -1161 1186 0
49 -1162 1173 0
49 -1163 1174 0
49 -1164 1175 0
49 -1165 1176 0
49 -1166 1177 0
49 -1167 1178 0
49 -1168 1179 0
49 -1169 1180 0
49 -1170 1181 0
49 -1171 1182 0
49 -1172 1183 0
49 -1159 -1395 0
49 -1160 -1395 0
49 -1172 -2811 0
49 -1187 1190 0
49 -1188 1191 0
49 -1189 1192 0
49 -1190 -2567 0
49 -1191 -2567 0
49 -1191 -2568 0
49 -1191 -2569 0
49 -1192 -2568 0
49 -1192 -2569 0
49 -1192 -2570 0
49 -1192 -2571 0
49 -1192 -2572 0
49 -1192 -2573 0
49 -1192 -2574 0
49 -1193 1194 0
49 -1195 1201 0
49 -1196 1202 0
49 -1197 1203 0
49 -1198 1204 0
49 -1199 1205 0
49 -1200 1206 0
49 -1201 -2783 0
49 -1202 -2783 0
49 -1203 -2783 0
49 -1204 -2783 0
49 -1205 -2783 0
49 -1201 -2784 0
49 -1201 -2785 0
49 -1202 -2784 0
49 -1202 -2785 0
49 -1203 -2785 0
49 -1207 1208 0
49 -1209 1210 0
49 -1211 1224 0
49 -1212 1218 0
49 -1213 1219 0
49 -1214 1220 0
49 -1215 1221 0
49 -1216 1222 0
49 -1217 1223 0
49 -1212 -2118 0
49 -1213 -2118 0
49 -1214 -2118 0
49 -1214 -2119 0
49 -1215 -2118 0
49 -1215 -2119 0
49 -1215 -2120 0
49 -1216 -2118 0
49 -1216 -2119 0
49 -1216 -2120 0
49 -1217 -2118 0
49 -1217 -2119 0
49 -1217 -2120 0
49 -1225 1226 0
49 -1227 1229 0
49 -1228 1230 0
49 -1228 -1268 0
49 -1230 -1262 0
49 -1230 -1263 0
49 -1230 -1264 0
49 -1230 -1265 0
49 -1230 -1266 0
49 -1230 -1473 0
49 -1230 -1474 0
49 -1230 -1475 0
49 -1230 -1476 0
49 -1230 -1477 0
49 -1231 1232 0
49 -1233 1234 0
49 -1235 1242 0
49 -1236 1243 0
49 -1237 1244 0
49 -1238 1245 0
49 -1239 1246 0
49 -1240 1247 0
49 -1241 1248 0
49 -1243 -1443 0
49 -1244 -1443 0
49 -1245 -1443 0
49 -1245 -1444 0
49 -1246 -1443 0
49 -1246 -1444 0
49 -1246 -1445 0
49 -1247 -1443 0
49 -1247 -1444 0
49 -1247 -1445 0
49 -1247 -1446 0
49 -1248 -1443 0
49 -1248 -1444 0
49 -1248 -1445 0
49 -1248 -1446 0
49 -1248 -1447 0
49 -1249 1253 0
49 -1250 1254 0
49 -1251 1255 0
49 -1252 1256 0
49 -1257 1258 0
49 -1259 1260 0
49 -1261 1268 0
49 -1262 1269 0
49 -1263 1270 0
49 -1264 1271 0
49 -1265 1272 0
49 -1266 1273 0
49 -1267 1274 0
49 -1275 1283 0
49 -1276 1284 0
49 -1277 1285 0
49 -1278 1286 0
49 -1279 1287 0
49 -1280 1288 0
49 -1281 1289 0
49 -1282 1290 0
49 -1275 -2028 0
49 -1275 -2029 0
49 -1275 -2030 0
49 -1276 -2029 0
49 -1276 -2030 0
49 -1276 -2031 0
49 -1277 -2030 0
49 -1277 -2031 0
49 -1277 -2032 0
49 -1278 -2031 0
49 -1278 -2032 0
49 -1278 -2033 0
49 -1279 -2032 0
49 -1279 -2033 0
49 -1279 -2034 0
49 -1280 -2033 0
49 -1280 -2034 0
49 -1281 -2034 0
49 -1275 -2036 0
49 -1275 -2037 0
49 -1275 -2038 0
49 -1275 -2039 0
49 -1275 -2040 0
49 -1275 -2041 0
49 -1275 -2042 0
49 -1276 -2037 0
49 -1276 -2038 0
49 -1276 -2039 0
49 -1276 -2040 0
49 -1276 -2041 0
49 -1276 -2042 0
49 -1277 -2038 0
49 -1277 -2039 0
49 -1277 -2040 0
49 -1277 -2041 0
49 -1277 -2042 0
49 -1278 -2039 0
49 -1278 -2040 0
49 -1278 -2041 0
49 -1278 -2042 0
49 -1279 -2040 0
49 -1279 -2041 0
49 -1279 -2042 0
49 -1280 -2041 0
49 -1280 -2042 0
49 -1281 -2042 0
49 -1276 -2415 0
49 -1277 -2416 0
49 -1278 -2417 0
49 -1279 -2418 0
49 -1280 -2419 0
49 -1281 -2420 0
49 -1282 -2421 0
49 -1275 -2424 0
49 -1275 -2425 0
49 -1275 -2426 0
49 -1275 -2427 0
49 -1275 -2428 0
49 -1275 -2429 0
49 -1275 -2430 0
49 -1276 -2425 0
49 -1276 -2426 0
49 -1276 -2427 0
49 -1276 -2428 0
49 -1276 -2429 0
49 -1276 -2430 0
49 -1277 -2426 0
49 -1277 -2427 0
49 -1277 -2428 0
49 -1277 -2429 0
49 -1277 -2430 0
49 -1278 -2427 0
49 -1278 -2428 0
49 -1278 -2429 0
49 -1278 -2430 0
49 -1279 -2428 0
49 -1279 -2429 0
49 -1279 -2430 0
49 -1280 -2429 0
49 -1280 -2430 0
49 -1281 -2430 0
49 -1284 -2027 0
49 -1285 -2027 0
49 -1285 -2028 0
49 -1286 -2027 0
49 -1286 -2028 0
49 -1286 -2029 0
49 -1287 -2027 0
49 -1287 -2028 0
49 -1287 -2029 0
49 -1287 -2030 0
49 -1288 -2027 0
49 -1288 -2028 0
49 -1288 -2029 0
49 -1288 -2030 0
49 -1288 -2031 0
49 -1289 -2027 0
49 -1289 -2028 0
49 -1289 -2029 0
49 -1289 -2030 0
49 -1289 -2031 0
49 -1289 -2032 0
49 -1290 -2027 0
49 -1290 -2028 0
49 -1290 -2029 0
49 -1290 -2030 0
49 -1290 -2031 0
49 -1290 -2032 0
49 -1290 -2033 0
49 -1283 -2036 0
49 -1283 -2037 0
49 -1283 -2038 0
49 -1284 -2037 0
49 -1284 -2038 0
49 -1284 -2039 0
49 -1285 -2038 0
49 -1285 -2039 0
49 -1285 -2040 0
49 -1286 -2039 0
49 -1286 -2040 0
49 -1286 -2041 0
49 -1287 -2040 0
49 -1287 -2041 0
49 -1287 -2042 0
49 -1288 -2041 0
49 -1288 -2042 0
49 -1289 -2042 0
49 -1284 -2415 0
49 -1285 -2415 0
49 -1285 -2416 0
49 -1286 -2415 0
49 -1286 -2416 0
49 -1286 -2417 0
49 -1287 -2415 0
49 -1287 -2416 0
49 -1287 -2417 0
49 -1287 -2418 0
49 -1288 -2415 0
49 -1288 -2416 0
49 -1288 -2417 0
49 -1288 -2418 0
49 -1288 -2419 0
49 -1289 -2415 0
49 -1289 -2416 0
49 -1289 -2417 0
49 -1289 -2418 0
49 -1289 -2419 0
49 -1289 -2420 0
49 -1290 -2415 0
49 -1290 -2416 0
49 -1290 -2417 0
49 -1290 -2418 0
49 -1290 -2419 0
49 -1290 -2420 0
49 -1290 -2421 0
49 -1284 -2423 0
49 -1285 -2424 0
49 -1286 -2425 0
49 -1287 -2426 0
49 -1288 -2427 0
49 -1289 -2428 0
49 -1290 -2429 0
49 -1291 1297 0
49 -1292 1298 0
49 -1293 1299 0
49 -1294 1300 0
49 -1295 1301 0
49 -1296 1302 0
49 -1292 -1710 0
49 -1292 -1711 0
49 -1292 -1712 0
49 -1292 -1713 0
49 -1292 -1714 0
49 -1292 -1715 0
49 -1292 -1716 0
49 -1293 -1711 0
49 -1293 -1712 0
49 -1293 -1713 0
49 -1293 -1714 0
49 -1293 -1715 0
49 -1293 -1716 0
49 -1294 -1712 0
49 -1294 -1713 0
49 -1294 -1714 0
49 -1294 -1715 0
49 -1294 -1716 0
49 -1295 -1713 0
49 -1295 -1714 0
49 -1295 -1715 0
49 -1295 -1716 0
49 -1296 -1714 0
49 -1296 -1715 0
49 -1296 -1716 0
49 -1303 1304 0
49 -1305 1309 0
49 -1306 1310 0
49 -1307 1311 0
49 -1308 1312 0
49 -1306 -1323 0
49 -1307 -1324 0
49 -1308 -1325 0
49 -1305 -1328 0
49 -1305 -1329 0
49 -1305 -1330 0
49 -1305 -1331 0
49 -1305 -1332 0
49 -1306 -1331 0
49 -1306 -1332 0
49 -1307 -1332 0
49 -1310 -1321 0
49 -1310 -1322 0
49 -1310 -1323 0
49 -1311 -1321 0
49 -1311 -1322 0
49 -1311 -1323 0
49 -1311 -1324 0
49 -1312 -1321 0
49 -1312 -1322 0
49 -1312 -1323 0
49 -1312 -1324 0
49 -1312 -1325 0
49 -1310 -1329 0
49 -1311 -1330 0
49 -1312 -1331 0
49 -1313 1314 0
49 -1315 1316 0
49 -1317 1318 0
49 -1319 1320 0
49 -1321 1327 0
49 -1322 1328 0
49 -1323 1329 0
49 -1324 1330 0
49 -1325 1331 0
49 -1326 1332 0
49 -1333 1334 0
49 -1335 1336 0
49 -1337 1338 0
49 -1339 1340 0
49 -1341 1349 0
49 -1342 1350 0
49 -1343 1351 0
49 -1344 1352 0
49 -1345 1353 0
49 -1346 1354 0
49 -1347 1355 0
49 -1348 1356 0
49 -1341 -1616 0
49 -1341 -1617 0
49 -1341 -1618 0
49 -1341 -1619 0
49 -1341 -1620 0
49 -1342 -1617 0
49 -1342 -1618 0
49 -1342 -1619 0
49 -1342 -1620 0
49 -1342 -1621 0
49 -1343 -1618 0
49 -1343 -1619 0
49 -1343 -1620 0
49 -1343 -1621 0
49 -1343 -1622 0
49 -1344 -1619 0
49 -1344 -1620 0
49 -1344 -1621 0
49 -1344 -1622 0
49 -1345 -1620 0
49 -1345 -1621 0
49 -1345 -1622 0
49 -1346 -1621 0
49 -1346 -1622 0
49 -1347 -1622 0
49 -1341 -1758 0
49 -1341 -1759 0
49 -1341 -1760 0
49 -1341 -1761 0
49 -1341 -1762 0
49 -1341 -1763 0
49 -1341 -1764 0
49 -1342 -1759 0
49 -1342 -1760 0
49 -1342 -1761 0
49 -1342 -1762 0
49 -1342 -1763 0
49 -1342 -1764 0
49 -1343 -1760 0
49 -1343 -1761 0
49 -1343 -1762 0
49 -1343 -1763 0
49 -1343 -1764 0
49 -1344 -1761 0
49 -1344 -1762 0
49 -1344 -1763 0
49 -1344 -1764 0
49 -1345 -1762 0
49 -1345 -1763 0
49 -1345 -1764 0
49 -1346 -1763 0
49 -1346 -1764 0
49 -1347 -1764 0
49 -1357 1358 0
49 -1359 1360 0
49 -1361 1362 0
49 -1363 1364 0
49 -1365 1368 0
49 -1366 1369 0
49 -1367 1370 0
49 -1366 -2142 0
49 -1366 -2143 0
49 -1366 -2144 0
49 -1366 -2145 0
49 -1366 -2146 0
49 -1366 -2147 0
49 -1366 -2148 0
49 -1367 -2143 0
49 -1367 -2144 0
49 -1367 -2145 0
49 -1367 -2146 0
49 -1367 -2147 0
49 -1367 -2148 0
49 -1369 -2637 0
49 -1369 -2638 0
49 -1369 -2639 0
49 -1369 -2640 0
49 -1369 -2641 0
49 -1369 -2642 0
49 -1370 -2638 0
49 -1370 -2639 0
49 -1370 -2640 0
49 -1370 -2641 0
49 -1370 -2642 0
49 -1369 -2703 0
49 -1369 -2704 0
49 -1370 -2704 0
49 -1371 1382 0
49 -1372 1392 0
49 -1373 1383 0
49 -1374 1384 0
49 -1375 1385 0
49 -1376 1386 0
49 -1377 1387 0
49 -1378 1388 0
49 -1379 1389 0
49 -1380 1390 0
49 -1381 1391 0
49 -1371 -1459 0
49 -1371 -1460 0
49 -1371 -1461 0
49 -1393 1394 0
49 -1395 1409 0
49 -1396 1421 0
49 -1397 1422 0
49 -1398 1410 0
49 -1399 1411 0
49 -1400 1412 0
49 -1401 1413 0
49 -1402 1414 0
49 -1403 1415 0
49 -1404 1416 0
49 -1405 1417 0
49 -1406 1418 0
49 -1407 1419 0
49 -1408 1420 0
49 -1423 1424 0
49 -1425 1426 0
49 -1427 1428 0
49 -1429 1434 0
49 -1430 1435 0
49 -1431 1436 0
49 -1432 1437 0
49 -1433 1438 0
49 -1439 1440 0
49 -1441 1442 0
49 -1443 1449 0
49 -1444 1450 0
49 -1445 1451 0
49 -1446 1452 0
49 -1447 1453 0
49 -1448 1454 0
49 -1455 1462 0
49 -1456 1463 0
49 -1457 1464 0
49 -1458 1465 0
49 -1459 1466 0
49 -1460 1467 0
49 -1461 1468 0
49 -1462 -2434 0
49 -1462 -2435 0
49 -1462 -2436 0
49 -1463 -2435 0
49 -1463 -2436 0
49 -1464 -2436 0
49 -1462 -2438 0
49 -1462 -2439 0
49 -1462 -2440 0
49 -1463 -2439 0
49 -1463 -2440 0
49 -1464 -2440 0
49 -1469 1470 0
49 -1471 1472 0
49 -1473 1481 0
49 -1474 1482 0
49 -1475 1483 0
49 -1476 1484 0
49 -1477 1485 0
49 -1478 1486 0
49 -1479 1487 0
49 -1480 1488 0
49 -1473 -1738 0
49 -1473 -1739 0
49 -1473 -1740 0
49 -1473 -1741 0
49 -1473 -1742 0
49 -1473 -1743 0
49 -1473 -1744 0
49 -1474 -1739 0
49 -1474 -1740 0
49 -1474 -1741 0
49 -1474 -1742 0
49 -1474 -1743 0
49 -1474 -1744 0
49 -1475 -1740 0
49 -1475 -1741 0
49 -1475 -1742 0
49 -1475 -1743 0
49 -1475 -1744 0
49 -1476 -1741 0
49 -1476 -1742 0
49 -1476 -1743 0
49 -1476 -1744 0
49 -1477 -1742 0
49 -1477 -1743 0
49 -1477 -1744 0
49 -1478 -1743 0
49 -1478 -1744 0
49 -1479 -1744 0
49 -1481 -1738 0
49 -1481 -1739 0
49 -1481 -1740 0
49 -1482 -1739 0
49 -1482 -1740 0
49 -1482 -1741 0
49 -1483 -1740 0
49 -1483 -1741 0
49 -1483 -1742 0
49 -1484 -1741 0
49 -1484 -1742 0
49 -1484 -1743 0
49 -1485 -1742 0
49 -1485 -1743 0
49 -1485 -1744 0
49 -1486 -1743 0
49 -1486 -1744 0
49 -1487 -1744 0
49 -1489 1497 0
49 -1490 1498 0
49 -1491 1499 0
49 -1492 1500 0
49 -1493 1501 0
49 -1494 1502 0
49 -1495 1503 0
49 -1496 1504 0
49 -1505 1506 0
49 -1507 1517 0
49 -1508 1518 0
49 -1509 1519 0
49 -1510 1520 0
49 -1511 1521 0
49 -1512 1522 0
49 -1513 1523 0
49 -1514 1524 0
49 -1515 1525 0
49 -1516 1526 0
49 -1527 1548 0
49 -1528 1549 0
49 -1529 1550 0
49 -1530 1551 0
49 -1531 1552 0
49 -1532 1553 0
49 -1533 1547 0
49 -1534 1558 0
49 -1535 1559 0
49 -1536 1560 0
49 -1537 1561 0
49 -1538 1562 0
49 -1539 1563 0
49 -1540 1564 0
49 -1541 1565 0
49 -1542 1566 0
49 -1543 1554 0
49 -1544 1555 0
49 -1545 1556 0
49 -1546 1557 0
49 -1533 -1806 0
49 -1534 -1806 0
49 -1535 -1806 0
49 -1536 -1806 0
49 -1537 -1806 0
49 -1538 -1806 0
49 -1539 -1806 0
49 -1540 -1806 0
49 -1567 1575 0
49 -1568 1576 0
49 -1569 1577 0
49 -1570 1578 0
49 -1571 1579 0
49 -1572 1580 0
49 -1573 1581 0
49 -1574 1582 0
49 -1576 -1700 0
49 -1577 -1700 0
49 -1578 -1700 0
49 -1579 -1700 0
49 -1580 -1700 0
49 -1581 -1700 0
49 -1582 -1700 0
49 -1579 -1973 0
49 -1580 -1974 0
49 -1583 1591 0
49 -1584 1592 0
49 -1585 1593 0
49 -1586 1594 0
49 -1587 1595 0
49 -1588 1596 0
49 -1589 1597 0
49 -1590 1598 0
49 -1592 -2859 0
49 -1593 -2859 0
49 -1593 -2860 0
49 -1594 -2859 0
49 -1594 -2860 0
49 -1594 -2861 0
49 -1595 -2859 0
49 -1595 -2860 0
49 -1595 -2861 0
49 -1595 -2862 0
49 -1596 -2859 0
49 -1596 -2860 0
49 -1596 -2861 0
49 -1596 -2862 0
49 -1596 -2863 0
49 -1597 -2859 0
49 -1597 -2860 0
49 -1597 -2861 0
49 -1597 -2862 0
49 -1597 -2863 0
49 -1597 -2864 0
49 -1598 -2859 0
49 -1598 -2860 0
49 -1598 -2861 0
49 -1598 -2862 0
49 -1598 -2863 0
49 -1598 -2864 0
49 -1598 -2865 0
49 -1592 -2867 0
49 -1593 -2868 0
49 -1594 -2869 0
49 -1595 -2870 0
49 -1596 -2871 0
49 -1597 -2872 0
49 -1598 -2873 0
49 -1599 1600 0
49 -1601 1607 0
49 -1602 1608 0
49 -1603 1609 0
49 -1604 1610 0
49 -1605 1611 0
49 -1606 1612 0
49 -1608 -2087 0
49 -1608 -2088 0
49 -1608 -2089 0
49 -1609 -2087 0
49 -1609 -2088 0
49 -1609 -2089 0
49 -1609 -2090 0
49 -1610 -2087 0
49 -1610 -2088 0
49 -1610 -2089 0
49 -1610 -2090 0
49 -1610 -2091 0
49 -1611 -2087 0
49 -1611 -2088 0
49 -1611 -2089 0
49 -1611 -2090 0
49 -1611 -2091 0
49 -1611 -2092 0
49 -1612 -2087 0
49 -1612 -2088 0
49 -1612 -2089 0
49 -1612 -2090 0
49 -1612 -2091 0
49 -1612 -2092 0
49 -1612 -2093 0
49 -1607 -2096 0
49 -1607 -2097 0
49 -1607 -2098 0
49 -1607 -2099 0
49 -1607 -2100 0
49 -1608 -2099 0
49 -1608 -2100 0
49 -1608 -2101 0
49 -1608 -2102 0
49 -1609 -2100 0
49 -1609 -2101 0
49 -1609 -2102 0
49 -1610 -2101 0
49 -1610 -2102 0
49 -1611 -2102 0
49 -1613 1614 0
49 -1615 1623 0
49 -1616 1624 0
49 -1617 1625 0
49 -1618 1626 0
49 -1619 1627 0
49 -1620 1628 0
49 -1621 1629 0
49 -1622 1630 0
49 -1624 -1749 0
49 -1625 -1749 0
49 -1625 -1750 0
49 -1626 -1749 0
49 -1626 -1750 0
49 -1626 -1751 0
49 -1627 -1749 0
49 -1627 -1750 0
49 -1627 -1751 0
49 -1627 -1752 0
49 -1628 -1749 0
49 -1628 -1750 0
49 -1628 -1751 0
49 -1628 -1752 0
49 -1628 -1753 0
49 -1629 -1749 0
49 -1629 -1750 0
49 -1629 -1751 0
49 -1629 -1752 0
49 -1629 -1753 0
49 -1629 -1754 0
49 -1630 -1749 0
49 -1630 -1750 0
49 -1630 -1751 0
49 -1630 -1752 0
49 -1630 -1753 0
49 -1630 -1754 0
49 -1630 -1755 0
49 -1624 -1757 0
49 -1625 -1758 0
49 -1626 -1759 0
49 -1627 -1760 0
49 -1628 -1761 0
49 -1629 -1762 0
49 -1630 -1763 0
49 -1631 1632 0
49 -1633 1634 0
49 -1635 1636 0
49 -1637 1638 0
49 -1639 1640 0
49 -1641 1647 0
49 -1642 1648 0
49 -1643 1649 0
49 -1644 1650 0
49 -1645 1651 0
49 -1646 1652 0
49 -1647 -1997 0
49 -1647 -1998 0
49 -1647 -1999 0
49 -1648 -1997 0
49 -1648 -1998 0
49 -1648 -1999 0
49 -1650 -2000 0
49 -1650 -2001 0
49 -1650 -2002 0
49 -1650 -2003 0
49 -1650 -2004 0
49 -1651 -2000 0
49 -1651 -2001 0
49 -1651 -2002 0
49 -1651 -2003 0
49 -1651 -2004 0
49 -1651 -2005 0
49 -1652 -2000 0
49 -1652 -2001 0
49 -1652 -2002 0
49 -1652 -2003 0
49 -1652 -2004 0
49 -1652 -2005 0
49 -1652 -2006 0
49 -1647 -2011 0
49 -1647 -2012 0
49 -1647 -2013 0
49 -1648 -2011 0
49 -1648 -2012 0
49 -1648 -2013 0
49 -1650 -2014 0
49 -1650 -2015 0
49 -1650 -2016 0
49 -1650 -2017 0
49 -1650 -2018 0
49 -1651 -2014 0
49 -1651 -2015 0
49 -1651 -2016 0
49 -1651 -2017 0
49 -1651 -2018 0
49 -1651 -2019 0
49 -1652 -2014 0
49 -1652 -2015 0
49 -1652 -2016 0
49 -1652 -2017 0
49 -1652 -2018 0
49 -1652 -2019 0
49 -1652 -2020 0
49 -1650 -2727 0
49 -1650 -2728 0
49 -1650 -2729 0
49 -1650 -2730 0
49 -1651 -2727 0
49 -1651 -2728 0
49 -1651 -2729 0
49 -1651 -2730 0
49 -1651 -2731 0
49 -1652 -2727 0
49 -1652 -2728 0
49 -1652 -2729 0
49 -1652 -2730 0
49 -1652 -2731 0
49 -1652 -2732 0
49 -1650 -2735 0
49 -1650 -2736 0
49 -1650 -2737 0
49 -1650 -2738 0
49 -1650 -2739 0
49 -1651 -2735 0
49 -1651 -2736 0
49 -1651 -2737 0
49 -1651 -2738 0
49 -1651 -2739 0
49 -1651 -2740 0
49 -1652 -2735 0
49 -1652 -2736 0
49 -1652 -2737 0
49 -1652 -2738 0
49 -1652 -2739 0
49 -1652 -2740 0
49 -1652 -2741 0
49 -1653 1654 0
49 -1655 1663 0
49 -1656 1664 0
49 -1657 1665 0
49 -1658 1666 0
49 -1659 1667 0
49 -1660 1668 0
49 -1661 1669 0
49 -1662 1670 0
49 -1671 1672 0
49 -1673 1675 0
49 -1674 1676 0
49 -1674 -2184 0
49 -1673 -2187 0
49 -1673 -2188 0
49 -1674 -2399 0
49 -1674 -2400 0
49 -1674 -2401 0
49 -1673 -2404 0
49 -1673 -2405 0
49 -1673 -2406 0
49 -1673 -2407 0
49 -1673 -2408 0
49 -1676 -2183 0
49 -1676 -2184 0
49 -1676 -2187 0
49 -1676 -2397 0
49 -1676 -2398 0
49 -1676 -2399 0
49 -1676 -2400 0
49 -1676 -2401 0
49 -1676 -2405 0
49 -1676 -2406 0
49 -1676 -2407 0
49 -1677 1685 0
49 -1678 1686 0
49 -1679 1687 0
49 -1680 1688 0
49 -1681 1689 0
49 -1682 1690 0
49 -1683 1691 0
49 -1684 1692 0
49 -1693 1694 0
49 -1695 1696 0
49 -1697 1699 0
49 -1698 1700 0
49 -1701 1709 0
49 -1702 1710 0
49 -1703 1711 0
49 -1704 1712 0
49 -1705 1713 0
49 -1706 1714 0
49 -1707 1715 0
49 -1708 1716 0
49 -1717 1718 0
49 -1719 1720 0
49 -1721 1722 0
49 -1723 1724 0
49 -1725 1726 0
49 -1727 1728 0
49 -1729 1737 0
49 -1730 1738 0
49 -1731 1739 0
49 -1732 1740 0
49 -1733 1741 0
49 -1734 1742 0
49 -1735 1743 0
49 -1736 1744 0
49 -1745 1746 0
49 -1747 1748 0
49 -1749 1757 0
49 -1750 1758 0
49 -1751 1759 0
49 -1752 1760 0
49 -1753 1761 0
49 -1754 1762 0
49 -1755 1763 0
49 -1756 1764 0
49 -1758 -2489 0
49 -1759 -2489 0
49 -1759 -2490 0
49 -1760 -2489 0
49 -1760 -2490 0
49 -1760 -2491 0
49 -1761 -2489 0
49 -1761 -2490 0
49 -1761 -2491 0
49 -1761 -2492 0
49 -1762 -2489 0
49 -1762 -2490 0
49 -1762 -2491 0
49 -1762 -2492 0
49 -1762 -2493 0
49 -1763 -2489 0
49 -1763 -2490 0
49 -1763 -2491 0
49 -1763 -2492 0
49 -1763 -2493 0
49 -1763 -2494 0
49 -1764 -2489 0
49 -1764 -2490 0
49 -1764 -2491 0
49 -1764 -2492 0
49 -1764 -2493 0
49 -1764 -2494 0
49 -1764 -2495 0
49 -1757 -2501 0
49 -1758 -2502 0
49 -1759 -2503 0
49 -1760 -2504 0
49 -1761 -2505 0
49 -1762 -2506 0
49 -1763 -2507 0
49 -1764 -2508 0
49 -1765 1766 0
49 -1767 1768 0
49 -1769 1771 0
49 -1770 1772 0
49 -1773 1774 0
49 -1775 1776 0
49 -1777 1788 0
49 -1778 1789 0
49 -1779 1790 0
49 -1780 1791 0
49 -1781 1792 0
49 -1782 1786 0
49 -1783 1787 0
49 -1784 1794 0
49 -1785 1793 0
49 -1777 -2304 0
49 -1777 -2305 0
49 -1778 -2304 0
49 -1778 -2305 0
49 -1778 -2306 0
49 -1779 -2304 0
49 -1779 -2305 0
49 -1779 -2306 0
49 -1779 -2307 0
49 -1779 -2308 0
49 -1779 -2309 0
49 -1779 -2310 0
49 -1780 -2304 0
49 -1780 -2305 0
49 -1780 -2306 0
49 -1780 -2307 0
49 -1780 -2308 0
49 -1780 -2309 0
49 -1780 -2310 0
49 -1780 -2311 0
49 -1781 -2304 0
49 -1781 -2305 0
49 -1781 -2306 0
49 -1781 -2307 0
49 -1781 -2308 0
49 -1781 -2309 0
49 -1781 -2310 0
49 -1781 -2311 0
49 -1782 -2304 0
49 -1782 -2305 0
49 -1782 -2306 0
49 -1782 -2307 0
49 -1782 -2308 0
49 -1782 -2309 0
49 -1782 -2310 0
49 -1782 -2311 0
49 -1783 -2304 0
49 -1783 -2305 0
49 -1783 -2306 0
49 -1783 -2307 0
49 -1783 -2308 0
49 -1783 -2309 0
49 -1783 -2310 0
49 -1783 -2311 0
49 -1784 -2305 0
49 -1784 -2306 0
49 -1784 -2307 0
49 -1784 -2308 0
49 -1784 -2309 0
49 -1784 -2310 0
49 -1784 -2311 0
49 -1784 -2312 0
49 -1785 -2312 0
49 -1786 -1997 0
49 -1786 -1998 0
49 -1786 -1999 0
49 -1787 -1997 0
49 -1787 -1998 0
49 -1787 -1999 0
49 -1788 -1997 0
49 -1788 -1998 0
49 -1788 -1999 0
49 -1789 -1997 0
49 -1789 -1998 0
49 -1789 -1999 0
49 -1790 -1999 0
49 -1791 -2000 0
49 -1791 -2001 0
49 -1792 -2000 0
49 -1792 -2001 0
49 -1792 -2002 0
49 -1793 -2000 0
49 -1793 -2001 0
49 -1793 -2002 0
49 -1793 -2003 0
49 -1793 -2004 0
49 -1793 -2005 0
49 -1794 -2000 0
49 -1794 -2001 0
49 -1794 -2002 0
49 -1794 -2003 0
49 -1794 -2004 0
49 -1794 -2005 0
49 -1794 -2006 0
49 -1794 -2007 0
49 -1794 -2008 0
49 -1794 -2009 0
49 -1794 -2010 0
49 -1791 -2385 0
49 -1791 -2386 0
49 -1792 -2385 0
49 -1792 -2386 0
49 -1792 -2387 0
49 -1793 -2385 0
49 -1793 -2386 0
49 -1793 -2387 0
49 -1793 -2388 0
49 -1793 -2389 0
49 -1793 -2390 0
49 -1793 -2391 0
49 -1795 1800 0
49 -1796 1801 0
49 -1797 1802 0
49 -1798 1803 0
49 -1799 1804 0
49 -1805 1808 0
49 -1806 1807 0
49 -1809 1810 0
49 -1811 1812 0
49 -1813 1814 0
49 -1815 1816 0
49 -1817 1828 0
49 -1818 1829 0
49 -1819 1830 0
49 -1820 1831 0
49 -1821 1832 0
49 -1822 1833 0
49 -1823 1834 0
49 -1824 1835 0
49 -1825 1836 0
49 -1826 1837 0
49 -1827 1838 0
49 -1828 -2119 0
49 -1828 -2120 0
49 -1829 -2119 0
49 -1829 -2120 0
49 -1829 -2121 0
49 -1830 -2119 0
49 -1830 -2120 0
49 -1830 -2121 0
49 -1830 -2122 0
49 -1831 -2119 0
49 -1831 -2120 0
49 -1831 -2121 0
49 -1831 -2122 0
49 -1831 -2123 0
49 -1832 -2119 0
49 -1832 -2120 0
49 -1832 -2121 0
49 -1832 -2122 0
49 -1832 -2123 0
49 -1832 -2124 0
49 -1833 -2119 0
49 -1833 -2120 0
49 -1833 -2121 0
49 -1833 -2122 0
49 -1833 -2123 0
49 -1833 -2124 0
49 -1834 -2119 0
49 -1834 -2120 0
49 -1834 -2121 0
49 -1834 -2122 0
49 -1834 -2123 0
49 -1834 -2124 0
49 -1835 -2119 0
49 -1835 -2120 0
49 -1835 -2121 0
49 -1835 -2122 0
49 -1835 -2123 0
49 -1835 -2124 0
49 -1836 -2119 0
49 -1836 -2120 0
49 -1836 -2121 0
49 -1836 -2122 0
49 -1836 -2123 0
49 -1836 -2124 0
49 -1837 -2120 0
49 -1837 -2121 0
49 -1837 -2122 0
49 -1837 -2123 0
49 -1837 -2124 0
49 -1838 -2121 0
49 -1838 -2122 0
49 -1838 -2123 0
49 -1838 -2124 0
49 -1839 1840 0
49 -1841 1842 0
49 -1843 1844 0
49 -1845 1846 0
49 -1847 1848 0
49 -1849 1857 0
49 -1850 1858 0
49 -1851 1859 0
49 -1852 1860 0
49 -1853 1861 0
49 -1854 1862 0
49 -1855 1863 0
49 -1856 1864 0
49 -1858 -2237 0
49 -1859 -2237 0
49 -1859 -2238 0
49 -1860 -2237 0
49 -1860 -2238 0
49 -1860 -2239 0
49 -1861 -2237 0
49 -1861 -2238 0
49 -1861 -2239 0
49 -1861 -2240 0
49 -1862 -2237 0
49 -1862 -2238 0
49 -1862 -2239 0
49 -1862 -2240 0
49 -1862 -2241 0
49 -1863 -2237 0
49 -1863 -2238 0
49 -1863 -2239 0
49 -1863 -2240 0
49 -1863 -2241 0
49 -1863 -2242 0
49 -1864 -2237 0
49 -1864 -2238 0
49 -1864 -2239 0
49 -1864 -2240 0
49 -1864 -2241 0
49 -1864 -2242 0
49 -1864 -2243 0
49 -1857 -2246 0
49 -1857 -2247 0
49 -1857 -2248 0
49 -1857 -2249 0
49 -1857 -2250 0
49 -1858 -2247 0
49 -1858 -2248 0
49 -1858 -2249 0
49 -1858 -2250 0
49 -1858 -2251 0
49 -1859 -2248 0
49 -1859 -2249 0
49 -1859 -2250 0
49 -1859 -2251 0
49 -1859 -2252 0
49 -1860 -2249 0
49 -1860 -2250 0
49 -1860 -2251 0
49 -1860 -2252 0
49 -1861 -2250 0
49 -1861 -2251 0
49 -1861 -2252 0
49 -1862 -2251 0
49 -1862 -2252 0
49 -1863 -2252 0
49 -1858 -2859 0
49 -1859 -2859 0
49 -1859 -2860 0
49 -1860 -2859 0
49 -1860 -2860 0
49 -1860 -2861 0
49 -1861 -2859 0
49 -1861 -2860 0
49 -1861 -2861 0
49 -1861 -2862 0
49 -1862 -2859 0
49 -1862 -2860 0
49 -1862 -2861 0
49 -1862 -2862 0
49 -1862 -2863 0
49 -1863 -2859 0
49 -1863 -2860 0
49 -1863 -2861 0
49 -1863 -2862 0
49 -1863 -2863 0
49 -1863 -2864 0
49 -1864 -2859 0
49 -1864 -2860 0
49 -1864 -2861 0
49 -1864 -2862 0
49 -1864 -2863 0
49 -1864 -2864 0
49 -1864 -2865 0
49 -1857 -2868 0
49 -1857 -2869 0
49 -1857 -2870 0
49 -1858 -2869 0
49 -1858 -2870 0
49 -1858 -2871 0
49 -1859 -2870 0
49 -1859 -2871 0
49 -1859 -2872 0
49 -1860 -2871 0
49 -1860 -2872 0
49 -1860 -2873 0
49 -1861 -2872 0
49 -1861 -2873 0
49 -1861 -2874 0
49 -1862 -2873 0
49 -1862 -2874 0
49 -1863 -2874 0
49 -1865 1866 0
49 -1867 1870 0
49 -1868 1871 0
49 -1869 1872 0
49 -1868 -2797 0
49 -1868 -2798 0
49 -1868 -2799 0
49 -1868 -2800 0
49 -1869 -2798 0
49 -1869 -2799 0
49 -1869 -2800 0
49 -1867 -2802 0
49 -1867 -2803 0
49 -1867 -2804 0
49 -1867 -2805 0
49 -1867 -2806 0
49 -1867 -2807 0
49 -1867 -2808 0
49 -1871 -2805 0
49 -1871 -2806 0
49 -1871 -2807 0
49 -1871 -2808 0
49 -1872 -2806 0
49 -1872 -2807 0
49 -1872 -2808 0
49 -1873 1874 0
49 -1875 1876 0
49 -1877 1878 0
49 -1879 1880 0
49 -1881 1884 0
49 -1882 1885 0
49 -1883 1886 0
49 -1887 1888 0
49 -1889 1890 0
49 -1891 1892 0
49 -1893 1894 0
49 -1895 1896 0
49 -1897 1898 0
49 -1899 1900 0
49 -1901 1902 0
49 -1903 1904 0
49 -1905 1906 0
49 -1907 1908 0
49 -1909 1920 0
49 -1910 1921 0
49 -1911 1922 0
49 -1912 1923 0
49 -1913 1924 0
49 -1914 1925 0
49 -1915 1926 0
49 -1916 1927 0
49 -1917 1928 0
49 -1918 1929 0
49 -1919 1930 0
49 -1931 1932 0
49 -1933 1934 0
49 -1935 1936 0
49 -1937 1938 0
49 -1939 1940 0
49 -1941 1942 0
49 -1943 1948 0
49 -1944 1949 0
49 -1945 1950 0
49 -1946 1951 0
49 -1947 1952 0
49 -1943 -2518 0
49 -1943 -2519 0
49 -1943 -2520 0
49 -1944 -2522 0
49 -1944 -2523 0
49 -1944 -2524 0
49 -1945 -2523 0
49 -1945 -2524 0
49 -1946 -2524 0
49 -1943 -2526 0
49 -1943 -2527 0
49 -1943 -2528 0
49 -1943 -2529 0
49 -1943 -2530 0
49 -1943 -2531 0
49 -1943 -2532 0
49 -1944 -2530 0
49 -1944 -2531 0
49 -1944 -2532 0
49 -1945 -2531 0
49 -1945 -2532 0
49 -1946 -2532 0
49 -1949 -2517 0
49 -1949 -2518 0
49 -1949 -2519 0
49 -1949 -2520 0
49 -1950 -2517 0
49 -1950 -2518 0
49 -1950 -2519 0
49 -1950 -2520 0
49 -1950 -2521 0
49 -1951 -2517 0
49 -1951 -2518 0
49 -1951 -2519 0
49 -1951 -2520 0
49 -1951 -2521 0
49 -1951 -2522 0
49 -1952 -2517 0
49 -1952 -2518 0
49 -1952 -2519 0
49 -1952 -2520 0
49 -1952 -2521 0
49 -1952 -2522 0
49 -1952 -2523 0
49 -1948 -2526 0
49 -1948 -2527 0
49 -1948 -2528 0
49 -1949 -2530 0
49 -1949 -2531 0
49 -1949 -2532 0
49 -1950 -2531 0
49 -1950 -2532 0
49 -1951 -2532 0
49 -1953 1961 0
49 -1954 1962 0
49 -1955 1963 0
49 -1956 1964 0
49 -1957 1965 0
49 -1958 1966 0
49 -1959 1967 0
49 -1960 1968 0
49 -1969 1972 0
49 -1970 1973 0
49 -1971 1974 0
49 -1975 1976 0
49 -1977 1978 0
49 -1979 1987 0
49 -1980 1988 0
49 -1981 1989 0
49 -1982 1990 0
49 -1983 1991 0
49 -1984 1992 0
49 -1985 1993 0
49 -1986 1994 0
49 -1995 1996 0
49 -1997 2011 0
49 -1998 2012 0
49 -1999 2013 0
49 -2000 2014 0
49 -2001 2015 0
49 -2002 2016 0
49 -2003 2017 0
49 -2004 2018 0
49 -2005 2019 0
49 -2006 2020 0
49 -2007 2021 0
49 -2008 2022 0
49 -2009 2023 0
49 -2010 2024 0
49 -2001 -2377 0
49 -2002 -2377 0
49 -2002 -2378 0
49 -2003 -2377 0
49 -2003 -2378 0
49 -2003 -2379 0
49 -2004 -2378 0
49 -2004 -2379 0
49 -2004 -2380 0
49 -2005 -2379 0
49 -2005 -2380 0
49 -2005 -2381 0
49 -2006 -2380 0
49 -2006 -2381 0
49 -2006 -2382 0
49 -2007 -2381 0
49 -2007 -2382 0
49 -2007 -2383 0
49 -2008 -2382 0
49 -2008 -2383 0
49 -2008 -2384 0
49 -2009 -2383 0
49 -2009 -2384 0
49 -2010 -2384 0
49 -2011 -2203 0
49 -2011 -2204 0
49 -2012 -2203 0
49 -2012 -2204 0
49 -2012 -2205 0
49 -2013 -2204 0
49 -2013 -2205 0
49 -2013 -2206 0
49 -2015 -2385 0
49 -2016 -2385 0
49 -2016 -2386 0
49 -2017 -2385 0
49 -2017 -2386 0
49 -2017 -2387 0
49 -2018 -2386 0
49 -2018 -2387 0
49 -2018 -2388 0
49 -2019 -2387 0
49 -2019 -2388 0
49 -2019 -2389 0
49 -2020 -2388 0
49 -2020 -2389 0
49 -2020 -2390 0
49 -2021 -2389 0
49 -2021 -2390 0
49 -2021 -2391 0
49 -2022 -2390 0
49 -2022 -2391 0
49 -2022 -2392 0
49 -2023 -2391 0
49 -2023 -2392 0
49 -2024 -2392 0
49 -2025 2026 0
49 -2027 2035 0
49 -2028 2036 0
49 -2029 2037 0
49 -2030 2038 0
49 -2031 2039 0
49 -2032 2040 0
49 -2033 2041 0
49 -2034 2042 0
49 -2028 -2415 0
49 -2029 -2415 0
49 -2029 -2416 0
49 -2030 -2415 0
49 -2030 -2416 0
49 -2030 -2417 0
49 -2031 -2415 0
49 -2031 -2416 0
49 -2031 -2417 0
49 -2031 -2418 0
49 -2032 -2415 0
49 -2032 -2416 0
49 -2032 -2417 0
49 -2032 -2418 0
49 -2032 -2419 0
49 -2033 -2416 0
49 -2033 -2417 0
49 -2033 -2418 0
49 -2033 -2419 0
49 -2033 -2420 0
49 -2034 -2417 0
49 -2034 -2418 0
49 -2034 -2419 0
49 -2034 -2420 0
49 -2034 -2421 0
49 -2027 -2424 0
49 -2027 -2425 0
49 -2027 -2426 0
49 -2027 -2427 0
49 -2027 -2428 0
49 -2027 -2429 0
49 -2027 -2430 0
49 -2028 -2425 0
49 -2028 -2426 0
49 -2028 -2427 0
49 -2028 -2428 0
49 -2028 -2429 0
49 -2028 -2430 0
49 -2029 -2426 0
49 -2029 -2427 0
49 -2029 -2428 0
49 -2029 -2429 0
49 -2029 -2430 0
49 -2030 -2427 0
49 -2030 -2428 0
49 -2030 -2429 0
49 -2030 -2430 0
49 -2031 -2428 0
49 -2031 -2429 0
49 -2031 -2430 0
49 -2032 -2429 0
49 -2032 -2430 0
49 -2033 -2430 0
49 -2036 -2415 0
49 -2037 -2415 0
49 -2037 -2416 0
49 -2038 -2415 0
49 -2038 -2416 0
49 -2038 -2417 0
49 -2039 -2415 0
49 -2039 -2416 0
49 -2039 -2417 0
49 -2039 -2418 0
49 -2040 -2415 0
49 -2040 -2416 0
49 -2040 -2417 0
49 -2040 -2418 0
49 -2040 -2419 0
49 -2041 -2415 0
49 -2041 -2416 0
49 -2041 -2417 0
49 -2041 -2418 0
49 -2041 -2419 0
49 -2041 -2420 0
49 -2042 -2415 0
49 -2042 -2416 0
49 -2042 -2417 0
49 -2042 -2418 0
49 -2042 -2419 0
49 -2042 -2420 0
49 -2042 -2421 0
49 -2036 -2423 0
49 -2037 -2423 0
49 -2037 -2424 0
49 -2038 -2423 0
49 -2038 -2424 0
49 -2038 -2425 0
49 -2039 -2423 0
49 -2039 -2424 0
49 -2039 -2425 0
49 -2039 -2426 0
49 -2040 -2423 0
49 -2040 -2424 0
49 -2040 -2425 0
49 -2040 -2426 0
49 -2040 -2427 0
49 -2041 -2424 0
49 -2041 -2425 0
49 -2041 -2426 0
49 -2041 -2427 0
49 -2041 -2428 0
49 -2042 -2425 0
49 -2042 -2426 0
49 -2042 -2427 0
49 -2042 -2428 0
49 -2042 -2429 0
49 -2043 2044 0
49 -2045 2049 0
49 -2046 2050 0
49 -2047 2051 0
49 -2048 2052 0
49 -2049 -2550 0
49 -2049 -2551 0
49 -2050 -2550 0
49 -2050 -2551 0
49 -2051 -2551 0
49 -2053 2054 0
49 -2055 2056 0
49 -2057 2058 0
49 -2059 2060 0
49 -2061 2062 0
49 -2063 2064 0
49 -2065 2074 0
49 -2066 2075 0
49 -2067 2076 0
49 -2068 2077 0
49 -2069 2078 0
49 -2070 2079 0
49 -2071 2080 0
49 -2072 2081 0
49 -2073 2082 0
49 -2083 2084 0
49 -2085 2086 0
49 -2087 2095 0
49 -2088 2096 0
49 -2089 2097 0
49 -2090 2098 0
49 -2091 2099 0
49 -2092 2100 0
49 -2093 2101 0
49 -2094 2102 0
49 -2096 -2727 0
49 -2097 -2727 0
49 -2097 -2728 0
49 -2098 -2727 0
49 -2098 -2728 0
49 -2098 -2729 0
49 -2099 -2727 0
49 -2099 -2728 0
49 -2099 -2729 0
49 -2099 -2730 0
49 -2100 -2727 0
49 -2100 -2728 0
49 -2100 -2729 0
49 -2100 -2730 0
49 -2100 -2731 0
49 -2101 -2727 0
49 -2101 -2728 0
49 -2101 -2729 0
49 -2101 -2730 0
49 -2101 -2731 0
49 -2101 -2732 0
49 -2102 -2727 0
49 -2102 -2728 0
49 -2102 -2729 0
49 -2102 -2730 0
49 -2102 -2731 0
49 -2102 -2732 0
49 -2102 -2733 0
49 -2103 2104 0
49 -2105 2106 0
49 -2107 2108 0
49 -2109 2110 0
49 -2111 2118 0
49 -2112 2119 0
49 -2113 2120 0
49 -2114 2121 0
49 -2115 2122 0
49 -2116 2123 0
49 -2117 2124 0
49 -2125 2129 0
49 -2126 2130 0
49 -2127 2131 0
49 -2128 2132 0
49 -2133 2141 0
49 -2134 2142 0
49 -2135 2143 0
49 -2136 2144 0
49 -2137 2145 0
49 -2138 2146 0
49 -2139 2147 0
49 -2140 2148 0
49 -2133 -2698 0
49 -2133 -2699 0
49 -2133 -2700 0
49 -2133 -2701 0
49 -2133 -2702 0
49 -2133 -2703 0
49 -2133 -2704 0
49 -2134 -2699 0
49 -2134 -2700 0
49 -2134 -2701 0
49 -2134 -2702 0
49 -2134 -2703 0
49 -2134 -2704 0
49 -2135 -2700 0
49 -2135 -2701 0
49 -2135 -2702 0
49 -2135 -2703 0
49 -2135 -2704 0
49 -2136 -2701 0
49 -2136 -2702 0
49 -2136 -2703 0
49 -2136 -2704 0
49 -2137 -2702 0
49 -2137 -2703 0
49 -2137 -2704 0
49 -2138 -2703 0
49 -2138 -2704 0
49 -2139 -2704 0
49 -2141 -2636 0
49 -2142 -2637 0
49 -2143 -2638 0
49 -2144 -2639 0
49 -2145 -2640 0
49 -2146 -2641 0
49 -2147 -2642 0
49 -2149 2150 0
49 -2151 2152 0
49 -2153 2154 0
49 -2155 2156 0
49 -2157 2158 0
49 -2159 2160 0
49 -2161 2162 0
49 -2163 2171 0
49 -2164 2172 0
49 -2165 2173 0
49 -2166 2174 0
49 -2167 2175 0
49 -2168 2176 0
49 -2169 2177 0
49 -2170 2178 0
49 -2164 -2335 0
49 -2165 -2335 0
49 -2165 -2336 0
49 -2166 -2335 0
49 -2166 -2336 0
49 -2166 -2337 0
49 -2167 -2336 0
49 -2167 -2337 0
49 -2167 -2338 0
49 -2168 -2337 0
49 -2168 -2338 0
49 -2168 -2339 0
49 -2169 -2338 0
49 -2169 -2339 0
49 -2169 -2340 0
49 -2170 -2339 0
49 -2170 -2340 0
49 -2170 -2341 0
49 -2163 -2344 0
49 -2163 -2345 0
49 -2163 -2346 0
49 -2163 -2347 0
49 -2163 -2348 0
49 -2163 -2349 0
49 -2163 -2350 0
49 -2164 -2345 0
49 -2164 -2346 0
49 -2164 -2347 0
49 -2164 -2348 0
49 -2164 -2349 0
49 -2164 -2350 0
49 -2165 -2346 0
49 -2165 -2347 0
49 -2165 -2348 0
49 -2165 -2349 0
49 -2165 -2350 0
49 -2166 -2347 0
49 -2166 -2348 0
49 -2166 -2349 0
49 -2166 -2350 0
49 -2167 -2348 0
49 -2167 -2349 0
49 -2167 -2350 0
49 -2168 -2349 0
49 -2168 -2350 0
49 -2169 -2350 0
49 -2172 -2335 0
49 -2173 -2335 0
49 -2173 -2336 0
49 -2174 -2335 0
49 -2174 -2336 0
49 -2174 -2337 0
49 -2175 -2335 0
49 -2175 -2336 0
49 -2175 -2337 0
49 -2175 -2338 0
49 -2176 -2335 0
49 -2176 -2336 0
49 -2176 -2337 0
49 -2176 -2338 0
49 -2176 -2339 0
49 -2177 -2335 0
49 -2177 -2336 0
49 -2177 -2337 0
49 -2177 -2338 0
49 -2177 -2339 0
49 -2177 -2340 0
49 -2178 -2335 0
49 -2178 -2336 0
49 -2178 -2337 0
49 -2178 -2338 0
49 -2178 -2339 0
49 -2178 -2340 0
49 -2178 -2341 0
49 -2172 -2343 0
49 -2173 -2343 0
49 -2173 -2344 0
49 -2174 -2343 0
49 -2174 -2344 0
49 -2174 -2345 0
49 -2175 -2344 0
49 -2175 -2345 0
49 -2175 -2346 0
49 -2176 -2345 0
49 -2176 -2346 0
49 -2176 -2347 0
49 -2177 -2346 0
49 -2177 -2347 0
49 -2177 -2348 0
49 -2178 -2347 0
49 -2178 -2348 0
49 -2178 -2349 0
49 -2179 2180 0
49 -2181 2182 0
49 -2183 2186 0
49 -2184 2187 0
49 -2185 2188 0
49 -2184 -2400 0
49 -2185 -2401 0
49 -2183 -2404 0
49 -2183 -2405 0
49 -2183 -2406 0
49 -2183 -2407 0
49 -2183 -2408 0
49 -2184 -2408 0
49 -2187 -2397 0
49 -2187 -2398 0
49 -2187 -2399 0
49 -2187 -2400 0
49 -2188 -2397 0
49 -2188 -2398 0
49 -2188 -2399 0
49 -2188 -2400 0
49 -2188 -2401 0
49 -2187 -2406 0
49 -2188 -2407 0
49 -2189 2190 0
49 -2191 2192 0
49 -2193 2194 0
49 -2195 2196 0
49 -2197 2203 0
49 -2198 2204 0
49 -2199 2205 0
49 -2200 2206 0
49 -2201 2207 0
49 -2202 2208 0
49 -2209 2210 0
49 -2211 2212 0
49 -2213 2214 0
49 -2215 2223 0
49 -2216 2224 0
49 -2217 2225 0
49 -2218 2226 0
49 -2219 2227 0
49 -2220 2228 0
49 -2221 2229 0
49 -2222 2230 0
49 -2231 2232 0
49 -2233 2234 0
49 -2235 2236 0
49 -2237 2245 0
49 -2238 2246 0
49 -2239 2247 0
49 -2240 2248 0
49 -2241 2249 0
49 -2242 2250 0
49 -2243 2251 0
49 -2244 2252 0
49 -2237 -2568 0
49 -2237 -2569 0
49 -2237 -2570 0
49 -2237 -2571 0
49 -2237 -2572 0
49 -2237 -2573 0
49 -2237 -2574 0
49 -2238 -2569 0
49 -2238 -2570 0
49 -2238 -2571 0
49 -2238 -2572 0
49 -2238 -2573 0
49 -2238 -2574 0
49 -2239 -2570 0
49 -2239 -2571 0
49 -2239 -2572 0
49 -2239 -2573 0
49 -2239 -2574 0
49 -2240 -2571 0
49 -2240 -2572 0
49 -2240 -2573 0
49 -2240 -2574 0
49 -2241 -2572 0
49 -2241 -2573 0
49 -2241 -2574 0
49 -2242 -2573 0
49 -2242 -2574 0
49 -2243 -2574 0
49 -2246 -2559 0
49 -2247 -2559 0
49 -2247 -2560 0
49 -2248 -2559 0
49 -2248 -2560 0
49 -2248 -2561 0
49 -2249 -2559 0
49 -2249 -2560 0
49 -2249 -2561 0
49 -2249 -2562 0
49 -2250 -2559 0
49 -2250 -2560 0
49 -2250 -2561 0
49 -2250 -2562 0
49 -2250 -2563 0
49 -2251 -2559 0
49 -2251 -2560 0
49 -2251 -2561 0
49 -2251 -2562 0
49 -2251 -2563 0
49 -2251 -2564 0
49 -2252 -2559 0
49 -2252 -2560 0
49 -2252 -2561 0
49 -2252 -2562 0
49 -2252 -2563 0
49 -2252 -2564 0
49 -2252 -2565 0
49 -2246 -2567 0
49 -2247 -2568 0
49 -2248 -2569 0
49 -2249 -2570 0
49 -2250 -2571 0
49 -2251 -2572 0
49 -2252 -2573 0
49 -2246 -2859 0
49 -2247 -2859 0
49 -2247 -2860 0
49 -2248 -2859 0
49 -2248 -2860 0
49 -2248 -2861 0
49 -2249 -2859 0
49 -2249 -2860 0
49 -2249 -2861 0
49 -2249 -2862 0
49 -2250 -2859 0
49 -2250 -2860 0
49 -2250 -2861 0
49 -2250 -2862 0
49 -2250 -2863 0
49 -2251 -2859 0
49 -2251 -2860 0
49 -2251 -2861 0
49 -2251 -2862 0
49 -2251 -2863 0
49 -2251 -2864 0
49 -2252 -2859 0
49 -2252 -2860 0
49 -2252 -2861 0
49 -2252 -2862 0
49 -2252 -2863 0
49 -2252 -2864 0
49 -2252 -2865 0
49 -2246 -2867 0
49 -2247 -2868 0
49 -2248 -2869 0
49 -2249 -2870 0
49 -2250 -2871 0
49 -2251 -2872 0
49 -2252 -2873 0
49 -2253 2254 0
49 -2255 2256 0
49 -2257 2258 0
49 -2259 2260 0
49 -2261 2262 0
49 -2263 2271 0
49 -2264 2272 0
49 -2265 2273 0
49 -2266 2274 0
49 -2267 2275 0
49 -2268 2276 0
49 -2269 2277 0
49 -2270 2278 0
49 -2264 -2473 0
49 -2265 -2473 0
49 -2265 -2474 0
49 -2266 -2473 0
49 -2266 -2474 0
49 -2266 -2475 0
49 -2267 -2474 0
49 -2267 -2475 0
49 -2267 -2476 0
49 -2268 -2475 0
49 -2268 -2476 0
49 -2268 -2477 0
49 -2269 -2476 0
49 -2269 -2477 0
49 -2269 -2478 0
49 -2270 -2477 0
49 -2270 -2478 0
49 -2270 -2479 0
49 -2263 -2482 0
49 -2263 -2483 0
49 -2263 -2484 0
49 -2263 -2485 0
49 -2263 -2486 0
49 -2263 -2487 0
49 -2263 -2488 0
49 -2264 -2483 0
49 -2264 -2484 0
49 -2264 -2485 0
49 -2264 -2486 0
49 -2264 -2487 0
49 -2264 -2488 0
49 -2265 -2484 0
49 -2265 -2485 0
49 -2265 -2486 0
49 -2265 -2487 0
49 -2265 -2488 0
49 -2266 -2485 0
49 -2266 -2486 0
49 -2266 -2487 0
49 -2266 -2488 0
49 -2267 -2486 0
49 -2267 -2487 0
49 -2267 -2488 0
49 -2268 -2487 0
49 -2268 -2488 0
49 -2269 -2488 0
49 -2272 -2473 0
49 -2273 -2473 0
49 -2273 -2474 0
49 -2274 -2473 0
49 -2274 -2474 0
49 -2274 -2475 0
49 -2275 -2473 0
49 -2275 -2474 0
49 -2275 -2475 0
49 -2275 -2476 0
49 -2276 -2473 0
49 -2276 -2474 0
49 -2276 -2475 0
49 -2276 -2476 0
49 -2276 -2477 0
49 -2277 -2473 0
49 -2277 -2474 0
49 -2277 -2475 0
49 -2277 -2476 0
49 -2277 -2477 0
49 -2277 -2478 0
49 -2278 -2473 0
49 -2278 -2474 0
49 -2278 -2475 0
49 -2278 -2476 0
49 -2278 -2477 0
49 -2278 -2478 0
49 -2278 -2479 0
49 -2272 -2481 0
49 -2273 -2481 0
49 -2273 -2482 0
49 -2274 -2481 0
49 -2274 -2482 0
49 -2274 -2483 0
49 -2275 -2482 0
49 -2275 -2483 0
49 -2275 -2484 0
49 -2276 -2483 0
49 -2276 -2484 0
49 -2276 -2485 0
49 -2277 -2484 0
49 -2277 -2485 0
49 -2277 -2486 0
49 -2278 -2485 0
49 -2278 -2486 0
49 -2278 -2487 0
49 -2279 2281 0
49 -2280 2282 0
49 -2283 2284 0
49 -2285 2286 0
49 -2287 2288 0
49 -2289 2290 0
49 -2291 2292 0
49 -2293 2294 0
49 -2295 2304 0
49 -2296 2305 0
49 -2297 2306 0
49 -2298 2307 0
49 -2299 2308 0
49 -2300 2309 0
49 -2301 2310 0
49 -2302 2311 0
49 -2303 2312 0
49 -2303 -2389 0
49 -2303 -2390 0
49 -2303 -2391 0
49 -2303 -2392 0
49 -2312 -2388 0
49 -2312 -2389 0
49 -2312 -2390 0
49 -2312 -2391 0
49 -2312 -2392 0
49 -2313 2314 0
49 -2315 2316 0
49 -2317 2325 0
49 -2318 2326 0
49 -2319 2327 0
49 -2320 2328 0
49 -2321 2329 0
49 -2322 2330 0
49 -2323 2331 0
49 -2324 2332 0
49 -2317 -2588 0
49 -2317 -2589 0
49 -2317 -2590 0
49 -2317 -2591 0
49 -2317 -2592 0
49 -2318 -2589 0
49 -2318 -2590 0
49 -2318 -2591 0
49 -2318 -2592 0
49 -2318 -2593 0
49 -2319 -2590 0
49 -2319 -2591 0
49 -2319 -2592 0
49 -2319 -2593 0
49 -2319 -2594 0
49 -2320 -2591 0
49 -2320 -2592 0
49 -2320 -2593 0
49 -2320 -2594 0
49 -2321 -2592 0
49 -2321 -2593 0
49 -2321 -2594 0
49 -2322 -2593 0
49 -2322 -2594 0
49 -2323 -2594 0
49 -2317 -2596 0
49 -2317 -2597 0
49 -2317 -2598 0
49 -2317 -2599 0
49 -2317 -2600 0
49 -2317 -2601 0
49 -2317 -2602 0
49 -2318 -2597 0
49 -2318 -2598 0
49 -2318 -2599 0
49 -2318 -2600 0
49 -2318 -2601 0
49 -2318 -2602 0
49 -2319 -2598 0
49 -2319 -2599 0
49 -2319 -2600 0
49 -2319 -2601 0
49 -2319 -2602 0
49 -2320 -2599 0
49 -2320 -2600 0
49 -2320 -2601 0
49 -2320 -2602 0
49 -2321 -2600 0
49 -2321 -2601 0
49 -2321 -2602 0
49 -2322 -2601 0
49 -2322 -2602 0
49 -2323 -2602 0
49 -2317 -2644 0
49 -2317 -2645 0
49 -2317 -2646 0
49 -2318 -2645 0
49 -2318 -2646 0
49 -2318 -2647 0
49 -2319 -2646 0
49 -2319 -2647 0
49 -2319 -2648 0
49 -2320 -2647 0
49 -2320 -2648 0
49 -2320 -2649 0
49 -2321 -2648 0
49 -2321 -2649 0
49 -2321 -2650 0
49 -2322 -2649 0
49 -2322 -2650 0
49 -2323 -2650 0
49 -2317 -2652 0
49 -2317 -2653 0
49 -2317 -2654 0
49 -2317 -2655 0
49 -2317 -2656 0
49 -2317 -2657 0
49 -2317 -2658 0
49 -2318 -2653 0
49 -2318 -2654 0
49 -2318 -2655 0
49 -2318 -2656 0
49 -2318 -2657 0
49 -2318 -2658 0
49 -2319 -2654 0
49 -2319 -2655 0
49 -2319 -2656 0
49 -2319 -2657 0
49 -2319 -2658 0
49 -2320 -2655 0
49 -2320 -2656 0
49 -2320 -2657 0
49 -2320 -2658 0
49 -2321 -2656 0
49 -2321 -2657 0
49 -2321 -2658 0
49 -2322 -2657 0
49 -2322 -2658 0
49 -2323 -2658 0
49 -2326 -2587 0
49 -2327 -2587 0
49 -2327 -2588 0
49 -2328 -2587 0
49 -2328 -2588 0
49 -2328 -2589 0
49 -2329 -2587 0
49 -2329 -2588 0
49 -2329 -2589 0
49 -2329 -2590 0
49 -2330 -2587 0
49 -2330 -2588 0
49 -2330 -2589 0
49 -2330 -2590 0
49 -2330 -2591 0
49 -2331 -2587 0
49 -2331 -2588 0
49 -2331 -2589 0
49 -2331 -2590 0
49 -2331 -2591 0
49 -2331 -2592 0
49 -2332 -2587 0
49 -2332 -2588 0
49 -2332 -2589 0
49 -2332 -2590 0
49 -2332 -2591 0
49 -2332 -2592 0
49 -2332 -2593 0
49 -2325 -2596 0
49 -2325 -2597 0
49 -2325 -2598 0
49 -2325 -2599 0
49 -2325 -2600 0
49 -2326 -2597 0
49 -2326 -2598 0
49 -2326 -2599 0
49 -2326 -2600 0
49 -2326 -2601 0
49 -2327 -2598 0
49 -2327 -2599 0
49 -2327 -2600 0
49 -2327 -2601 0
49 -2327 -2602 0
49 -2328 -2599 0
49 -2328 -2600 0
49 -2328 -2601 0
49 -2328 -2602 0
49 -2329 -2600 0
49 -2329 -2601 0
49 -2329 -2602 0
49 -2330 -2601 0
49 -2330 -2602 0
49 -2331 -2602 0
49 -2326 -2643 0
49 -2327 -2643 0
49 -2327 -2644 0
49 -2328 -2643 0
49 -2328 -2644 0
49 -2328 -2645 0
49 -2329 -2643 0
49 -2329 -2644 0
49 -2329 -2645 0
49 -2329 -2646 0
49 -2330 -2643 0
49 -2330 -2644 0
49 -2330 -2645 0
49 -2330 -2646 0
49 -2330 -2647 0
49 -2331 -2643 0
49 -2331 -2644 0
49 -2331 -2645 0
49 -2331 -2646 0
49 -2331 -2647 0
49 -2331 -2648 0
49 -2332 -2643 0
49 -2332 -2644 0
49 -2332 -2645 0
49 -2332 -2646 0
49 -2332 -2647 0
49 -2332 -2648 0
49 -2332 -2649 0
49 -2325 -2652 0
49 -2325 -2653 0
49 -2325 -2654 0
49 -2326 -2653 0
49 -2326 -2654 0
49 -2326 -2655 0
49 -2327 -2654 0
49 -2327 -2655 0
49 -2327 -2656 0
49 -2328 -2655 0
49 -2328 -2656 0
49 -2328 -2657 0
49 -2329 -2656 0
49 -2329 -2657 0
49 -2329 -2658 0
49 -2330 -2657 0
49 -2330 -2658 0
49 -2331 -2658 0
49 -2333 2334 0
49 -2335 2343 0
49 -2336 2344 0
49 -2337 2345 0
49 -2338 2346 0
49 -2339 2347 0
49 -2340 2348 0
49 -2341 2349 0
49 -2342 2350 0
49 -2351 2352 0
49 -2353 2354 0
49 -2355 2356 0
49 -2357 2365 0
49 -2358 2366 0
49 -2359 2367 0
49 -2360 2368 0
49 -2361 2369 0
49 -2362 2370 0
49 -2363 2371 0
49 -2364 2372 0
49 -2357 -2644 0
49 -2357 -2645 0
49 -2357 -2646 0
49 -2358 -2645 0
49 -2358 -2646 0
49 -2358 -2647 0
49 -2359 -2646 0
49 -2359 -2647 0
49 -2359 -2648 0
49 -2360 -2647 0
49 -2360 -2648 0
49 -2360 -2649 0
49 -2361 -2648 0
49 -2361 -2649 0
49 -2361 -2650 0
49 -2362 -2649 0
49 -2362 -2650 0
49 -2363 -2650 0
49 -2357 -2652 0
49 -2357 -2653 0
49 -2357 -2654 0
49 -2357 -2655 0
49 -2357 -2656 0
49 -2357 -2657 0
49 -2357 -2658 0
49 -2358 -2653 0
49 -2358 -2654 0
49 -2358 -2655 0
49 -2358 -2656 0
49 -2358 -2657 0
49 -2358 -2658 0
49 -2359 -2654 0
49 -2359 -2655 0
49 -2359 -2656 0
49 -2359 -2657 0
49 -2359 -2658 0
49 -2360 -2655 0
49 -2360 -2656 0
49 -2360 -2657 0
49 -2360 -2658 0
49 -2361 -2656 0
49 -2361 -2657 0
49 -2361 -2658 0
49 -2362 -2657 0
49 -2362 -2658 0
49 -2363 -2658 0
49 -2357 -2836 0
49 -2357 -2837 0
49 -2357 -2838 0
49 -2357 -2839 0
49 -2357 -2840 0
49 -2357 -2841 0
49 -2357 -2842 0
49 -2358 -2837 0
49 -2358 -2838 0
49 -2358 -2839 0
49 -2358 -2840 0
49 -2358 -2841 0
49 -2358 -2842 0
49 -2359 -2838 0
49 -2359 -2839 0
49 -2359 -2840 0
49 -2359 -2841 0
49 -2359 -2842 0
49 -2360 -2839 0
49 -2360 -2840 0
49 -2360 -2841 0
49 -2360 -2842 0
49 -2361 -2840 0
49 -2361 -2841 0
49 -2361 -2842 0
49 -2362 -2841 0
49 -2362 -2842 0
49 -2363 -2842 0
49 -2365 -2715 0
49 -2365 -2716 0
49 -2365 -2717 0
49 -2365 -2718 0
49 -2365 -2719 0
49 -2365 -2720 0
49 -2366 -2716 0
49 -2366 -2717 0
49 -2366 -2718 0
49 -2366 -2719 0
49 -2366 -2720 0
49 -2367 -2717 0
49 -2367 -2718 0
49 -2367 -2719 0
49 -2367 -2720 0
49 -2368 -2717 0
49 -2368 -2718 0
49 -2368 -2719 0
49 -2368 -2720 0
49 -2369 -2718 0
49 -2369 -2719 0
49 -2369 -2720 0
49 -2370 -2719 0
49 -2370 -2720 0
49 -2371 -2720 0
49 -2366 -2827 0
49 -2367 -2827 0
49 -2367 -2828 0
49 -2368 -2827 0
49 -2368 -2828 0
49 -2368 -2829 0
49 -2369 -2827 0
49 -2369 -2828 0
49 -2369 -2829 0
49 -2369 -2830 0
49 -2370 -2827 0
49 -2370 -2828 0
49 -2370 -2829 0
49 -2370 -2830 0
49 -2370 -2831 0
49 -2371 -2827 0
49 -2371 -2828 0
49 -2371 -2829 0
49 -2371 -2830 0
49 -2371 -2831 0
49 -2371 -2832 0
49 -2372 -2827 0
49 -2372 -2828 0
49 -2372 -2829 0
49 -2372 -2830 0
49 -2372 -2831 0
49 -2372 -2832 0
49 -2372 -2833 0
49 -2373 2374 0
49 -2375 2376 0
49 -2377 2385 0
49 -2378 2386 0
49 -2379 2387 0
49 -2380 2388 0
49 -2381 2389 0
49 -2382 2390 0
49 -2383 2391 0
49 -2384 2392 0
49 -2393 2394 0
49 -2395 2396 0
49 -2397 2403 0
49 -2398 2404 0
49 -2399 2405 0
49 -2400 2406 0
49 -2401 2407 0
49 -2402 2408 0
49 -2409 2410 0
49 -2411 2412 0
49 -2413 2414 0
49 -2415 2423 0
49 -2416 2424 0
49 -2417 2425 0
49 -2418 2426 0
49 -2419 2427 0
49 -2420 2428 0
49 -2421 2429 0
49 -2422 2430 0
49 -2431 2432 0
49 -2433 2437 0
49 -2434 2438 0
49 -2435 2439 0
49 -2436 2440 0
49 -2441 2442 0
49 -2443 2444 0
49 -2445 2446 0
49 -2447 2448 0
49 -2449 2457 0
49 -2450 2458 0
49 -2451 2459 0
49 -2452 2460 0
49 -2453 2461 0
49 -2454 2462 0
49 -2455 2463 0
49 -2456 2464 0
49 -2465 2466 0
49 -2467 2468 0
49 -2469 2471 0
49 -2470 2472 0
49 -2470 -2708 0
49 -2473 2481 0
49 -2474 2482 0
49 -2475 2483 0
49 -2476 2484 0
49 -2477 2485 0
49 -2478 2486 0
49 -2479 2487 0
49 -2480 2488 0
49 -2489 2500 0
49 -2490 2501 0
49 -2491 2502 0
49 -2492 2503 0
49 -2493 2504 0
49 -2494 2505 0
49 -2495 2506 0
49 -2496 2507 0
49 -2497 2508 0
49 -2498 2509 0
49 -2499 2510 0
49 -2489 -2752 0
49 -2489 -2753 0
49 -2489 -2754 0
49 -2489 -2755 0
49 -2489 -2756 0
49 -2489 -2757 0
49 -2489 -2758 0
49 -2490 -2753 0
49 -2490 -2754 0
49 -2490 -2755 0
49 -2490 -2756 0
49 -2490 -2757 0
49 -2490 -2758 0
49 -2491 -2754 0
49 -2491 -2755 0
49 -2491 -2756 0
49 -2491 -2757 0
49 -2491 -2758 0
49 -2492 -2755 0
49 -2492 -2756 0
49 -2492 -2757 0
49 -2492 -2758 0
49 -2493 -2756 0
49 -2493 -2757 0
49 -2493 -2758 0
49 -2494 -2757 0
49 -2494 -2758 0
49 -2495 -2758 0
49 -2511 2512 0
49 -2513 2514 0
49 -2515 2516 0
49 -2517 2525 0
49 -2518 2526 0
49 -2519 2527 0
49 -2520 2528 0
49 -2521 2529 0
49 -2522 2530 0
49 -2523 2531 0
49 -2524 2532 0
49 -2533 2534 0
49 -2535 2536 0
49 -2537 2541 0
49 -2538 2542 0
49 -2539 2543 0
49 -2540 2544 0
49 -2545 2546 0
49 -2547 2550 0
49 -2548 2551 0
49 -2549 2552 0
49 -2553 2554 0
49 -2555 2556 0
49 -2557 2558 0
49 -2559 2567 0
49 -2560 2568 0
49 -2561 2569 0
49 -2562 2570 0
49 -2563 2571 0
49 -2564 2572 0
49 -2565 2573 0
49 -2566 2574 0
49 -2575 2576 0
49 -2577 2578 0
49 -2579 2580 0
49 -2581 2582 0
49 -2583 2584 0
49 -2585 2586 0
49 -2587 2595 0
49 -2588 2596 0
49 -2589 2597 0
49 -2590 2598 0
49 -2591 2599 0
49 -2592 2600 0
49 -2593 2601 0
49 -2594 2602 0
49 -2588 -2643 0
49 -2589 -2644 0
49 -2590 -2645 0
49 -2591 -2646 0
49 -2592 -2647 0
49 -2593 -2648 0
49 -2594 -2649 0
49 -2587 -2652 0
49 -2587 -2653 0
49 -2587 -2654 0
49 -2587 -2655 0
49 -2587 -2656 0
49 -2587 -2657 0
49 -2587 -2658 0
49 -2588 -2653 0
49 -2588 -2654 0
49 -2588 -2655 0
49 -2588 -2656 0
49 -2588 -2657 0
49 -2588 -2658 0
49 -2589 -2654 0
49 -2589 -2655 0
49 -2589 -2656 0
49 -2589 -2657 0
49 -2589 -2658 0
49 -2590 -2655 0
49 -2590 -2656 0
49 -2590 -2657 0
49 -2590 -2658 0
49 -2591 -2656 0
49 -2591 -2657 0
49 -2591 -2658 0
49 -2592 -2657 0
49 -2592 -2658 0
49 -2593 -2658 0
49 -2596 -2643 0
49 -2597 -2643 0
49 -2597 -2644 0
49 -2598 -2643 0
49 -2598 -2644 0
49 -2598 -2645 0
49 -2599 -2643 0
49 -2599 -2644 0
49 -2599 -2645 0
49 -2599 -2646 0
49 -2600 -2643 0
49 -2600 -2644 0
49 -2600 -2645 0
49 -2600 -2646 0
49 -2600 -2647 0
49 -2601 -2643 0
49 -2601 -2644 0
49 -2601 -2645 0
49 -2601 -2646 0
49 -2601 -2647 0
49 -2601 -2648 0
49 -2602 -2643 0
49 -2602 -2644 0
49 -2602 -2645 0
49 -2602 -2646 0
49 -2602 -2647 0
49 -2602 -2648 0
49 -2602 -2649 0
49 -2596 -2651 0
49 -2597 -2652 0
49 -2598 -2653 0
49 -2599 -2654 0
49 -2600 -2655 0
49 -2601 -2656 0
49 -2602 -2657 0
49 -2596 -2827 0
49 -2597 -2827 0
49 -2597 -2828 0
49 -2598 -2827 0
49 -2598 -2828 0
49 -2598 -2829 0
49 -2599 -2827 0
49 -2599 -2828 0
49 -2599 -2829 0
49 -2599 -2830 0
49 -2600 -2827 0
49 -2600 -2828 0
49 -2600 -2829 0
49 -2600 -2830 0
49 -2600 -2831 0
49 -2601 -2827 0
49 -2601 -2828 0
49 -2601 -2829 0
49 -2601 -2830 0
49 -2601 -2831 0
49 -2601 -2832 0
49 -2602 -2827 0
49 -2602 -2828 0
49 -2602 -2829 0
49 -2602 -2830 0
49 -2602 -2831 0
49 -2602 -2832 0
49 -2602 -2833 0
49 -2596 -2835 0
49 -2597 -2835 0
49 -2597 -2836 0
49 -2598 -2835 0
49 -2598 -2836 0
49 -2598 -2837 0
49 -2599 -2836 0
49 -2599 -2837 0
49 -2599 -2838 0
49 -2600 -2837 0
49 -2600 -2838 0
49 -2600 -2839 0
49 -2601 -2838 0
49 -2601 -2839 0
49 -2601 -2840 0
49 -2602 -2839 0
49 -2602 -2840 0
49 -2602 -2841 0
49 -2603 2604 0
49 -2605 2606 0
49 -2607 2617 0
49 -2608 2618 0
49 -2609 2619 0
49 -2610 2620 0
49 -2611 2621 0
49 -2612 2622 0
49 -2613 2623 0
49 -2614 2624 0
49 -2615 2625 0
49 -2616 2626 0
49 -2608 -2627 0
49 -2609 -2628 0
49 -2610 -2629 0
49 -2611 -2630 0
49 -2612 -2631 0
49 -2613 -2632 0
49 -2614 -2633 0
49 -2615 -2634 0
49 -2607 -2636 0
49 -2607 -2637 0
49 -2607 -2638 0
49 -2607 -2639 0
49 -2607 -2640 0
49 -2607 -2641 0
49 -2607 -2642 0
49 -2608 -2637 0
49 -2608 -2638 0
49 -2608 -2639 0
49 -2608 -2640 0
49 -2608 -2641 0
49 -2608 -2642 0
49 -2609 -2638 0
49 -2609 -2639 0
49 -2609 -2640 0
49 -2609 -2641 0
49 -2609 -2642 0
49 -2610 -2639 0
49 -2610 -2640 0
49 -2610 -2641 0
49 -2610 -2642 0
49 -2611 -2640 0
49 -2611 -2641 0
49 -2611 -2642 0
49 -2612 -2641 0
49 -2612 -2642 0
49 -2613 -2642 0
49 -2627 2635 0
49 -2628 2636 0
49 -2629 2637 0
49 -2630 2638 0
49 -2631 2639 0
49 -2632 2640 0
49 -2633 2641 0
49 -2634 2642 0
49 -2643 2651 0
49 -2644 2652 0
49 -2645 2653 0
49 -2646 2654 0
49 -2647 2655 0
49 -2648 2656 0
49 -2649 2657 0
49 -2650 2658 0
49 -2652 -2827 0
49 -2653 -2827 0
49 -2653 -2828 0
49 -2654 -2827 0
49 -2654 -2828 0
49 -2654 -2829 0
49 -2655 -2827 0
49 -2655 -2828 0
49 -2655 -2829 0
49 -2655 -2830 0
49 -2656 -2827 0
49 -2656 -2828 0
49 -2656 -2829 0
49 -2656 -2830 0
49 -2656 -2831 0
49 -2657 -2827 0
49 -2657 -2828 0
49 -2657 -2829 0
49 -2657 -2830 0
49 -2657 -2831 0
49 -2657 -2832 0
49 -2658 -2827 0
49 -2658 -2828 0
49 -2658 -2829 0
49 -2658 -2830 0
49 -2658 -2831 0
49 -2658 -2832 0
49 -2658 -2833 0
49 -2652 -2835 0
49 -2653 -2836 0
49 -2654 -2837 0
49 -2655 -2838 0
49 -2656 -2839 0
49 -2657 -2840 0
49 -2658 -2841 0
49 -2659 2660 0
49 -2661 2662 0
49 -2663 2664 0
49 -2665 2688 0
49 -2666 2677 0
49 -2667 2678 0
49 -2668 2679 0
49 -2669 2680 0
49 -2670 2681 0
49 -2671 2682 0
49 -2672 2683 0
49 -2673 2684 0
49 -2674 2685 0
49 -2675 2686 0
49 -2676 2687 0
49 -2689 2697 0
49 -2690 2698 0
49 -2691 2699 0
49 -2692 2700 0
49 -2693 2701 0
49 -2694 2702 0
49 -2695 2703 0
49 -2696 2704 0
49 -2698 -2743 0
49 -2699 -2743 0
49 -2699 -2744 0
49 -2700 -2743 0
49 -2700 -2744 0
49 -2700 -2745 0
49 -2701 -2743 0
49 -2701 -2744 0
49 -2701 -2745 0
49 -2701 -2746 0
49 -2702 -2743 0
49 -2702 -2744 0
49 -2702 -2745 0
49 -2702 -2746 0
49 -2702 -2747 0
49 -2703 -2743 0
49 -2703 -2744 0
49 -2703 -2745 0
49 -2703 -2746 0
49 -2703 -2747 0
49 -2703 -2748 0
49 -2704 -2743 0
49 -2704 -2744 0
49 -2704 -2745 0
49 -2704 -2746 0
49 -2704 -2747 0
49 -2704 -2748 0
49 -2704 -2749 0
49 -2698 -2751 0
49 -2699 -2751 0
49 -2699 -2752 0
49 -2700 -2751 0
49 -2700 -2752 0
49 -2700 -2753 0
49 -2701 -2752 0
49 -2701 -2753 0
49 -2701 -2754 0
49 -2702 -2753 0
49 -2702 -2754 0
49 -2702 -2755 0
49 -2703 -2754 0
49 -2703 -2755 0
49 -2703 -2756 0
49 -2704 -2755 0
49 -2704 -2756 0
49 -2704 -2757 0
49 -2705 2706 0
49 -2707 2714 0
49 -2708 2715 0
49 -2709 2716 0
49 -2710 2717 0
49 -2711 2718 0
49 -2712 2719 0
49 -2713 2720 0
49 -2721 2722 0
49 -2723 2724 0
49 -2725 2726 0
49 -2727 2735 0
49 -2728 2736 0
49 -2729 2737 0
49 -2730 2738 0
49 -2731 2739 0
49 -2732 2740 0
49 -2733 2741 0
49 -2734 2742 0
49 -2743 2751 0
49 -2744 2752 0
49 -2745 2753 0
49 -2746 2754 0
49 -2747 2755 0
49 -2748 2756 0
49 -2749 2757 0
49 -2750 2758 0
49 -2759 2764 0
49 -2760 2765 0
49 -2761 2766 0
49 -2762 2767 0
49 -2763 2768 0
49 -2769 2770 0
49 -2771 2772 0
49 -2773 2774 0
49 -2775 2776 0
49 -2777 2778 0
49 -2779 2780 0
49 -2781 2784 0
49 -2782 2785 0
49 -2783 2786 0
49 -2787 2788 0
49 -2789 2790 0
49 -2791 2792 0
49 -2793 2801 0
49 -2794 2802 0
49 -2795 2803 0
49 -2796 2804 0
49 -2797 2805 0
49 -2798 2806 0
49 -2799 2807 0
49 -2800 2808 0
49 -2809 2810 0
49 -2811 2819 0
49 -2812 2820 0
49 -2813 2821 0
49 -2814 2822 0
49 -2815 2823 0
49 -2816 2824 0
49 -2817 2825 0
49 -2818 2826 0
49 -2827 2835 0
49 -2828 2836 0
49 -2829 2837 0
49 -2830 2838 0
49 -2831 2839 0
49 -2832 2840 0
49 -2833 2841 0
49 -2834 2842 0
49 -2836 -2845 0
49 -2837 -2845 0
49 -2838 -2845 0
49 -2839 -2845 0
49 -2839 -2846 0
49 -2840 -2845 0
49 -2840 -2846 0
49 -2840 -2847 0
49 -2841 -2845 0
49 -2841 -2846 0
49 -2841 -2847 0
49 -2841 -2848 0
49 -2842 -2845 0
49 -2842 -2846 0
49 -2842 -2847 0
49 -2842 -2848 0
49 -2842 -2849 0
49 -2836 -2851 0
49 -2839 -2852 0
49 -2840 -2853 0
49 -2841 -2854 0
49 -2842 -2855 0
49 -2843 2844 0
49 -2845 2851 0
49 -2846 2852 0
49 -2847 2853 0
49 -2848 2854 0
49 -2849 2855 0
49 -2850 2856 0
49 -2851 -2868 0
49 -2851 -2869 0
49 -2851 -2870 0
49 -2852 -2871 0
49 -2852 -2872 0
49 -2852 -2873 0
49 -2853 -2872 0
49 -2853 -2873 0
49 -2853 -2874 0
49 -2854 -2873 0
49 -2854 -2874 0
49 -2855 -2874 0
49 -2857 2858 0
49 -2859 2867 0
49 -2860 2868 0
49 -2861 2869 0
49 -2862 2870 0
49 -2863 2871 0
49 -2864 2872 0
49 -2865 2873 0
49 -2866 2874 0
49 -2868 -2875 0
49 -2869 -2875 0
49 -2870 -2875 0
49 -2871 -2875 0
49 -2871 -2876 0
49 -2872 -2875 0
49 -2872 -2876 0
49 -2872 -2877 0
49 -2873 -2875 0
49 -2873 -2876 0
49 -2873 -2877 0
49 -2873 -2878 0
49 -2874 -2875 0
49 -2874 -2876 0
49 -2874 -2877 0
49 -2874 -2878 0
49 -2874 -2879 0
49 -2868 -2881 0
49 -2869 -2881 0
49 -2870 -2881 0
49 -2871 -2882 0
49 -2872 -2882 0
49 -2872 -2883 0
49 -2873 -2882 0
49 -2873 -2883 0
49 -2873 -2884 0
49 -2874 -2883 0
49 -2874 -2884 0
49 -2874 -2885 0
49 -2875 2881 0
49 -2876 2882 0
49 -2877 2883 0
49 -2878 2884 0
49 -2879 2885 0
49 -2880 2886 0
49 -1 4843 0
49 -2 4856 0
49 -3 4841 0
49 -4 4854 0
49 -5 4873 0
49 -6 4874 0
49 -7 4875 0
49 -8 4876 0
49 -9 4877 0
49 -10 4878 0
49 -11 4879 0
49 -12 4861 0
49 -13 4862 0
49 -14 4863 0
49 -15 4864 0
49 -16 4866 0
49 -17 4867 0
49 -18 4868 0
49 -19 4844 0
49 -20 4857 0
49 -21 4840 0
49 -22 4853 0
49 -23 4842 0
49 -24 4855 0
49 -25 4840 0
49 -26 4853 0
49 -27 4840 0
49 -28 4853 0
49 -29 4847 0
49 -30 4865 0
49 -31 4835 0
49 -32 4836 0
49 -33 4837 0
49 -34 4838 0
49 -35 4839 0
49 -36 4848 0
49 -37 4849 0
49 -38 4850 0
49 -39 4851 0
49 -40 4852 0
49 -41 4844 0
49 -42 4857 0
49 -43 4872 0
49 -44 4873 0
49 -45 4874 0
49 -46 4875 0
49 -47 4876 0
49 -48 4877 0
49 -49 4878 0
49 -50 4879 0
49 -51 4880 0
49 -52 4881 0
49 -53 4882 0
49 -54 4860 0
49 -55 4861 0
49 -56 4862 0
49 -57 4863 0
49 -58 4864 0
49 -59 4866 0
49 -60 4867 0
49 -61 4868 0
49 -62 4869 0
49 -63 4870 0
49 -64 4871 0
49 -65 4875 0
49 -66 4876 0
49 -67 4877 0
49 -68 4878 0
49 -69 4879 0
49 -70 4880 0
49 -71 4881 0
49 -72 4882 0
49 -73 4863 0
49 -74 4864 0
49 -75 4866 0
49 -76 4867 0
49 -77 4868 0
49 -78 4869 0
49 -79 4870 0
49 -80 4871 0
49 -81 4874 0
49 -82 4876 0
49 -83 4878 0
49 -84 4880 0
49 -85 4862 0
49 -86 4864 0
49 -87 4867 0
49 -88 4869 0
49 -89 4839 0
49 -90 4852 0
49 -91 4839 0
49 -92 4852 0
49 -93 4873 0
49 -94 4874 0
49 -95 4875 0
49 -96 4876 0
49 -97 4877 0
49 -98 4878 0
49 -99 4879 0
49 -100 4880 0
49 -101 4861 0
49 -102 4862 0
49 -103 4863 0
49 -104 4864 0
49 -105 4866 0
49 -106 4867 0
49 -107 4868 0
49 -108 4869 0
49 -109 4846 0
49 -110 4847 0
49 -111 4859 0
49 -112 4865 0
49 -113 4839 0
49 -114 4852 0
49 -115 4845 0
49 -116 4858 0
49 -117 4845 0
49 -118 4858 0
49 -119 4840 0
49 -120 4879 0
49 -121 4880 0
49 -122 4881 0
49 -123 4882 0
49 -124 4853 0
49 -125 4868 0
49 -126 4869 0
49 -127 4870 0
49 -128 4871 0
49 -129 4839 0
49 -130 4852 0
49 -131 4840 0
49 -132 4853 0
49 -133 4875 0
49 -134 4876 0
49 -135 4877 0
49 -136 4878 0
49 -137 4879 0
49 -138 4880 0
49 -139 4881 0
49 -140 4882 0
49 -141 4863 0
49 -142 4864 0
49 -143 4866 0
49 -144 4867 0
49 -145 4868 0
49 -146 4869 0
49 -147 4870 0
49 -148 4871 0
49 -149 4836 0
49 -150 4838 0
49 -151 4840 0
49 -152 4842 0
49 -153 4849 0
49 -154 4851 0
49 -155 4853 0
49 -156 4855 0
49 -157 4836 0
49 -158 4837 0
49 -159 4838 0
49 -160 4844 0
49 -161 4874 0
49 -162 4875 0
49 -163 4876 0
49 -164 4849 0
49 -165 4850 0
49 -166 4851 0
49 -167 4857 0
49 -168 4862 0
49 -169 4863 0
49 -170 4864 0
49 -171 4843 0
49 -172 4872 0
49 -173 4873 0
49 -174 4874 0
49 -175 4875 0
49 -176 4876 0
49 -177 4856 0
49 -178 4860 0
49 -179 4861 0
49 -180 4862 0
49 -181 4863 0
49 -182 4864 0
49 -183 4872 0
49 -184 4873 0
49 -185 4874 0
49 -186 4875 0
49 -187 4876 0
49 -188 4877 0
49 -189 4878 0
49 -190 4879 0
49 -191 4880 0
49 -192 4881 0
49 -193 4882 0
49 -194 4860 0
49 -195 4861 0
49 -196 4862 0
49 -197 4863 0
49 -198 4864 0
49 -199 4866 0
49 -200 4867 0
49 -201 4868 0
49 -202 4869 0
49 -203 4870 0
49 -204 4871 0
49 -205 4840 0
49 -206 4853 0
49 -207 4844 0
49 -208 4857 0
49 -209 4872 0
49 -210 4873 0
49 -211 4874 0
49 -212 4875 0
49 -213 4876 0
49 -214 4877 0
49 -215 4878 0
49 -216 4879 0
49 -217 4880 0
49 -218 4881 0
49 -219 4882 0
49 -220 4860 0
49 -221 4861 0
49 -222 4862 0
49 -223 4863 0
49 -224 4864 0
49 -225 4866 0
49 -226 4867 0
49 -227 4868 0
49 -228 4869 0
49 -229 4870 0
49 -230 4871 0
49 -231 4875 0
49 -232 4876 0
49 -233 4877 0
49 -234 4878 0
49 -235 4879 0
49 -236 4880 0
49 -237 4881 0
49 -238 4882 0
49 -239 4863 0
49 -240 4864 0
49 -241 4866 0
49 -242 4867 0
49 -243 4868 0
49 -244 4869 0
49 -245 4870 0
49 -246 4871 0
49 -247 4842 0
49 -248 4855 0
49 -249 4843 0
49 -250 4856 0
49 -251 4845 0
49 -252 4858 0
49 -253 4840 0
49 -254 4853 0
49 -255 4846 0
49 -256 4859 0
49 -257 4844 0
49 -258 4857 0
49 -259 4872 0
49 -260 4873 0
49 -261 4874 0
49 -262 4875 0
49 -263 4876 0
49 -264 4877 0
49 -265 4878 0
49 -266 4879 0
49 -267 4860 0
49 -268 4861 0
49 -269 4862 0
49 -270 4863 0
49 -271 4864 0
49 -272 4866 0
49 -273 4867 0
49 -274 4868 0
49 -275 4846 0
49 -276 4859 0
49 -277 4844 0
49 -278 4857 0
49 -279 4872 0
49 -280 4873 0
49 -281 4874 0
49 -282 4875 0
49 -283 4876 0
49 -284 4877 0
49 -285 4878 0
49 -286 4860 0
49 -287 4861 0
49 -288 4862 0
49 -289 4863 0
49 -290 4864 0
49 -291 4866 0
49 -292 4867 0
49 -293 4845 0
49 -294 4858 0
49 -295 4846 0
49 -296 4859 0
49 -297 4839 0
49 -298 4840 0
49 -299 4841 0
49 -300 4842 0
49 -301 4843 0
49 -302 4844 0
49 -303 4845 0
49 -304 4852 0
49 -305 4853 0
49 -306 4854 0
49 -307 4855 0
49 -308 4856 0
49 -309 4857 0
49 -310 4858 0
49 -311 4875 0
49 -312 4863 0
49 -313 4845 0
49 -314 4858 0
49 -315 4842 0
49 -316 4855 0
49 -317 4839 0
49 -318 4852 0
49 -319 4844 0
49 -320 4857 0
49 -321 4875 0
49 -322 4876 0
49 -323 4877 0
49 -324 4878 0
49 -325 4879 0
49 -326 4880 0
49 -327 4881 0
49 -328 4882 0
49 -329 4863 0
49 -330 4864 0
49 -331 4866 0
49 -332 4867 0
49 -333 4868 0
49 -334 4869 0
49 -335 4870 0
49 -336 4871 0
49 -337 4842 0
49 -338 4855 0
49 -339 4875 0
49 -340 4876 0
49 -341 4877 0
49 -342 4878 0
49 -343 4879 0
49 -344 4880 0
49 -345 4881 0
49 -346 4882 0
49 -347 4863 0
49 -348 4864 0
49 -349 4866 0
49 -350 4867 0
49 -351 4868 0
49 -352 4869 0
49 -353 4870 0
49 -354 4871 0
49 -355 4841 0
49 -356 4854 0
49 -357 4835 0
49 -358 4836 0
49 -359 4837 0
49 -360 4838 0
49 -361 4839 0
49 -362 4840 0
49 -363 4841 0
49 -364 4842 0
49 -365 4848 0
49 -366 4849 0
49 -367 4850 0
49 -368 4851 0
49 -369 4852 0
49 -370 4853 0
49 -371 4854 0
49 -372 4855 0
49 -373 4839 0
49 -374 4852 0
49 -375 4845 0
49 -376 4858 0
49 -377 4845 0
49 -378 4876 0
49 -379 4877 0
49 -380 4858 0
49 -381 4864 0
49 -382 4866 0
49 -383 4842 0
49 -384 4874 0
49 -385 4855 0
49 -386 4862 0
49 -387 4841 0
49 -388 4854 0
49 -389 4843 0
49 -390 4856 0
49 -391 4841 0
49 -392 4854 0
49 -393 4844 0
49 -394 4874 0
49 -395 4875 0
49 -396 4876 0
49 -397 4857 0
49 -398 4862 0
49 -399 4863 0
49 -400 4864 0
49 -401 4842 0
49 -402 4855 0
49 -403 4875 0
49 -404 4876 0
49 -405 4877 0
49 -406 4878 0
49 -407 4879 0
49 -408 4880 0
49 -409 4881 0
49 -410 4882 0
49 -411 4863 0
49 -412 4864 0
49 -413 4866 0
49 -414 4867 0
49 -415 4868 0
49 -416 4869 0
49 -417 4870 0
49 -418 4871 0
49 -419 4847 0
49 -420 4865 0
49 -421 4873 0
49 -422 4874 0
49 -423 4875 0
49 -424 4876 0
49 -425 4877 0
49 -426 4878 0
49 -427 4879 0
49 -428 4880 0
49 -429 4861 0
49 -430 4862 0
49 -431 4863 0
49 -432 4864 0
49 -433 4866 0
49 -434 4867 0
49 -435 4868 0
49 -436 4869 0
49 -437 4843 0
49 -438 4856 0
49 -439 4844 0
49 -440 4857 0
49 -441 4874 0
49 -442 4880 0
49 -443 4882 0
49 -444 4862 0
49 -445 4869 0
49 -446 4871 0
49 -447 4844 0
49 -448 4857 0
49 -449 4843 0
49 -450 4845 0
49 -451 4882 0
49 -452 4856 0
49 -453 4858 0
49 -454 4871 0
49 -455 4846 0
49 -456 4847 0
49 -457 4859 0
49 -458 4865 0
49 -459 4875 0
49 -460 4876 0
49 -461 4877 0
49 -462 4878 0
49 -463 4879 0
49 -464 4880 0
49 -465 4881 0
49 -466 4882 0
49 -467 4863 0
49 -468 4864 0
49 -469 4866 0
49 -470 4867 0
49 -471 4868 0
49 -472 4869 0
49 -473 4870 0
49 -474 4871 0
49 -475 4841 0
49 -476 4854 0
49 -477 4874 0
49 -478 4876 0
49 -479 4878 0
49 -480 4880 0
49 -481 4862 0
49 -482 4864 0
49 -483 4867 0
49 -484 4869 0
49 -485 4836 0
49 -486 4837 0
49 -487 4838 0
49 -488 4839 0
49 -489 4840 0
49 -490 4844 0
49 -491 4880 0
49 -492 4881 0
49 -493 4849 0
49 -494 4850 0
49 -495 4851 0
49 -496 4852 0
49 -497 4853 0
49 -498 4857 0
49 -499 4869 0
49 -500 4870 0
49 -501 4872 0
49 -502 4873 0
49 -503 4874 0
49 -504 4875 0
49 -505 4876 0
49 -506 4877 0
49 -507 4878 0
49 -508 4879 0
49 -509 4880 0
49 -510 4881 0
49 -511 4882 0
49 -512 4860 0
49 -513 4861 0
49 -514 4862 0
49 -515 4863 0
49 -516 4864 0
49 -517 4866 0
49 -518 4867 0
49 -519 4868 0
49 -520 4869 0
49 -521 4870 0
49 -522 4871 0
49 -523 4873 0
49 -524 4874 0
49 -525 4875 0
49 -526 4876 0
49 -527 4877 0
49 -528 4878 0
49 -529 4879 0
49 -530 4861 0
49 -531 4862 0
49 -532 4863 0
49 -533 4864 0
49 -534 4866 0
49 -535 4867 0
49 -536 4868 0
49 -537 4842 0
49 -538 4855 0
49 -539 4835 0
49 -540 4836 0
49 -541 4837 0
49 -542 4838 0
49 -543 4840 0
49 -544 4848 0
49 -545 4849 0
49 -546 4850 0
49 -547 4851 0
49 -548 4853 0
49 -549 4874 0
49 -550 4875 0
49 -551 4876 0
49 -552 4877 0
49 -553 4878 0
49 -554 4879 0
49 -555 4880 0
49 -556 4881 0
49 -557 4862 0
49 -558 4863 0
49 -559 4864 0
49 -560 4866 0
49 -561 4867 0
49 -562 4868 0
49 -563 4869 0
49 -564 4870 0
49 -565 4874 0
49 -566 4875 0
49 -567 4876 0
49 -568 4877 0
49 -569 4878 0
49 -570 4879 0
49 -571 4880 0
49 -572 4881 0
49 -573 4862 0
49 -574 4863 0
49 -575 4864 0
49 -576 4866 0
49 -577 4867 0
49 -578 4868 0
49 -579 4869 0
49 -580 4870 0
49 -581 4842 0
49 -582 4872 0
49 -583 4873 0
49 -584 4874 0
49 -585 4855 0
49 -586 4860 0
49 -587 4861 0
49 -588 4862 0
49 -589 4841 0
49 -590 4854 0
49 -591 4874 0
49 -592 4862 0
49 -593 4839 0
49 -594 4852 0
49 -595 4836 0
49 -596 4844 0
49 -597 4874 0
49 -598 4875 0
49 -599 4876 0
49 -600 4877 0
49 -601 4878 0
49 -602 4879 0
49 -603 4880 0
49 -604 4881 0
49 -605 4849 0
49 -606 4857 0
49 -607 4862 0
49 -608 4863 0
49 -609 4864 0
49 -610 4866 0
49 -611 4867 0
49 -612 4868 0
49 -613 4869 0
49 -614 4870 0
49 -615 4846 0
49 -616 4847 0
49 -617 4859 0
49 -618 4865 0
49 -619 4836 0
49 -620 4837 0
49 -621 4843 0
49 -622 4849 0
49 -623 4850 0
49 -624 4856 0
49 -625 4843 0
49 -626 4856 0
49 -627 4845 0
49 -628 4858 0
49 -629 4840 0
49 -630 4853 0
49 -631 4842 0
49 -632 4855 0
49 -633 4839 0
49 -634 4852 0
49 -635 4841 0
49 -636 4854 0
49 -637 4840 0
49 -638 4853 0
49 -639 4843 0
49 -640 4856 0
49 -641 4844 0
49 -642 4857 0
49 -643 4839 0
49 -644 4852 0
49 -645 4845 0
49 -646 4876 0
49 -647 4877 0
49 -648 4878 0
49 -649 4879 0
49 -650 4880 0
49 -651 4881 0
49 -652 4882 0
49 -653 4858 0
49 -654 4864 0
49 -655 4866 0
49 -656 4867 0
49 -657 4868 0
49 -658 4869 0
49 -659 4870 0
49 -660 4871 0
49 -661 4837 0
49 -662 4838 0
49 -663 4839 0
49 -664 4840 0
49 -665 4850 0
49 -666 4851 0
49 -667 4852 0
49 -668 4853 0
49 -669 4841 0
49 -670 4854 0
49 -671 4836 0
49 -672 4838 0
49 -673 4840 0
49 -674 4849 0
49 -675 4851 0
49 -676 4853 0
49 -677 4847 0
49 -678 4865 0
49 -679 4845 0
49 -680 4858 0
49 -681 4838 0
49 -682 4839 0
49 -683 4840 0
49 -684 4841 0
49 -685 4851 0
49 -686 4852 0
49 -687 4853 0
49 -688 4854 0
49 -689 4875 0
49 -690 4876 0
49 -691 4877 0
49 -692 4878 0
49 -693 4879 0
49 -694 4880 0
49 -695 4881 0
49 -696 4882 0
49 -697 4863 0
49 -698 4864 0
49 -699 4866 0
49 -700 4867 0
49 -701 4868 0
49 -702 4869 0
49 -703 4870 0
49 -704 4871 0
49 -705 4846 0
49 -706 4859 0
49 -707 4844 0
49 -708 4857 0
49 -709 4847 0
49 -710 4865 0
49 -711 4846 0
49 -712 4859 0
49 -713 4839 0
49 -714 4852 0
49 -715 4843 0
49 -716 4856 0
49 -717 4843 0
49 -718 4856 0
49 -719 4846 0
49 -720 4859 0
49 -721 4843 0
49 -722 4856 0
49 -723 4836 0
49 -724 4837 0
49 -725 4838 0
49 -726 4839 0
49 -727 4849 0
49 -728 4850 0
49 -729 4851 0
49 -730 4852 0
49 -731 4875 0
49 -732 4878 0
49 -733 4879 0
49 -734 4880 0
49 -735 4881 0
49 -736 4882 0
49 -737 4863 0
49 -738 4867 0
49 -739 4868 0
49 -740 4869 0
49 -741 4870 0
49 -742 4871 0
49 -743 4873 0
49 -744 4874 0
49 -745 4875 0
49 -746 4876 0
49 -747 4877 0
49 -748 4878 0
49 -749 4879 0
49 -750 4880 0
49 -751 4881 0
49 -752 4882 0
49 -753 4861 0
49 -754 4862 0
49 -755 4863 0
49 -756 4864 0
49 -757 4866 0
49 -758 4867 0
49 -759 4868 0
49 -760 4869 0
49 -761 4870 0
49 -762 4871 0
49 -763 4874 0
49 -764 4879 0
49 -765 4880 0
49 -766 4881 0
49 -767 4862 0
49 -768 4868 0
49 -769 4869 0
49 -770 4870 0
49 -771 4875 0
49 -772 4876 0
49 -773 4877 0
49 -774 4878 0
49 -775 4879 0
49 -776 4880 0
49 -777 4881 0
49 -778 4882 0
49 -779 4863 0
49 -780 4864 0
49 -781 4866 0
49 -782 4867 0
49 -783 4868 0
49 -784 4869 0
49 -785 4870 0
49 -786 4871 0
49 -787 4839 0
49 -788 4852 0
49 -789 4846 0
49 -790 4859 0
49 -791 4875 0
49 -792 4876 0
49 -793 4877 0
49 -794 4878 0
49 -795 4879 0
49 -796 4880 0
49 -797 4881 0
49 -798 4882 0
49 -799 4863 0
49 -800 4864 0
49 -801 4866 0
49 -802 4867 0
49 -803 4868 0
49 -804 4869 0
49 -805 4870 0
49 -806 4871 0
49 -807 4840 0
49 -808 4853 0
49 -809 4841 0
49 -810 4854 0
49 -811 4843 0
49 -812 4856 0
49 -813 4840 0
49 -814 4853 0
49 -815 4846 0
49 -816 4859 0
49 -817 4845 0
49 -818 4874 0
49 -819 4875 0
49 -820 4858 0
49 -821 4862 0
49 -822 4863 0
49 -823 4846 0
49 -824 4859 0
49 -825 4839 0
49 -826 4852 0
49 -827 4844 0
49 -828 4857 0
49 -829 4841 0
49 -830 4842 0
49 -831 4843 0
49 -832 4844 0
49 -833 4849 0
49 -834 4850 0
49 -835 4851 0
49 -836 4852 0
49 -837 4853 0
49 -838 4854 0
49 -839 4855 0
49 -840 4856 0
49 -841 4857 0
49 -842 4873 0
49 -843 4874 0
49 -844 4836 0
49 -845 4837 0
49 -846 4838 0
49 -847 4839 0
49 -848 4840 0
49 -849 4841 0
49 -850 4842 0
49 -851 4843 0
49 -852 4844 0
49 -853 4854 0
49 -854 4855 0
49 -855 4856 0
49 -856 4857 0
49 -857 4861 0
49 -858 4862 0
49 -859 4836 0
49 -860 4837 0
49 -861 4838 0
49 -862 4839 0
49 -863 4843 0
49 -864 4849 0
49 -865 4850 0
49 -866 4851 0
49 -867 4852 0
49 -868 4856 0
49 -869 4839 0
49 -870 4852 0
49 -871 4840 0
49 -872 4853 0
49 -873 4839 0
49 -874 4852 0
49 -875 4840 0
49 -876 4841 0
49 -877 4842 0
49 -878 4843 0
49 -879 4844 0
49 -880 4845 0
49 -881 4860 0
49 -882 4861 0
49 -883 4862 0
49 -884 4863 0
49 -885 4864 0
49 -886 4866 0
49 -887 4867 0
49 -888 4868 0
49 -889 4869 0
49 -890 4870 0
49 -891 4871 0
49 -892 4872 0
49 -893 4873 0
49 -894 4874 0
49 -895 4875 0
49 -896 4876 0
49 -897 4877 0
49 -898 4878 0
49 -899 4879 0
49 -900 4880 0
49 -901 4881 0
49 -902 4882 0
49 -903 4853 0
49 -904 4854 0
49 -905 4855 0
49 -906 4856 0
49 -907 4857 0
49 -908 4858 0
49 -909 4860 0
49 -910 4861 0
49 -911 4862 0
49 -912 4863 0
49 -913 4864 0
49 -914 4866 0
49 -915 4867 0
49 -916 4868 0
49 -917 4869 0
49 -918 4870 0
49 -919 4871 0
49 -920 4872 0
49 -921 4873 0
49 -922 4874 0
49 -923 4875 0
49 -924 4876 0
49 -925 4877 0
49 -926 4878 0
49 -927 4879 0
49 -928 4880 0
49 -929 4881 0
49 -930 4882 0
49 -931 4836 0
49 -932 4837 0
49 -933 4838 0
49 -934 4839 0
49 -935 4840 0
49 -936 4841 0
49 -937 4849 0
49 -938 4850 0
49 -939 4851 0
49 -940 4852 0
49 -941 4853 0
49 -942 4854 0
49 -943 4842 0
49 -944 4855 0
49 -945 4846 0
49 -946 4859 0
49 -947 4835 0
49 -948 4836 0
49 -949 4837 0
49 -950 4838 0
49 -951 4839 0
49 -952 4840 0
49 -953 4842 0
49 -954 4848 0
49 -955 4835 0
49 -956 4848 0
49 -957 4849 0
49 -958 4850 0
49 -959 4851 0
49 -960 4852 0
49 -961 4853 0
49 -962 4855 0
49 -963 4875 0
49 -964 4876 0
49 -965 4877 0
49 -966 4878 0
49 -967 4879 0
49 -968 4880 0
49 -969 4881 0
49 -970 4882 0
49 -971 4863 0
49 -972 4864 0
49 -973 4866 0
49 -974 4867 0
49 -975 4868 0
49 -976 4869 0
49 -977 4870 0
49 -978 4871 0
49 -979 4875 0
49 -980 4876 0
49 -981 4877 0
49 -982 4878 0
49 -983 4879 0
49 -984 4880 0
49 -985 4881 0
49 -986 4882 0
49 -987 4863 0
49 -988 4864 0
49 -989 4866 0
49 -990 4867 0
49 -991 4868 0
49 -992 4869 0
49 -993 4870 0
49 -994 4871 0
49 -995 4873 0
49 -996 4874 0
49 -997 4875 0
49 -998 4876 0
49 -999 4877 0
49 -1000 4878 0
49 -1001 4879 0
49 -1002 4880 0
49 -1003 4861 0
49 -1004 4862 0
49 -1005 4863 0
49 -1006 4864 0
49 -1007 4866 0
49 -1008 4867 0
49 -1009 4868 0
49 -1010 4869 0
49 -1011 4842 0
49 -1012 4855 0
49 -1013 4841 0
49 -1014 4854 0
49 -1015 4847 0
49 -1016 4865 0
49 -1017 4845 0
49 -1018 4858 0
49 -1019 4841 0
49 -1020 4854 0
49 -1021 4875 0
49 -1022 4876 0
49 -1023 4877 0
49 -1024 4878 0
49 -1025 4879 0
49 -1026 4880 0
49 -1027 4881 0
49 -1028 4882 0
49 -1029 4863 0
49 -1030 4864 0
49 -1031 4866 0
49 -1032 4867 0
49 -1033 4868 0
49 -1034 4869 0
49 -1035 4870 0
49 -1036 4871 0
49 -1037 4874 0
49 -1038 4862 0
49 -1039 4875 0
49 -1040 4876 0
49 -1041 4877 0
49 -1042 4878 0
49 -1043 4879 0
49 -1044 4880 0
49 -1045 4881 0
49 -1046 4882 0
49 -1047 4863 0
49 -1048 4864 0
49 -1049 4866 0
49 -1050 4867 0
49 -1051 4868 0
49 -1052 4869 0
49 -1053 4870 0
49 -1054 4871 0
49 -1055 4847 0
49 -1056 4865 0
49 -1057 4839 0
49 -1058 4852 0
49 -1059 4843 0
49 -1060 4856 0
49 -1061 4875 0
49 -1062 4863 0
49 -1063 4873 0
49 -1064 4874 0
49 -1065 4875 0
49 -1066 4876 0
49 -1067 4877 0
49 -1068 4878 0
49 -1069 4879 0
49 -1070 4880 0
49 -1071 4861 0
49 -1072 4862 0
49 -1073 4863 0
49 -1074 4864 0
49 -1075 4866 0
49 -1076 4867 0
49 -1077 4868 0
49 -1078 4869 0
49 -1079 4875 0
49 -1080 4876 0
49 -1081 4877 0
49 -1082 4878 0
49 -1083 4879 0
49 -1084 4880 0
49 -1085 4881 0
49 -1086 4882 0
49 -1087 4863 0
49 -1088 4864 0
49 -1089 4866 0
49 -1090 4867 0
49 -1091 4868 0
49 -1092 4869 0
49 -1093 4870 0
49 -1094 4871 0
49 -1095 4843 0
49 -1096 4856 0
49 -1097 4839 0
49 -1098 4852 0
49 -1099 4872 0
49 -1100 4860 0
49 -1101 4839 0
49 -1102 4852 0
49 -1103 4874 0
49 -1104 4862 0
49 -1105 4843 0
49 -1106 4856 0
49 -1107 4874 0
49 -1108 4880 0
49 -1109 4881 0
49 -1110 4862 0
49 -1111 4869 0
49 -1112 4870 0
49 -1113 4842 0
49 -1114 4855 0
49 -1115 4874 0
49 -1116 4875 0
49 -1117 4876 0
49 -1118 4877 0
49 -1119 4878 0
49 -1120 4879 0
49 -1121 4880 0
49 -1122 4881 0
49 -1123 4862 0
49 -1124 4863 0
49 -1125 4864 0
49 -1126 4866 0
49 -1127 4867 0
49 -1128 4868 0
49 -1129 4869 0
49 -1130 4870 0
49 -1131 4843 0
49 -1132 4856 0
49 -1133 4847 0
49 -1134 4865 0
49 -1135 4875 0
49 -1136 4876 0
49 -1137 4877 0
49 -1138 4878 0
49 -1139 4879 0
49 -1140 4880 0
49 -1141 4881 0
49 -1142 4882 0
49 -1143 4863 0
49 -1144 4864 0
49 -1145 4866 0
49 -1146 4867 0
49 -1147 4868 0
49 -1148 4869 0
49 -1149 4870 0
49 -1150 4871 0
49 -1151 4844 0
49 -1152 4873 0
49 -1153 4874 0
49 -1154 4875 0
49 -1155 4857 0
49 -1156 4861 0
49 -1157 4862 0
49 -1158 4863 0
49 -1159 4835 0
49 -1160 4841 0
49 -1161 4845 0
49 -1162 4848 0
49 -1163 4849 0
49 -1164 4850 0
49 -1165 4851 0
49 -1166 4852 0
49 -1167 4853 0
49 -1168 4854 0
49 -1169 4855 0
49 -1170 4856 0
49 -1171 4857 0
49 -1172 4858 0
49 -1173 4835 0
49 -1174 4836 0
49 -1175 4837 0
49 -1176 4838 0
49 -1177 4839 0
49 -1178 4840 0
49 -1179 4841 0
49 -1180 4842 0
49 -1181 4843 0
49 -1182 4844 0
49 -1183 4845 0
49 -1184 4848 0
49 -1185 4854 0
49 -1186 4858 0
49 -1187 4844 0
49 -1188 4846 0
49 -1189 4847 0
49 -1190 4857 0
49 -1191 4859 0
49 -1192 4865 0
49 -1193 4873 0
49 -1194 4861 0
49 -1195 4836 0
49 -1196 4837 0
49 -1197 4838 0
49 -1198 4839 0
49 -1199 4840 0
49 -1200 4841 0
49 -1201 4849 0
49 -1202 4850 0
49 -1203 4851 0
49 -1204 4852 0
49 -1205 4853 0
49 -1206 4854 0
49 -1207 4844 0
49 -1208 4857 0
49 -1209 4846 0
49 -1210 4859 0
49 -1211 4845 0
49 -1212 4848 0
49 -1213 4849 0
49 -1214 4850 0
49 -1215 4851 0
49 -1216 4852 0
49 -1217 4853 0
49 -1218 4835 0
49 -1219 4836 0
49 -1220 4837 0
49 -1221 4838 0
49 -1222 4839 0
49 -1223 4840 0
49 -1224 4858 0
49 -1225 4843 0
49 -1226 4856 0
49 -1227 4846 0
49 -1228 4847 0
49 -1229 4859 0
49 -1230 4865 0
49 -1231 4847 0
49 -1232 4865 0
49 -1233 4839 0
49 -1234 4852 0
49 -1235 4873 0
49 -1236 4875 0
49 -1237 4876 0
49 -1238 4877 0
49 -1239 4878 0
49 -1240 4879 0
49 -1241 4880 0
49 -1242 4861 0
49 -1243 4863 0
49 -1244 4864 0
49 -1245 4866 0
49 -1246 4867 0
49 -1247 4868 0
49 -1248 4869 0
49 -1249 4836 0
49 -1250 4837 0
49 -1251 4838 0
49 -1252 4839 0
49 -1253 4849 0
49 -1254 4850 0
49 -1255 4851 0
49 -1256 4852 0
49 -1257 4842 0
49 -1258 4855 0
49 -1259 4841 0
49 -1260 4854 0
49 -1261 4840 0
49 -1262 4877 0
49 -1263 4878 0
49 -1264 4879 0
49 -1265 4880 0
49 -1266 4881 0
49 -1267 4882 0
49 -1268 4853 0
49 -1269 4866 0
49 -1270 4867 0
49 -1271 4868 0
49 -1272 4869 0
49 -1273 4870 0
49 -1274 4871 0
49 -1275 4874 0
49 -1276 4875 0
49 -1277 4876 0
49 -1278 4877 0
49 -1279 4878 0
49 -1280 4879 0
49 -1281 4880 0
49 -1282 4881 0
49 -1283 4862 0
49 -1284 4863 0
49 -1285 4864 0
49 -1286 4866 0
49 -1287 4867 0
49 -1288 4868 0
49 -1289 4869 0
49 -1290 4870 0
49 -1291 4845 0
49 -1292 4878 0
49 -1293 4879 0
49 -1294 4880 0
49 -1295 4881 0
49 -1296 4882 0
49 -1297 4858 0
49 -1298 4867 0
49 -1299 4868 0
49 -1300 4869 0
49 -1301 4870 0
49 -1302 4871 0
49 -1303 4845 0
49 -1304 4858 0
49 -1305 4874 0
49 -1306 4879 0
49 -1307 4880 0
49 -1308 4881 0
49 -1309 4862 0
49 -1310 4868 0
49 -1311 4869 0
49 -1312 4870 0
49 -1313 4844 0
49 -1314 4857 0
49 -1315 4843 0
49 -1316 4856 0
49 -1317 4843 0
49 -1318 4856 0
49 -1319 4843 0
49 -1320 4856 0
49 -1321 4875 0
49 -1322 4878 0
49 -1323 4879 0
49 -1324 4880 0
49 -1325 4881 0
49 -1326 4882 0
49 -1327 4863 0
49 -1328 4867 0
49 -1329 4868 0
49 -1330 4869 0
49 -1331 4870 0
49 -1332 4871 0
49 -1333 4846 0
49 -1334 4859 0
49 -1335 4845 0
49 -1336 4858 0
49 -1337 4872 0
49 -1338 4860 0
49 -1339 4847 0
49 -1340 4865 0
49 -1341 4875 0
49 -1342 4876 0
49 -1343 4877 0
49 -1344 4878 0
49 -1345 4879 0
49 -1346 4880 0
49 -1347 4881 0
49 -1348 4882 0
49 -1349 4863 0
49 -1350 4864 0
49 -1351 4866 0
49 -1352 4867 0
49 -1353 4868 0
49 -1354 4869 0
49 -1355 4870 0
49 -1356 4871 0
49 -1357 4847 0
49 -1358 4865 0
49 -1359 4847 0
49 -1360 4865 0
49 -1361 4845 0
49 -1362 4858 0
49 -1363 4845 0
49 -1364 4858 0
49 -1365 4844 0
49 -1366 4880 0
49 -1367 4881 0
49 -1368 4857 0
49 -1369 4869 0
49 -1370 4870 0
49 -1371 4845 0
49 -1372 4871 0
49 -1373 4872 0
49 -1374 4873 0
49 -1375 4874 0
49 -1376 4875 0
49 -1377 4876 0
49 -1378 4877 0
49 -1379 4880 0
49 -1380 4881 0
49 -1381 4882 0
49 -1382 4858 0
49 -1383 4860 0
49 -1384 4861 0
49 -1385 4862 0
49 -1386 4863 0
49 -1387 4864 0
49 -1388 4866 0
49 -1389 4869 0
49 -1390 4870 0
49 -1391 4871 0
49 -1392 4882 0
49 -1393 4842 0
49 -1394 4855 0
49 -1395 4839 0
49 -1396 4870 0
49 -1397 4871 0
49 -1398 4872 0
49 -1399 4873 0
49 -1400 4874 0
49 -1401 4875 0
49 -1402 4876 0
49 -1403 4877 0
49 -1404 4878 0
49 -1405 4879 0
49 -1406 4880 0
49 -1407 4881 0
49 -1408 4882 0
49 -1409 4852 0
49 -1410 4860 0
49 -1411 4861 0
49 -1412 4862 0
49 -1413 4863 0
49 -1414 4864 0
49 -1415 4866 0
49 -1416 4867 0
49 -1417 4868 0
49 -1418 4869 0
49 -1419 4870 0
49 -1420 4871 0
49 -1421 4881 0
49 -1422 4882 0
49 -1423 4841 0
49 -1424 4854 0
49 -1425 4844 0
49 -1426 4857 0
49 -1427 4844 0
49 -1428 4857 0
49 -1429 4839 0
49 -1430 4879 0
49 -1431 4880 0
49 -1432 4881 0
49 -1433 4882 0
49 -1434 4852 0
49 -1435 4868 0
49 -1436 4869 0
49 -1437 4870 0
49 -1438 4871 0
49 -1439 4845 0
49 -1440 4858 0
49 -1441 4841 0
49 -1442 4854 0
49 -1443 4875 0
49 -1444 4878 0
49 -1445 4879 0
49 -1446 4880 0
49 -1447 4881 0
49 -1448 4882 0
49 -1449 4863 0
49 -1450 4867 0
49 -1451 4868 0
49 -1452 4869 0
49 -1453 4870 0
49 -1454 4871 0
49 -1455 4838 0
49 -1456 4839 0
49 -1457 4840 0
49 -1458 4841 0
49 -1459 4842 0
49 -1460 4843 0
49 -1461 4844 0
49 -1462 4851 0
49 -1463 4852 0
49 -1464 4853 0
49 -1465 4854 0
49 -1466 4855 0
49 -1467 4856 0
49 -1468 4857 0
49 -1469 4843 0
49 -1470 4856 0
49 -1471 4839 0
49 -1472 4852 0
49 -1473 4875 0
49 -1474 4876 0
49 -1475 4877 0
49 -1476 4878 0
49 -1477 4879 0
49 -1478 4880 0
49 -1479 4881 0
49 -1480 4882 0
49 -1481 4863 0
49 -1482 4864 0
49 -1483 4866 0
49 -1484 4867 0
49 -1485 4868 0
49 -1486 4869 0
49 -1487 4870 0
49 -1488 4871 0
49 -1489 4875 0
49 -1490 4876 0
49 -1491 4877 0
49 -1492 4878 0
49 -1493 4879 0
49 -1494 4880 0
49 -1495 4881 0
49 -1496 4882 0
49 -1497 4863 0
49 -1498 4864 0
49 -1499 4866 0
49 -1500 4867 0
49 -1501 4868 0
49 -1502 4869 0
49 -1503 4870 0
49 -1504 4871 0
49 -1505 4872 0
49 -1506 4860 0
49 -1507 4873 0
49 -1508 4874 0
49 -1509 4875 0
49 -1510 4876 0
49 -1511 4877 0
49 -1512 4878 0
49 -1513 4879 0
49 -1514 4880 0
49 -1515 4881 0
49 -1516 4882 0
49 -1517 4861 0
49 -1518 4862 0
49 -1519 4863 0
49 -1520 4864 0
49 -1521 4866 0
49 -1522 4867 0
49 -1523 4868 0
49 -1524 4869 0
49 -1525 4870 0
49 -1526 4871 0
49 -1527 4836 0
49 -1528 4837 0
49 -1529 4838 0
49 -1530 4839 0
49 -1531 4840 0
49 -1532 4841 0
49 -1533 4857 0
49 -1534 4861 0
49 -1535 4862 0
49 -1536 4863 0
49 -1537 4864 0
49 -1538 4866 0
49 -1539 4867 0
49 -1540 4868 0
49 -1541 4869 0
49 -1542 4870 0
49 -1543 4878 0
49 -1544 4879 0
49 -1545 4880 0
49 -1546 4881 0
49 -1547 4844 0
49 -1548 4849 0
49 -1549 4850 0
49 -1550 4851 0
49 -1551 4852 0
49 -1552 4853 0
49 -1553 4854 0
49 -1554 4867 0
49 -1555 4868 0
49 -1556 4869 0
49 -1557 4870 0
49 -1558 4873 0
49 -1559 4874 0
49 -1560 4875 0
49 -1561 4876 0
49 -1562 4877 0
49 -1563 4878 0
49 -1564 4879 0
49 -1565 4880 0
49 -1566 4881 0
49 -1567 4875 0
49 -1568 4876 0
49 -1569 4877 0
49 -1570 4878 0
49 -1571 4879 0
49 -1572 4880 0
49 -1573 4881 0
49 -1574 4882 0
49 -1575 4863 0
49 -1576 4864 0
49 -1577 4866 0
49 -1578 4867 0
49 -1579 4868 0
49 -1580 4869 0
49 -1581 4870 0
49 -1582 4871 0
49 -1583 4872 0
49 -1584 4873 0
49 -1585 4874 0
49 -1586 4875 0
49 -1587 4876 0
49 -1588 4877 0
49 -1589 4878 0
49 -1590 4879 0
49 -1591 4860 0
49 -1592 4861 0
49 -1593 4862 0
49 -1594 4863 0
49 -1595 4864 0
49 -1596 4866 0
49 -1597 4867 0
49 -1598 4868 0
49 -1599 4842 0
49 -1600 4855 0
49 -1601 4875 0
49 -1602 4878 0
49 -1603 4879 0
49 -1604 4880 0
49 -1605 4881 0
49 -1606 4882 0
49 -1607 4863 0
49 -1608 4867 0
49 -1609 4868 0
49 -1610 4869 0
49 -1611 4870 0
49 -1612 4871 0
49 -1613 4844 0
49 -1614 4857 0
49 -1615 4872 0
49 -1616 4873 0
49 -1617 4874 0
49 -1618 4875 0
49 -1619 4876 0
49 -1620 4877 0
49 -1621 4878 0
49 -1622 4879 0
49 -1623 4860 0
49 -1624 4861 0
49 -1625 4862 0
49 -1626 4863 0
49 -1627 4864 0
49 -1628 4866 0
49 -1629 4867 0
49 -1630 4868 0
49 -1631 4846 0
49 -1632 4859 0
49 -1633 4845 0
49 -1634 4858 0
49 -1635 4873 0
49 -1636 4861 0
49 -1637 4842 0
49 -1638 4855 0
49 -1639 4874 0
49 -1640 4862 0
49 -1641 4835 0
49 -1642 4836 0
49 -1643 4842 0
49 -1644 4872 0
49 -1645 4873 0
49 -1646 4874 0
49 -1647 4848 0
49 -1648 4849 0
49 -1649 4855 0
49 -1650 4860 0
49 -1651 4861 0
49 -1652 4862 0
49 -1653 4841 0
49 -1654 4854 0
49 -1655 4874 0
49 -1656 4875 0
49 -1657 4876 0
49 -1658 4877 0
49 -1659 4878 0
49 -1660 4879 0
49 -1661 4880 0
49 -1662 4881 0
49 -1663 4862 0
49 -1664 4863 0
49 -1665 4864 0
49 -1666 4866 0
49 -1667 4867 0
49 -1668 4868 0
49 -1669 4869 0
49 -1670 4870 0
49 -1671 4840 0
49 -1672 4853 0
49 -1673 4873 0
49 -1674 4880 0
49 -1675 4861 0
49 -1676 4869 0
49 -1677 4875 0
49 -1678 4876 0
49 -1679 4877 0
49 -1680 4878 0
49 -1681 4879 0
49 -1682 4880 0
49 -1683 4881 0
49 -1684 4882 0
49 -1685 4863 0
49 -1686 4864 0
49 -1687 4866 0
49 -1688 4867 0
49 -1689 4868 0
49 -1690 4869 0
49 -1691 4870 0
49 -1692 4871 0
49 -1693 4844 0
49 -1694 4857 0
49 -1695 4842 0
49 -1696 4855 0
49 -1697 4844 0
49 -1698 4881 0
49 -1699 4857 0
49 -1700 4870 0
49 -1701 4874 0
49 -1702 4875 0
49 -1703 4876 0
49 -1704 4877 0
49 -1705 4878 0
49 -1706 4879 0
49 -1707 4880 0
49 -1708 4881 0
49 -1709 4862 0
49 -1710 4863 0
49 -1711 4864 0
49 -1712 4866 0
49 -1713 4867 0
49 -1714 4868 0
49 -1715 4869 0
49 -1716 4870 0
49 -1717 4839 0
49 -1718 4852 0
49 -1719 4841 0
49 -1720 4854 0
49 -1721 4875 0
49 -1722 4863 0
49 -1723 4847 0
49 -1724 4865 0
49 -1725 4847 0
49 -1726 4865 0
49 -1727 4846 0
49 -1728 4859 0
49 -1729 4873 0
49 -1730 4874 0
49 -1731 4875 0
49 -1732 4876 0
49 -1733 4877 0
49 -1734 4878 0
49 -1735 4879 0
49 -1736 4880 0
49 -1737 4861 0
49 -1738 4862 0
49 -1739 4863 0
49 -1740 4864 0
49 -1741 4866 0
49 -1742 4867 0
49 -1743 4868 0
49 -1744 4869 0
49 -1745 4846 0
49 -1746 4859 0
49 -1747 4840 0
49 -1748 4853 0
49 -1749 4873 0
49 -1750 4874 0
49 -1751 4875 0
49 -1752 4876 0
49 -1753 4877 0
49 -1754 4878 0
49 -1755 4879 0
49 -1756 4880 0
49 -1757 4861 0
49 -1758 4862 0
49 -1759 4863 0
49 -1760 4864 0
49 -1761 4866 0
49 -1762 4867 0
49 -1763 4868 0
49 -1764 4869 0
49 -1765 4844 0
49 -1766 4857 0
49 -1767 4844 0
49 -1768 4857 0
49 -1769 4844 0
49 -1770 4846 0
49 -1771 4857 0
49 -1772 4859 0
49 -1773 4847 0
49 -1774 4865 0
49 -1775 4844 0
49 -1776 4857 0
49 -1777 4836 0
49 -1778 4837 0
49 -1779 4841 0
49 -1780 4843 0
49 -1781 4844 0
49 -1782 4849 0
49 -1783 4850 0
49 -1784 4870 0
49 -1785 4873 0
49 -1786 4836 0
49 -1787 4837 0
49 -1788 4849 0
49 -1789 4850 0
49 -1790 4854 0
49 -1791 4856 0
49 -1792 4857 0
49 -1793 4861 0
49 -1794 4881 0
49 -1795 4835 0
49 -1796 4836 0
49 -1797 4837 0
49 -1798 4838 0
49 -1799 4842 0
49 -1800 4848 0
49 -1801 4849 0
49 -1802 4850 0
49 -1803 4851 0
49 -1804 4855 0
49 -1805 4847 0
49 -1806 4857 0
49 -1807 4844 0
49 -1808 4865 0
49 -1809 4843 0
49 -1810 4856 0
49 -1811 4846 0
49 -1812 4859 0
49 -1813 4841 0
49 -1814 4854 0
49 -1815 4847 0
49 -1816 4865 0
49 -1817 4872 0
49 -1818 4873 0
49 -1819 4874 0
49 -1820 4875 0
49 -1821 4876 0
49 -1822 4877 0
49 -1823 4878 0
49 -1824 4879 0
49 -1825 4880 0
49 -1826 4881 0
49 -1827 4882 0
49 -1828 4860 0
49 -1829 4861 0
49 -1830 4862 0
49 -1831 4863 0
49 -1832 4864 0
49 -1833 4866 0
49 -1834 4867 0
49 -1835 4868 0
49 -1836 4869 0
49 -1837 4870 0
49 -1838 4871 0
49 -1839 4874 0
49 -1840 4862 0
49 -1841 4875 0
49 -1842 4863 0
49 -1843 4840 0
49 -1844 4853 0
49 -1845 4840 0
49 -1846 4853 0
49 -1847 4842 0
49 -1848 4855 0
49 -1849 4875 0
49 -1850 4876 0
49 -1851 4877 0
49 -1852 4878 0
49 -1853 4879 0
49 -1854 4880 0
49 -1855 4881 0
49 -1856 4882 0
49 -1857 4863 0
49 -1858 4864 0
49 -1859 4866 0
49 -1860 4867 0
49 -1861 4868 0
49 -1862 4869 0
49 -1863 4870 0
49 -1864 4871 0
49 -1865 4840 0
49 -1866 4853 0
49 -1867 4872 0
49 -1868 4881 0
49 -1869 4882 0
49 -1870 4860 0
49 -1871 4870 0
49 -1872 4871 0
49 -1873 4846 0
49 -1874 4859 0
49 -1875 4839 0
49 -1876 4852 0
49 -1877 4846 0
49 -1878 4859 0
49 -1879 4843 0
49 -1880 4856 0
49 -1881 4873 0
49 -1882 4881 0
49 -1883 4882 0
49 -1884 4861 0
49 -1885 4870 0
49 -1886 4871 0
49 -1887 4874 0
49 -1888 4862 0
49 -1889 4845 0
49 -1890 4858 0
49 -1891 4846 0
49 -1892 4859 0
49 -1893 4875 0
49 -1894 4863 0
49 -1895 4847 0
49 -1896 4865 0
49 -1897 4843 0
49 -1898 4856 0
49 -1899 4846 0
49 -1900 4859 0
49 -1901 4839 0
49 -1902 4852 0
49 -1903 4841 0
49 -1904 4854 0
49 -1905 4847 0
49 -1906 4865 0
49 -1907 4839 0
49 -1908 4852 0
49 -1909 4843 0
49 -1910 4873 0
49 -1911 4874 0
49 -1912 4875 0
49 -1913 4876 0
49 -1914 4877 0
49 -1915 4878 0
49 -1916 4879 0
49 -1917 4880 0
49 -1918 4881 0
49 -1919 4882 0
49 -1920 4856 0
49 -1921 4861 0
49 -1922 4862 0
49 -1923 4863 0
49 -1924 4864 0
49 -1925 4866 0
49 -1926 4867 0
49 -1927 4868 0
49 -1928 4869 0
49 -1929 4870 0
49 -1930 4871 0
49 -1931 4872 0
49 -1932 4860 0
49 -1933 4840 0
49 -1934 4853 0
49 -1935 4845 0
49 -1936 4858 0
49 -1937 4846 0
49 -1938 4859 0
49 -1939 4839 0
49 -1940 4852 0
49 -1941 4840 0
49 -1942 4853 0
49 -1943 4875 0
49 -1944 4879 0
49 -1945 4880 0
49 -1946 4881 0
49 -1947 4882 0
49 -1948 4863 0
49 -1949 4868 0
49 -1950 4869 0
49 -1951 4870 0
49 -1952 4871 0
49 -1953 4874 0
49 -1954 4875 0
49 -1955 4876 0
49 -1956 4877 0
49 -1957 4878 0
49 -1958 4879 0
49 -1959 4880 0
49 -1960 4881 0
49 -1961 4862 0
49 -1962 4863 0
49 -1963 4864 0
49 -1964 4866 0
49 -1965 4867 0
49 -1966 4868 0
49 -1967 4869 0
49 -1968 4870 0
49 -1969 4874 0
49 -1970 4879 0
49 -1971 4880 0
49 -1972 4862 0
49 -1973 4868 0
49 -1974 4869 0
49 -1975 4839 0
49 -1976 4852 0
49 -1977 4842 0
49 -1978 4855 0
49 -1979 4875 0
49 -1980 4876 0
49 -1981 4877 0
49 -1982 4878 0
49 -1983 4879 0
49 -1984 4880 0
49 -1985 4881 0
49 -1986 4882 0
49 -1987 4863 0
49 -1988 4864 0
49 -1989 4866 0
49 -1990 4867 0
49 -1991 4868 0
49 -1992 4869 0
49 -1993 4870 0
49 -1994 4871 0
49 -1995 4847 0
49 -1996 4865 0
49 -1997 4835 0
49 -1998 4836 0
49 -1999 4837 0
49 -2000 4872 0
49 -2001 4873 0
49 -2002 4874 0
49 -2003 4875 0
49 -2004 4876 0
49 -2005 4877 0
49 -2006 4878 0
49 -2007 4879 0
49 -2008 4880 0
49 -2009 4881 0
49 -2010 4882 0
49 -2011 4848 0
49 -2012 4849 0
49 -2013 4850 0
49 -2014 4860 0
49 -2015 4861 0
49 -2016 4862 0
49 -2017 4863 0
49 -2018 4864 0
49 -2019 4866 0
49 -2020 4867 0
49 -2021 4868 0
49 -2022 4869 0
49 -2023 4870 0
49 -2024 4871 0
49 -2025 4846 0
49 -2026 4859 0
49 -2027 4872 0
49 -2028 4873 0
49 -2029 4874 0
49 -2030 4875 0
49 -2031 4876 0
49 -2032 4877 0
49 -2033 4878 0
49 -2034 4879 0
49 -2035 4860 0
49 -2036 4861 0
49 -2037 4862 0
49 -2038 4863 0
49 -2039 4864 0
49 -2040 4866 0
49 -2041 4867 0
49 -2042 4868 0
49 -2043 4840 0
49 -2044 4853 0
49 -2045 4836 0
49 -2046 4837 0
49 -2047 4838 0
49 -2048 4839 0
49 -2049 4849 0
49 -2050 4850 0
49 -2051 4851 0
49 -2052 4852 0
49 -2053 4847 0
49 -2054 4865 0
49 -2055 4845 0
49 -2056 4858 0
49 -2057 4844 0
49 -2058 4857 0
49 -2059 4844 0
49 -2060 4857 0
49 -2061 4839 0
49 -2062 4852 0
49 -2063 4840 0
49 -2064 4853 0
49 -2065 4844 0
49 -2066 4874 0
49 -2067 4875 0
49 -2068 4876 0
49 -2069 4877 0
49 -2070 4878 0
49 -2071 4879 0
49 -2072 4880 0
49 -2073 4881 0
49 -2074 4857 0
49 -2075 4862 0
49 -2076 4863 0
49 -2077 4864 0
49 -2078 4866 0
49 -2079 4867 0
49 -2080 4868 0
49 -2081 4869 0
49 -2082 4870 0
49 -2083 4844 0
49 -2084 4857 0
49 -2085 4843 0
49 -2086 4856 0
49 -2087 4872 0
49 -2088 4873 0
49 -2089 4874 0
49 -2090 4875 0
49 -2091 4876 0
49 -2092 4877 0
49 -2093 4878 0
49 -2094 4879 0
49 -2095 4860 0
49 -2096 4861 0
49 -2097 4862 0
49 -2098 4863 0
49 -2099 4864 0
49 -2100 4866 0
49 -2101 4867 0
49 -2102 4868 0
49 -2103 4839 0
49 -2104 4852 0
49 -2105 4839 0
49 -2106 4852 0
49 -2107 4846 0
49 -2108 4859 0
49 -2109 4839 0
49 -2110 4852 0
49 -2111 4840 0
49 -2112 4874 0
49 -2113 4875 0
49 -2114 4879 0
49 -2115 4880 0
49 -2116 4881 0
49 -2117 4882 0
49 -2118 4853 0
49 -2119 4862 0
49 -2120 4863 0
49 -2121 4868 0
49 -2122 4869 0
49 -2123 4870 0
49 -2124 4871 0
49 -2125 4874 0
49 -2126 4879 0
49 -2127 4880 0
49 -2128 4881 0
49 -2129 4862 0
49 -2130 4868 0
49 -2131 4869 0
49 -2132 4870 0
49 -2133 4875 0
49 -2134 4876 0
49 -2135 4877 0
49 -2136 4878 0
49 -2137 4879 0
49 -2138 4880 0
49 -2139 4881 0
49 -2140 4882 0
49 -2141 4863 0
49 -2142 4864 0
49 -2143 4866 0
49 -2144 4867 0
49 -2145 4868 0
49 -2146 4869 0
49 -2147 4870 0
49 -2148 4871 0
49 -2149 4839 0
49 -2150 4852 0
49 -2151 4872 0
49 -2152 4860 0
49 -2153 4843 0
49 -2154 4856 0
49 -2155 4842 0
49 -2156 4855 0
49 -2157 4844 0
49 -2158 4857 0
49 -2159 4840 0
49 -2160 4853 0
49 -2161 4842 0
49 -2162 4855 0
49 -2163 4873 0
49 -2164 4874 0
49 -2165 4875 0
49 -2166 4876 0
49 -2167 4877 0
49 -2168 4878 0
49 -2169 4879 0
49 -2170 4880 0
49 -2171 4861 0
49 -2172 4862 0
49 -2173 4863 0
49 -2174 4864 0
49 -2175 4866 0
49 -2176 4867 0
49 -2177 4868 0
49 -2178 4869 0
49 -2179 4846 0
49 -2180 4859 0
49 -2181 4875 0
49 -2182 4863 0
49 -2183 4874 0
49 -2184 4880 0
49 -2185 4881 0
49 -2186 4862 0
49 -2187 4869 0
49 -2188 4870 0
49 -2189 4845 0
49 -2190 4858 0
49 -2191 4839 0
49 -2192 4852 0
49 -2193 4846 0
49 -2194 4859 0
49 -2195 4845 0
49 -2196 4858 0
49 -2197 4835 0
49 -2198 4836 0
49 -2199 4837 0
49 -2200 4838 0
49 -2201 4839 0
49 -2202 4845 0
49 -2203 4848 0
49 -2204 4849 0
49 -2205 4850 0
49 -2206 4851 0
49 -2207 4852 0
49 -2208 4858 0
49 -2209 4840 0
49 -2210 4853 0
49 -2211 4843 0
49 -2212 4856 0
49 -2213 4847 0
49 -2214 4865 0
49 -2215 4874 0
49 -2216 4875 0
49 -2217 4876 0
49 -2218 4877 0
49 -2219 4878 0
49 -2220 4879 0
49 -2221 4880 0
49 -2222 4881 0
49 -2223 4862 0
49 -2224 4863 0
49 -2225 4864 0
49 -2226 4866 0
49 -2227 4867 0
49 -2228 4868 0
49 -2229 4869 0
49 -2230 4870 0
49 -2231 4843 0
49 -2232 4856 0
49 -2233 4847 0
49 -2234 4865 0
49 -2235 4845 0
49 -2236 4858 0
49 -2237 4872 0
49 -2238 4873 0
49 -2239 4874 0
49 -2240 4875 0
49 -2241 4876 0
49 -2242 4877 0
49 -2243 4878 0
49 -2244 4879 0
49 -2245 4860 0
49 -2246 4861 0
49 -2247 4862 0
49 -2248 4863 0
49 -2249 4864 0
49 -2250 4866 0
49 -2251 4867 0
49 -2252 4868 0
49 -2253 4844 0
49 -2254 4857 0
49 -2255 4844 0
49 -2256 4857 0
49 -2257 4844 0
49 -2258 4857 0
49 -2259 4843 0
49 -2260 4856 0
49 -2261 4843 0
49 -2262 4856 0
49 -2263 4873 0
49 -2264 4874 0
49 -2265 4875 0
49 -2266 4876 0
49 -2267 4877 0
49 -2268 4878 0
49 -2269 4879 0
49 -2270 4880 0
49 -2271 4861 0
49 -2272 4862 0
49 -2273 4863 0
49 -2274 4864 0
49 -2275 4866 0
49 -2276 4867 0
49 -2277 4868 0
49 -2278 4869 0
49 -2279 4872 0
49 -2280 4882 0
49 -2281 4860 0
49 -2282 4871 0
49 -2283 4842 0
49 -2284 4855 0
49 -2285 4875 0
49 -2286 4863 0
49 -2287 4841 0
49 -2288 4854 0
49 -2289 4843 0
49 -2290 4856 0
49 -2291 4847 0
49 -2292 4865 0
49 -2293 4872 0
49 -2294 4860 0
49 -2295 4836 0
49 -2296 4837 0
49 -2297 4838 0
49 -2298 4839 0
49 -2299 4840 0
49 -2300 4841 0
49 -2301 4842 0
49 -2302 4843 0
49 -2303 4882 0
49 -2304 4849 0
49 -2305 4850 0
49 -2306 4851 0
49 -2307 4852 0
49 -2308 4853 0
49 -2309 4854 0
49 -2310 4855 0
49 -2311 4856 0
49 -2312 4871 0
49 -2313 4839 0
49 -2314 4852 0
49 -2315 4841 0
49 -2316 4854 0
49 -2317 4875 0
49 -2318 4876 0
49 -2319 4877 0
49 -2320 4878 0
49 -2321 4879 0
49 -2322 4880 0
49 -2323 4881 0
49 -2324 4882 0
49 -2325 4863 0
49 -2326 4864 0
49 -2327 4866 0
49 -2328 4867 0
49 -2329 4868 0
49 -2330 4869 0
49 -2331 4870 0
49 -2332 4871 0
49 -2333 4846 0
49 -2334 4859 0
49 -2335 4875 0
49 -2336 4876 0
49 -2337 4877 0
49 -2338 4878 0
49 -2339 4879 0
49 -2340 4880 0
49 -2341 4881 0
49 -2342 4882 0
49 -2343 4863 0
49 -2344 4864 0
49 -2345 4866 0
49 -2346 4867 0
49 -2347 4868 0
49 -2348 4869 0
49 -2349 4870 0
49 -2350 4871 0
49 -2351 4839 0
49 -2352 4852 0
49 -2353 4844 0
49 -2354 4857 0
49 -2355 4839 0
49 -2356 4852 0
49 -2357 4875 0
49 -2358 4876 0
49 -2359 4877 0
49 -2360 4878 0
49 -2361 4879 0
49 -2362 4880 0
49 -2363 4881 0
49 -2364 4882 0
49 -2365 4863 0
49 -2366 4864 0
49 -2367 4866 0
49 -2368 4867 0
49 -2369 4868 0
49 -2370 4869 0
49 -2371 4870 0
49 -2372 4871 0
49 -2373 4872 0
49 -2374 4860 0
49 -2375 4845 0
49 -2376 4858 0
49 -2377 4874 0
49 -2378 4875 0
49 -2379 4876 0
49 -2380 4877 0
49 -2381 4878 0
49 -2382 4879 0
49 -2383 4880 0
49 -2384 4881 0
49 -2385 4862 0
49 -2386 4863 0
49 -2387 4864 0
49 -2388 4866 0
49 -2389 4867 0
49 -2390 4868 0
49 -2391 4869 0
49 -2392 4870 0
49 -2393 4840 0
49 -2394 4853 0
49 -2395 4847 0
49 -2396 4865 0
49 -2397 4875 0
49 -2398 4878 0
49 -2399 4879 0
49 -2400 4880 0
49 -2401 4881 0
49 -2402 4882 0
49 -2403 4863 0
49 -2404 4867 0
49 -2405 4868 0
49 -2406 4869 0
49 -2407 4870 0
49 -2408 4871 0
49 -2409 4839 0
49 -2410 4852 0
49 -2411 4873 0
49 -2412 4861 0
49 -2413 4846 0
49 -2414 4859 0
49 -2415 4875 0
49 -2416 4876 0
49 -2417 4877 0
49 -2418 4878 0
49 -2419 4879 0
49 -2420 4880 0
49 -2421 4881 0
49 -2422 4882 0
49 -2423 4863 0
49 -2424 4864 0
49 -2425 4866 0
49 -2426 4867 0
49 -2427 4868 0
49 -2428 4869 0
49 -2429 4870 0
49 -2430 4871 0
49 -2431 4872 0
49 -2432 4860 0
49 -2433 4836 0
49 -2434 4837 0
49 -2435 4838 0
49 -2436 4839 0
49 -2437 4849 0
49 -2438 4850 0
49 -2439 4851 0
49 -2440 4852 0
49 -2441 4845 0
49 -2442 4858 0
49 -2443 4842 0
49 -2444 4855 0
49 -2445 4840 0
49 -2446 4853 0
49 -2447 4847 0
49 -2448 4865 0
49 -2449 4874 0
49 -2450 4875 0
49 -2451 4876 0
49 -2452 4877 0
49 -2453 4878 0
49 -2454 4879 0
49 -2455 4880 0
49 -2456 4881 0
49 -2457 4862 0
49 -2458 4863 0
49 -2459 4864 0
49 -2460 4866 0
49 -2461 4867 0
49 -2462 4868 0
49 -2463 4869 0
49 -2464 4870 0
49 -2465 4840 0
49 -2466 4853 0
49 -2467 4842 0
49 -2468 4855 0
49 -2469 4836 0
49 -2470 4844 0
49 -2471 4849 0
49 -2472 4857 0
49 -2473 4875 0
49 -2474 4876 0
49 -2475 4877 0
49 -2476 4878 0
49 -2477 4879 0
49 -2478 4880 0
49 -2479 4881 0
49 -2480 4882 0
49 -2481 4863 0
49 -2482 4864 0
49 -2483 4866 0
49 -2484 4867 0
49 -2485 4868 0
49 -2486 4869 0
49 -2487 4870 0
49 -2488 4871 0
49 -2489 4872 0
49 -2490 4873 0
49 -2491 4874 0
49 -2492 4875 0
49 -2493 4876 0
49 -2494 4877 0
49 -2495 4878 0
49 -2496 4879 0
49 -2497 4880 0
49 -2498 4881 0
49 -2499 4882 0
49 -2500 4860 0
49 -2501 4861 0
49 -2502 4862 0
49 -2503 4863 0
49 -2504 4864 0
49 -2505 4866 0
49 -2506 4867 0
49 -2507 4868 0
49 -2508 4869 0
49 -2509 4870 0
49 -2510 4871 0
49 -2511 4845 0
49 -2512 4858 0
49 -2513 4840 0
49 -2514 4853 0
49 -2515 4874 0
49 -2516 4862 0
49 -2517 4873 0
49 -2518 4874 0
49 -2519 4875 0
49 -2520 4876 0
49 -2521 4877 0
49 -2522 4878 0
49 -2523 4879 0
49 -2524 4880 0
49 -2525 4861 0
49 -2526 4862 0
49 -2527 4863 0
49 -2528 4864 0
49 -2529 4866 0
49 -2530 4867 0
49 -2531 4868 0
49 -2532 4869 0
49 -2533 4847 0
49 -2534 4865 0
49 -2535 4843 0
49 -2536 4856 0
49 -2537 4836 0
49 -2538 4837 0
49 -2539 4838 0
49 -2540 4839 0
49 -2541 4849 0
49 -2542 4850 0
49 -2543 4851 0
49 -2544 4852 0
49 -2545 4875 0
49 -2546 4863 0
49 -2547 4835 0
49 -2548 4836 0
49 -2549 4842 0
49 -2550 4848 0
49 -2551 4849 0
49 -2552 4855 0
49 -2553 4839 0
49 -2554 4852 0
49 -2555 4842 0
49 -2556 4855 0
49 -2557 4842 0
49 -2558 4855 0
49 -2559 4873 0
49 -2560 4874 0
49 -2561 4875 0
49 -2562 4876 0
49 -2563 4877 0
49 -2564 4878 0
49 -2565 4879 0
49 -2566 4880 0
49 -2567 4861 0
49 -2568 4862 0
49 -2569 4863 0
49 -2570 4864 0
49 -2571 4866 0
49 -2572 4867 0
49 -2573 4868 0
49 -2574 4869 0
49 -2575 4840 0
49 -2576 4853 0
49 -2577 4844 0
49 -2578 4857 0
49 -2579 4841 0
49 -2580 4854 0
49 -2581 4846 0
49 -2582 4859 0
49 -2583 4840 0
49 -2584 4853 0
49 -2585 4845 0
49 -2586 4858 0
49 -2587 4872 0
49 -2588 4873 0
49 -2589 4874 0
49 -2590 4875 0
49 -2591 4876 0
49 -2592 4877 0
49 -2593 4878 0
49 -2594 4879 0
49 -2595 4860 0
49 -2596 4861 0
49 -2597 4862 0
49 -2598 4863 0
49 -2599 4864 0
49 -2600 4866 0
49 -2601 4867 0
49 -2602 4868 0
49 -2603 4843 0
49 -2604 4856 0
49 -2605 4839 0
49 -2606 4852 0
49 -2607 4873 0
49 -2608 4874 0
49 -2609 4875 0
49 -2610 4876 0
49 -2611 4877 0
49 -2612 4878 0
49 -2613 4879 0
49 -2614 4880 0
49 -2615 4881 0
49 -2616 4882 0
49 -2617 4861 0
49 -2618 4862 0
49 -2619 4863 0
49 -2620 4864 0
49 -2621 4866 0
49 -2622 4867 0
49 -2623 4868 0
49 -2624 4869 0
49 -2625 4870 0
49 -2626 4871 0
49 -2627 4874 0
49 -2628 4875 0
49 -2629 4876 0
49 -2630 4877 0
49 -2631 4878 0
49 -2632 4879 0
49 -2633 4880 0
49 -2634 4881 0
49 -2635 4862 0
49 -2636 4863 0
49 -2637 4864 0
49 -2638 4866 0
49 -2639 4867 0
49 -2640 4868 0
49 -2641 4869 0
49 -2642 4870 0
49 -2643 4873 0
49 -2644 4874 0
49 -2645 4875 0
49 -2646 4876 0
49 -2647 4877 0
49 -2648 4878 0
49 -2649 4879 0
49 -2650 4880 0
49 -2651 4861 0
49 -2652 4862 0
49 -2653 4863 0
49 -2654 4864 0
49 -2655 4866 0
49 -2656 4867 0
49 -2657 4868 0
49 -2658 4869 0
49 -2659 4839 0
49 -2660 4852 0
49 -2661 4839 0
49 -2662 4852 0
49 -2663 4842 0
49 -2664 4855 0
49 -2665 4845 0
49 -2666 4848 0
49 -2667 4849 0
49 -2668 4850 0
49 -2669 4851 0
49 -2670 4852 0
49 -2671 4853 0
49 -2672 4854 0
49 -2673 4855 0
49 -2674 4856 0
49 -2675 4857 0
49 -2676 4858 0
49 -2677 4835 0
49 -2678 4836 0
49 -2679 4837 0
49 -2680 4838 0
49 -2681 4839 0
49 -2682 4840 0
49 -2683 4841 0
49 -2684 4842 0
49 -2685 4843 0
49 -2686 4844 0
49 -2687 4845 0
49 -2688 4858 0
49 -2689 4872 0
49 -2690 4873 0
49 -2691 4874 0
49 -2692 4875 0
49 -2693 4876 0
49 -2694 4877 0
49 -2695 4878 0
49 -2696 4879 0
49 -2697 4860 0
49 -2698 4861 0
49 -2699 4862 0
49 -2700 4863 0
49 -2701 4864 0
49 -2702 4866 0
49 -2703 4867 0
49 -2704 4868 0
49 -2705 4874 0
49 -2706 4862 0
49 -2707 4843 0
49 -2708 4844 0
49 -2709 4845 0
49 -2710 4872 0
49 -2711 4873 0
49 -2712 4874 0
49 -2713 4875 0
49 -2714 4856 0
49 -2715 4857 0
49 -2716 4858 0
49 -2717 4860 0
49 -2718 4861 0
49 -2719 4862 0
49 -2720 4863 0
49 -2721 4839 0
49 -2722 4852 0
49 -2723 4843 0
49 -2724 4856 0
49 -2725 4846 0
49 -2726 4859 0
49 -2727 4875 0
49 -2728 4876 0
49 -2729 4877 0
49 -2730 4878 0
49 -2731 4879 0
49 -2732 4880 0
49 -2733 4881 0
49 -2734 4882 0
49 -2735 4863 0
49 -2736 4864 0
49 -2737 4866 0
49 -2738 4867 0
49 -2739 4868 0
49 -2740 4869 0
49 -2741 4870 0
49 -2742 4871 0
49 -2743 4874 0
49 -2744 4875 0
49 -2745 4876 0
49 -2746 4877 0
49 -2747 4878 0
49 -2748 4879 0
49 -2749 4880 0
49 -2750 4881 0
49 -2751 4862 0
49 -2752 4863 0
49 -2753 4864 0
49 -2754 4866 0
49 -2755 4867 0
49 -2756 4868 0
49 -2757 4869 0
49 -2758 4870 0
49 -2759 4875 0
49 -2760 4879 0
49 -2761 4880 0
49 -2762 4881 0
49 -2763 4882 0
49 -2764 4863 0
49 -2765 4868 0
49 -2766 4869 0
49 -2767 4870 0
49 -2768 4871 0
49 -2769 4875 0
49 -2770 4863 0
49 -2771 4872 0
49 -2772 4860 0
49 -2773 4846 0
49 -2774 4859 0
49 -2775 4847 0
49 -2776 4865 0
49 -2777 4840 0
49 -2778 4853 0
49 -2779 4841 0
49 -2780 4854 0
49 -2781 4836 0
49 -2782 4837 0
49 -2783 4843 0
49 -2784 4849 0
49 -2785 4850 0
49 -2786 4856 0
49 -2787 4875 0
49 -2788 4863 0
49 -2789 4845 0
49 -2790 4858 0
49 -2791 4839 0
49 -2792 4852 0
49 -2793 4875 0
49 -2794 4876 0
49 -2795 4877 0
49 -2796 4878 0
49 -2797 4879 0
49 -2798 4880 0
49 -2799 4881 0
49 -2800 4882 0
49 -2801 4863 0
49 -2802 4864 0
49 -2803 4866 0
49 -2804 4867 0
49 -2805 4868 0
49 -2806 4869 0
49 -2807 4870 0
49 -2808 4871 0
49 -2809 4845 0
49 -2810 4858 0
49 -2811 4875 0
49 -2812 4876 0
49 -2813 4877 0
49 -2814 4878 0
49 -2815 4879 0
49 -2816 4880 0
49 -2817 4881 0
49 -2818 4882 0
49 -2819 4863 0
49 -2820 4864 0
49 -2821 4866 0
49 -2822 4867 0
49 -2823 4868 0
49 -2824 4869 0
49 -2825 4870 0
49 -2826 4871 0
49 -2827 4874 0
49 -2828 4875 0
49 -2829 4876 0
49 -2830 4877 0
49 -2831 4878 0
49 -2832 4879 0
49 -2833 4880 0
49 -2834 4881 0
49 -2835 4862 0
49 -2836 4863 0
49 -2837 4864 0
49 -2838 4866 0
49 -2839 4867 0
49 -2840 4868 0
49 -2841 4869 0
49 -2842 4870 0
49 -2843 4843 0
49 -2844 4856 0
49 -2845 4875 0
49 -2846 4878 0
49 -2847 4879 0
49 -2848 4880 0
49 -2849 4881 0
49 -2850 4882 0
49 -2851 4863 0
49 -2852 4867 0
49 -2853 4868 0
49 -2854 4869 0
49 -2855 4870 0
49 -2856 4871 0
49 -2857 4839 0
49 -2858 4852 0
49 -2859 4873 0
49 -2860 4874 0
49 -2861 4875 0
49 -2862 4876 0
49 -2863 4877 0
49 -2864 4878 0
49 -2865 4879 0
49 -2866 4880 0
49 -2867 4861 0
49 -2868 4862 0
49 -2869 4863 0
49 -2870 4864 0
49 -2871 4866 0
49 -2872 4867 0
49 -2873 4868 0
49 -2874 4869 0
49 -2875 4875 0
49 -2876 4878 0
49 -2877 4879 0
49 -2878 4880 0
49 -2879 4881 0
49 -2880 4882 0
49 -2881 4863 0
49 -2882 4867 0
49 -2883 4868 0
49 -2884 4869 0
49 -2885 4870 0
49 -2886 4871 0
