c Dataset: scen04
c Encoding: DSE
c DecisionVars: 1960
c OrderVars: 0
c CardinalityAuxVars: 2380
c LabelVars: 48
c TotalVars: 4388
c OrderClauses: 0
c CardinalityClauses: 5530
c DistanceClauses: 3794
c LabelLinkClauses: 1960
c SoftClauses: 48
c HardClauses: 11284
c TotalClauses: 11332
p wcnf 4388 11332 49
1 -4341 0
1 -4342 0
1 -4343 0
1 -4344 0
1 -4345 0
1 -4346 0
1 -4347 0
1 -4348 0
1 -4349 0
1 -4350 0
1 -4351 0
1 -4352 0
1 -4353 0
1 -4354 0
1 -4355 0
1 -4356 0
1 -4357 0
1 -4358 0
1 -4359 0
1 -4360 0
1 -4361 0
1 -4362 0
1 -4363 0
1 -4364 0
1 -4365 0
1 -4366 0
1 -4367 0
1 -4368 0
1 -4369 0
1 -4370 0
1 -4371 0
1 -4372 0
1 -4373 0
1 -4374 0
1 -4375 0
1 -4376 0
1 -4377 0
1 -4378 0
1 -4379 0
1 -4380 0
1 -4381 0
1 -4382 0
1 -4383 0
1 -4384 0
1 -4385 0
1 -4386 0
1 -4387 0
1 -4388 0
49 1 0
49 2 0
49 3 4 5 6 0
49 -1963 1961 1964 0
49 -1962 1961 1964 0
49 -1962 -1963 1964 0
49 -1964 0
49 -6 1963 1965 0
49 -5 1963 1965 0
49 -5 -6 1965 0
49 -1965 0
49 -4 1962 1966 0
49 -3 1962 1966 0
49 -3 -4 1966 0
49 -1966 0
49 7 8 9 10 0
49 -1969 1967 1970 0
49 -1968 1967 1970 0
49 -1968 -1969 1970 0
49 -1970 0
49 -10 1969 1971 0
49 -9 1969 1971 0
49 -9 -10 1971 0
49 -1971 0
49 -8 1968 1972 0
49 -7 1968 1972 0
49 -7 -8 1972 0
49 -1972 0
49 11 0
49 12 0
49 13 0
49 14 0
49 15 0
49 16 0
49 17 18 19 20 21 22 0
49 -1975 1973 1976 0
49 -1974 1973 1976 0
49 -1974 -1975 1976 0
49 -1976 0
49 -22 1975 1978 0
49 -1977 1975 1978 0
49 -1977 -22 1978 0
49 -1978 0
49 -21 1977 1979 0
49 -20 1977 1979 0
49 -20 -21 1979 0
49 -1979 0
49 -19 1974 1981 0
49 -1980 1974 1981 0
49 -1980 -19 1981 0
49 -1981 0
49 -18 1980 1982 0
49 -17 1980 1982 0
49 -17 -18 1982 0
49 -1982 0
49 23 24 25 26 27 28 0
49 -1985 1983 1986 0
49 -1984 1983 1986 0
49 -1984 -1985 1986 0
49 -1986 0
49 -28 1985 1988 0
49 -1987 1985 1988 0
49 -1987 -28 1988 0
49 -1988 0
49 -27 1987 1989 0
49 -26 1987 1989 0
49 -26 -27 1989 0
49 -1989 0
49 -25 1984 1991 0
49 -1990 1984 1991 0
49 -1990 -25 1991 0
49 -1991 0
49 -24 1990 1992 0
49 -23 1990 1992 0
49 -23 -24 1992 0
49 -1992 0
49 29 0
49 30 0
49 31 0
49 32 0
49 33 34 35 36 37 38 39 40 41 42 43 0
49 -1995 1993 1996 0
49 -1994 1993 1996 0
49 -1994 -1995 1996 0
49 -1996 0
49 -1998 1995 1999 0
49 -1997 1995 1999 0
49 -1997 -1998 1999 0
49 -1999 0
49 -43 1998 2000 0
49 -42 1998 2000 0
49 -42 -43 2000 0
49 -2000 0
49 -41 1997 2002 0
49 -2001 1997 2002 0
49 -2001 -41 2002 0
49 -2002 0
49 -40 2001 2003 0
49 -39 2001 2003 0
49 -39 -40 2003 0
49 -2003 0
49 -2005 1994 2006 0
49 -2004 1994 2006 0
49 -2004 -2005 2006 0
49 -2006 0
49 -38 2005 2008 0
49 -2007 2005 2008 0
49 -2007 -38 2008 0
49 -2008 0
49 -37 2007 2009 0
49 -36 2007 2009 0
49 -36 -37 2009 0
49 -2009 0
49 -35 2004 2011 0
49 -2010 2004 2011 0
49 -2010 -35 2011 0
49 -2011 0
49 -34 2010 2012 0
49 -33 2010 2012 0
49 -33 -34 2012 0
49 -2012 0
49 44 45 46 47 48 49 50 51 52 53 54 0
49 -2015 2013 2016 0
49 -2014 2013 2016 0
49 -2014 -2015 2016 0
49 -2016 0
49 -2018 2015 2019 0
49 -2017 2015 2019 0
49 -2017 -2018 2019 0
49 -2019 0
49 -54 2018 2020 0
49 -53 2018 2020 0
49 -53 -54 2020 0
49 -2020 0
49 -52 2017 2022 0
49 -2021 2017 2022 0
49 -2021 -52 2022 0
49 -2022 0
49 -51 2021 2023 0
49 -50 2021 2023 0
49 -50 -51 2023 0
49 -2023 0
49 -2025 2014 2026 0
49 -2024 2014 2026 0
49 -2024 -2025 2026 0
49 -2026 0
49 -49 2025 2028 0
49 -2027 2025 2028 0
49 -2027 -49 2028 0
49 -2028 0
49 -48 2027 2029 0
49 -47 2027 2029 0
49 -47 -48 2029 0
49 -2029 0
49 -46 2024 2031 0
49 -2030 2024 2031 0
49 -2030 -46 2031 0
49 -2031 0
49 -45 2030 2032 0
49 -44 2030 2032 0
49 -44 -45 2032 0
49 -2032 0
49 55 56 57 0
49 -57 2033 2035 0
49 -2034 2033 2035 0
49 -2034 -57 2035 0
49 -2035 0
49 -56 2034 2036 0
49 -55 2034 2036 0
49 -55 -56 2036 0
49 -2036 0
49 58 59 60 0
49 -60 2037 2039 0
49 -2038 2037 2039 0
49 -2038 -60 2039 0
49 -2039 0
49 -59 2038 2040 0
49 -58 2038 2040 0
49 -58 -59 2040 0
49 -2040 0
49 61 0
49 62 0
49 63 64 65 0
49 -65 2041 2043 0
49 -2042 2041 2043 0
49 -2042 -65 2043 0
49 -2043 0
49 -64 2042 2044 0
49 -63 2042 2044 0
49 -63 -64 2044 0
49 -2044 0
49 66 67 68 0
49 -68 2045 2047 0
49 -2046 2045 2047 0
49 -2046 -68 2047 0
49 -2047 0
49 -67 2046 2048 0
49 -66 2046 2048 0
49 -66 -67 2048 0
49 -2048 0
49 69 0
49 70 0
49 71 0
49 72 0
49 73 0
49 74 0
49 75 0
49 76 0
49 77 78 79 80 81 82 83 84 85 86 0
49 -2051 2049 2052 0
49 -2050 2049 2052 0
49 -2050 -2051 2052 0
49 -2052 0
49 -2054 2051 2055 0
49 -2053 2051 2055 0
49 -2053 -2054 2055 0
49 -2055 0
49 -86 2054 2056 0
49 -85 2054 2056 0
49 -85 -86 2056 0
49 -2056 0
49 -84 2053 2058 0
49 -2057 2053 2058 0
49 -2057 -84 2058 0
49 -2058 0
49 -83 2057 2059 0
49 -82 2057 2059 0
49 -82 -83 2059 0
49 -2059 0
49 -2061 2050 2062 0
49 -2060 2050 2062 0
49 -2060 -2061 2062 0
49 -2062 0
49 -81 2061 2063 0
49 -80 2061 2063 0
49 -80 -81 2063 0
49 -2063 0
49 -79 2060 2065 0
49 -2064 2060 2065 0
49 -2064 -79 2065 0
49 -2065 0
49 -78 2064 2066 0
49 -77 2064 2066 0
49 -77 -78 2066 0
49 -2066 0
49 87 88 89 90 91 92 93 94 95 96 0
49 -2069 2067 2070 0
49 -2068 2067 2070 0
49 -2068 -2069 2070 0
49 -2070 0
49 -2072 2069 2073 0
49 -2071 2069 2073 0
49 -2071 -2072 2073 0
49 -2073 0
49 -96 2072 2074 0
49 -95 2072 2074 0
49 -95 -96 2074 0
49 -2074 0
49 -94 2071 2076 0
49 -2075 2071 2076 0
49 -2075 -94 2076 0
49 -2076 0
49 -93 2075 2077 0
49 -92 2075 2077 0
49 -92 -93 2077 0
49 -2077 0
49 -2079 2068 2080 0
49 -2078 2068 2080 0
49 -2078 -2079 2080 0
49 -2080 0
49 -91 2079 2081 0
49 -90 2079 2081 0
49 -90 -91 2081 0
49 -2081 0
49 -89 2078 2083 0
49 -2082 2078 2083 0
49 -2082 -89 2083 0
49 -2083 0
49 -88 2082 2084 0
49 -87 2082 2084 0
49 -87 -88 2084 0
49 -2084 0
49 97 0
49 98 0
49 99 100 0
49 -99 -100 0
49 101 102 0
49 -101 -102 0
49 103 0
49 104 0
49 105 0
49 106 0
49 107 108 0
49 -107 -108 0
49 109 110 0
49 -109 -110 0
49 111 0
49 112 0
49 113 114 0
49 -113 -114 0
49 115 116 0
49 -115 -116 0
49 117 118 119 120 0
49 -2087 2085 2088 0
49 -2086 2085 2088 0
49 -2086 -2087 2088 0
49 -2088 0
49 -120 2087 2089 0
49 -119 2087 2089 0
49 -119 -120 2089 0
49 -2089 0
49 -118 2086 2090 0
49 -117 2086 2090 0
49 -117 -118 2090 0
49 -2090 0
49 121 122 123 124 0
49 -2093 2091 2094 0
49 -2092 2091 2094 0
49 -2092 -2093 2094 0
49 -2094 0
49 -124 2093 2095 0
49 -123 2093 2095 0
49 -123 -124 2095 0
49 -2095 0
49 -122 2092 2096 0
49 -121 2092 2096 0
49 -121 -122 2096 0
49 -2096 0
49 125 0
49 126 0
49 127 0
49 128 0
49 129 0
49 130 0
49 131 0
49 132 0
49 133 134 0
49 -133 -134 0
49 135 136 0
49 -135 -136 0
49 137 0
49 138 0
49 139 0
49 140 0
49 141 0
49 142 0
49 143 0
49 144 0
49 145 0
49 146 0
49 147 0
49 148 0
49 149 0
49 150 0
49 151 0
49 152 0
49 153 0
49 154 0
49 155 0
49 156 0
49 157 0
49 158 0
49 159 0
49 160 0
49 161 0
49 162 0
49 163 0
49 164 0
49 165 166 167 168 169 0
49 -2099 2097 2100 0
49 -2098 2097 2100 0
49 -2098 -2099 2100 0
49 -2100 0
49 -169 2099 2101 0
49 -168 2099 2101 0
49 -168 -169 2101 0
49 -2101 0
49 -167 2098 2103 0
49 -2102 2098 2103 0
49 -2102 -167 2103 0
49 -2103 0
49 -166 2102 2104 0
49 -165 2102 2104 0
49 -165 -166 2104 0
49 -2104 0
49 170 171 172 173 174 0
49 -2107 2105 2108 0
49 -2106 2105 2108 0
49 -2106 -2107 2108 0
49 -2108 0
49 -174 2107 2109 0
49 -173 2107 2109 0
49 -173 -174 2109 0
49 -2109 0
49 -172 2106 2111 0
49 -2110 2106 2111 0
49 -2110 -172 2111 0
49 -2111 0
49 -171 2110 2112 0
49 -170 2110 2112 0
49 -170 -171 2112 0
49 -2112 0
49 175 0
49 176 0
49 177 0
49 178 0
49 179 0
49 180 0
49 181 0
49 182 0
49 183 184 185 186 187 0
49 -2115 2113 2116 0
49 -2114 2113 2116 0
49 -2114 -2115 2116 0
49 -2116 0
49 -187 2115 2117 0
49 -186 2115 2117 0
49 -186 -187 2117 0
49 -2117 0
49 -185 2114 2119 0
49 -2118 2114 2119 0
49 -2118 -185 2119 0
49 -2119 0
49 -184 2118 2120 0
49 -183 2118 2120 0
49 -183 -184 2120 0
49 -2120 0
49 188 189 190 191 192 0
49 -2123 2121 2124 0
49 -2122 2121 2124 0
49 -2122 -2123 2124 0
49 -2124 0
49 -192 2123 2125 0
49 -191 2123 2125 0
49 -191 -192 2125 0
49 -2125 0
49 -190 2122 2127 0
49 -2126 2122 2127 0
49 -2126 -190 2127 0
49 -2127 0
49 -189 2126 2128 0
49 -188 2126 2128 0
49 -188 -189 2128 0
49 -2128 0
49 193 194 0
49 -193 -194 0
49 195 196 0
49 -195 -196 0
49 197 0
49 198 0
49 199 200 201 0
49 -201 2129 2131 0
49 -2130 2129 2131 0
49 -2130 -201 2131 0
49 -2131 0
49 -200 2130 2132 0
49 -199 2130 2132 0
49 -199 -200 2132 0
49 -2132 0
49 202 203 204 0
49 -204 2133 2135 0
49 -2134 2133 2135 0
49 -2134 -204 2135 0
49 -2135 0
49 -203 2134 2136 0
49 -202 2134 2136 0
49 -202 -203 2136 0
49 -2136 0
49 205 0
49 206 0
49 207 0
49 208 0
49 209 0
49 210 0
49 211 0
49 212 0
49 213 214 215 216 217 218 219 220 221 0
49 -2139 2137 2140 0
49 -2138 2137 2140 0
49 -2138 -2139 2140 0
49 -2140 0
49 -2142 2139 2143 0
49 -2141 2139 2143 0
49 -2141 -2142 2143 0
49 -2143 0
49 -221 2142 2144 0
49 -220 2142 2144 0
49 -220 -221 2144 0
49 -2144 0
49 -219 2141 2145 0
49 -218 2141 2145 0
49 -218 -219 2145 0
49 -2145 0
49 -2147 2138 2148 0
49 -2146 2138 2148 0
49 -2146 -2147 2148 0
49 -2148 0
49 -217 2147 2149 0
49 -216 2147 2149 0
49 -216 -217 2149 0
49 -2149 0
49 -215 2146 2151 0
49 -2150 2146 2151 0
49 -2150 -215 2151 0
49 -2151 0
49 -214 2150 2152 0
49 -213 2150 2152 0
49 -213 -214 2152 0
49 -2152 0
49 222 223 224 225 226 227 228 229 230 0
49 -2155 2153 2156 0
49 -2154 2153 2156 0
49 -2154 -2155 2156 0
49 -2156 0
49 -2158 2155 2159 0
49 -2157 2155 2159 0
49 -2157 -2158 2159 0
49 -2159 0
49 -230 2158 2160 0
49 -229 2158 2160 0
49 -229 -230 2160 0
49 -2160 0
49 -228 2157 2161 0
49 -227 2157 2161 0
49 -227 -228 2161 0
49 -2161 0
49 -2163 2154 2164 0
49 -2162 2154 2164 0
49 -2162 -2163 2164 0
49 -2164 0
49 -226 2163 2165 0
49 -225 2163 2165 0
49 -225 -226 2165 0
49 -2165 0
49 -224 2162 2167 0
49 -2166 2162 2167 0
49 -2166 -224 2167 0
49 -2167 0
49 -223 2166 2168 0
49 -222 2166 2168 0
49 -222 -223 2168 0
49 -2168 0
49 231 0
49 232 0
49 233 0
49 234 0
49 235 0
49 236 0
49 237 238 239 240 241 242 243 244 0
49 -2171 2169 2172 0
49 -2170 2169 2172 0
49 -2170 -2171 2172 0
49 -2172 0
49 -2174 2171 2175 0
49 -2173 2171 2175 0
49 -2173 -2174 2175 0
49 -2175 0
49 -244 2174 2176 0
49 -243 2174 2176 0
49 -243 -244 2176 0
49 -2176 0
49 -242 2173 2177 0
49 -241 2173 2177 0
49 -241 -242 2177 0
49 -2177 0
49 -2179 2170 2180 0
49 -2178 2170 2180 0
49 -2178 -2179 2180 0
49 -2180 0
49 -240 2179 2181 0
49 -239 2179 2181 0
49 -239 -240 2181 0
49 -2181 0
49 -238 2178 2182 0
49 -237 2178 2182 0
49 -237 -238 2182 0
49 -2182 0
49 245 246 247 248 249 250 251 252 0
49 -2185 2183 2186 0
49 -2184 2183 2186 0
49 -2184 -2185 2186 0
49 -2186 0
49 -2188 2185 2189 0
49 -2187 2185 2189 0
49 -2187 -2188 2189 0
49 -2189 0
49 -252 2188 2190 0
49 -251 2188 2190 0
49 -251 -252 2190 0
49 -2190 0
49 -250 2187 2191 0
49 -249 2187 2191 0
49 -249 -250 2191 0
49 -2191 0
49 -2193 2184 2194 0
49 -2192 2184 2194 0
49 -2192 -2193 2194 0
49 -2194 0
49 -248 2193 2195 0
49 -247 2193 2195 0
49 -247 -248 2195 0
49 -2195 0
49 -246 2192 2196 0
49 -245 2192 2196 0
49 -245 -246 2196 0
49 -2196 0
49 253 0
49 254 0
49 255 256 257 258 259 260 261 262 0
49 -2199 2197 2200 0
49 -2198 2197 2200 0
49 -2198 -2199 2200 0
49 -2200 0
49 -2202 2199 2203 0
49 -2201 2199 2203 0
49 -2201 -2202 2203 0
49 -2203 0
49 -262 2202 2204 0
49 -261 2202 2204 0
49 -261 -262 2204 0
49 -2204 0
49 -260 2201 2205 0
49 -259 2201 2205 0
49 -259 -260 2205 0
49 -2205 0
49 -2207 2198 2208 0
49 -2206 2198 2208 0
49 -2206 -2207 2208 0
49 -2208 0
49 -258 2207 2209 0
49 -257 2207 2209 0
49 -257 -258 2209 0
49 -2209 0
49 -256 2206 2210 0
49 -255 2206 2210 0
49 -255 -256 2210 0
49 -2210 0
49 263 264 265 266 267 268 269 270 0
49 -2213 2211 2214 0
49 -2212 2211 2214 0
49 -2212 -2213 2214 0
49 -2214 0
49 -2216 2213 2217 0
49 -2215 2213 2217 0
49 -2215 -2216 2217 0
49 -2217 0
49 -270 2216 2218 0
49 -269 2216 2218 0
49 -269 -270 2218 0
49 -2218 0
49 -268 2215 2219 0
49 -267 2215 2219 0
49 -267 -268 2219 0
49 -2219 0
49 -2221 2212 2222 0
49 -2220 2212 2222 0
49 -2220 -2221 2222 0
49 -2222 0
49 -266 2221 2223 0
49 -265 2221 2223 0
49 -265 -266 2223 0
49 -2223 0
49 -264 2220 2224 0
49 -263 2220 2224 0
49 -263 -264 2224 0
49 -2224 0
49 271 272 0
49 -271 -272 0
49 273 274 0
49 -273 -274 0
49 275 0
49 276 0
49 277 0
49 278 0
49 279 280 281 0
49 -281 2225 2227 0
49 -2226 2225 2227 0
49 -2226 -281 2227 0
49 -2227 0
49 -280 2226 2228 0
49 -279 2226 2228 0
49 -279 -280 2228 0
49 -2228 0
49 282 283 284 0
49 -284 2229 2231 0
49 -2230 2229 2231 0
49 -2230 -284 2231 0
49 -2231 0
49 -283 2230 2232 0
49 -282 2230 2232 0
49 -282 -283 2232 0
49 -2232 0
49 285 0
49 286 0
49 287 288 0
49 -287 -288 0
49 289 290 0
49 -289 -290 0
49 291 0
49 292 0
49 293 0
49 294 0
49 295 0
49 296 0
49 297 0
49 298 0
49 299 0
49 300 0
49 301 0
49 302 0
49 303 0
49 304 0
49 305 306 307 0
49 -307 2233 2235 0
49 -2234 2233 2235 0
49 -2234 -307 2235 0
49 -2235 0
49 -306 2234 2236 0
49 -305 2234 2236 0
49 -305 -306 2236 0
49 -2236 0
49 308 309 310 0
49 -310 2237 2239 0
49 -2238 2237 2239 0
49 -2238 -310 2239 0
49 -2239 0
49 -309 2238 2240 0
49 -308 2238 2240 0
49 -308 -309 2240 0
49 -2240 0
49 311 0
49 312 0
49 313 0
49 314 0
49 315 0
49 316 0
49 317 0
49 318 0
49 319 0
49 320 0
49 321 0
49 322 0
49 323 0
49 324 0
49 325 0
49 326 0
49 327 0
49 328 0
49 329 0
49 330 0
49 331 0
49 332 0
49 333 334 0
49 -333 -334 0
49 335 336 0
49 -335 -336 0
49 337 338 0
49 -337 -338 0
49 339 340 0
49 -339 -340 0
49 341 342 343 344 345 0
49 -2243 2241 2244 0
49 -2242 2241 2244 0
49 -2242 -2243 2244 0
49 -2244 0
49 -345 2243 2245 0
49 -344 2243 2245 0
49 -344 -345 2245 0
49 -2245 0
49 -343 2242 2247 0
49 -2246 2242 2247 0
49 -2246 -343 2247 0
49 -2247 0
49 -342 2246 2248 0
49 -341 2246 2248 0
49 -341 -342 2248 0
49 -2248 0
49 346 347 348 349 350 0
49 -2251 2249 2252 0
49 -2250 2249 2252 0
49 -2250 -2251 2252 0
49 -2252 0
49 -350 2251 2253 0
49 -349 2251 2253 0
49 -349 -350 2253 0
49 -2253 0
49 -348 2250 2255 0
49 -2254 2250 2255 0
49 -2254 -348 2255 0
49 -2255 0
49 -347 2254 2256 0
49 -346 2254 2256 0
49 -346 -347 2256 0
49 -2256 0
49 351 0
49 352 0
49 353 0
49 354 0
49 355 0
49 356 0
49 357 0
49 358 0
49 359 0
49 360 0
49 361 362 0
49 -361 -362 0
49 363 364 0
49 -363 -364 0
49 365 0
49 366 0
49 367 0
49 368 0
49 369 0
49 370 0
49 371 372 373 0
49 -373 2257 2259 0
49 -2258 2257 2259 0
49 -2258 -373 2259 0
49 -2259 0
49 -372 2258 2260 0
49 -371 2258 2260 0
49 -371 -372 2260 0
49 -2260 0
49 374 375 376 0
49 -376 2261 2263 0
49 -2262 2261 2263 0
49 -2262 -376 2263 0
49 -2263 0
49 -375 2262 2264 0
49 -374 2262 2264 0
49 -374 -375 2264 0
49 -2264 0
49 377 378 0
49 -377 -378 0
49 379 380 0
49 -379 -380 0
49 381 0
49 382 0
49 383 0
49 384 0
49 385 386 387 388 0
49 -2267 2265 2268 0
49 -2266 2265 2268 0
49 -2266 -2267 2268 0
49 -2268 0
49 -388 2267 2269 0
49 -387 2267 2269 0
49 -387 -388 2269 0
49 -2269 0
49 -386 2266 2270 0
49 -385 2266 2270 0
49 -385 -386 2270 0
49 -2270 0
49 389 390 391 392 0
49 -2273 2271 2274 0
49 -2272 2271 2274 0
49 -2272 -2273 2274 0
49 -2274 0
49 -392 2273 2275 0
49 -391 2273 2275 0
49 -391 -392 2275 0
49 -2275 0
49 -390 2272 2276 0
49 -389 2272 2276 0
49 -389 -390 2276 0
49 -2276 0
49 393 0
49 394 0
49 395 396 397 398 0
49 -2279 2277 2280 0
49 -2278 2277 2280 0
49 -2278 -2279 2280 0
49 -2280 0
49 -398 2279 2281 0
49 -397 2279 2281 0
49 -397 -398 2281 0
49 -2281 0
49 -396 2278 2282 0
49 -395 2278 2282 0
49 -395 -396 2282 0
49 -2282 0
49 399 400 401 402 0
49 -2285 2283 2286 0
49 -2284 2283 2286 0
49 -2284 -2285 2286 0
49 -2286 0
49 -402 2285 2287 0
49 -401 2285 2287 0
49 -401 -402 2287 0
49 -2287 0
49 -400 2284 2288 0
49 -399 2284 2288 0
49 -399 -400 2288 0
49 -2288 0
49 403 404 0
49 -403 -404 0
49 405 406 0
49 -405 -406 0
49 407 0
49 408 0
49 409 410 411 412 413 414 415 416 417 418 0
49 -2291 2289 2292 0
49 -2290 2289 2292 0
49 -2290 -2291 2292 0
49 -2292 0
49 -2294 2291 2295 0
49 -2293 2291 2295 0
49 -2293 -2294 2295 0
49 -2295 0
49 -418 2294 2296 0
49 -417 2294 2296 0
49 -417 -418 2296 0
49 -2296 0
49 -416 2293 2298 0
49 -2297 2293 2298 0
49 -2297 -416 2298 0
49 -2298 0
49 -415 2297 2299 0
49 -414 2297 2299 0
49 -414 -415 2299 0
49 -2299 0
49 -2301 2290 2302 0
49 -2300 2290 2302 0
49 -2300 -2301 2302 0
49 -2302 0
49 -413 2301 2303 0
49 -412 2301 2303 0
49 -412 -413 2303 0
49 -2303 0
49 -411 2300 2305 0
49 -2304 2300 2305 0
49 -2304 -411 2305 0
49 -2305 0
49 -410 2304 2306 0
49 -409 2304 2306 0
49 -409 -410 2306 0
49 -2306 0
49 419 420 421 422 423 424 425 426 427 428 0
49 -2309 2307 2310 0
49 -2308 2307 2310 0
49 -2308 -2309 2310 0
49 -2310 0
49 -2312 2309 2313 0
49 -2311 2309 2313 0
49 -2311 -2312 2313 0
49 -2313 0
49 -428 2312 2314 0
49 -427 2312 2314 0
49 -427 -428 2314 0
49 -2314 0
49 -426 2311 2316 0
49 -2315 2311 2316 0
49 -2315 -426 2316 0
49 -2316 0
49 -425 2315 2317 0
49 -424 2315 2317 0
49 -424 -425 2317 0
49 -2317 0
49 -2319 2308 2320 0
49 -2318 2308 2320 0
49 -2318 -2319 2320 0
49 -2320 0
49 -423 2319 2321 0
49 -422 2319 2321 0
49 -422 -423 2321 0
49 -2321 0
49 -421 2318 2323 0
49 -2322 2318 2323 0
49 -2322 -421 2323 0
49 -2323 0
49 -420 2322 2324 0
49 -419 2322 2324 0
49 -419 -420 2324 0
49 -2324 0
49 429 0
49 430 0
49 431 432 433 434 435 436 437 438 439 0
49 -2327 2325 2328 0
49 -2326 2325 2328 0
49 -2326 -2327 2328 0
49 -2328 0
49 -2330 2327 2331 0
49 -2329 2327 2331 0
49 -2329 -2330 2331 0
49 -2331 0
49 -439 2330 2332 0
49 -438 2330 2332 0
49 -438 -439 2332 0
49 -2332 0
49 -437 2329 2333 0
49 -436 2329 2333 0
49 -436 -437 2333 0
49 -2333 0
49 -2335 2326 2336 0
49 -2334 2326 2336 0
49 -2334 -2335 2336 0
49 -2336 0
49 -435 2335 2337 0
49 -434 2335 2337 0
49 -434 -435 2337 0
49 -2337 0
49 -433 2334 2339 0
49 -2338 2334 2339 0
49 -2338 -433 2339 0
49 -2339 0
49 -432 2338 2340 0
49 -431 2338 2340 0
49 -431 -432 2340 0
49 -2340 0
49 440 441 442 443 444 445 446 447 448 0
49 -2343 2341 2344 0
49 -2342 2341 2344 0
49 -2342 -2343 2344 0
49 -2344 0
49 -2346 2343 2347 0
49 -2345 2343 2347 0
49 -2345 -2346 2347 0
49 -2347 0
49 -448 2346 2348 0
49 -447 2346 2348 0
49 -447 -448 2348 0
49 -2348 0
49 -446 2345 2349 0
49 -445 2345 2349 0
49 -445 -446 2349 0
49 -2349 0
49 -2351 2342 2352 0
49 -2350 2342 2352 0
49 -2350 -2351 2352 0
49 -2352 0
49 -444 2351 2353 0
49 -443 2351 2353 0
49 -443 -444 2353 0
49 -2353 0
49 -442 2350 2355 0
49 -2354 2350 2355 0
49 -2354 -442 2355 0
49 -2355 0
49 -441 2354 2356 0
49 -440 2354 2356 0
49 -440 -441 2356 0
49 -2356 0
49 449 0
49 450 0
49 451 0
49 452 0
49 453 0
49 454 0
49 455 0
49 456 0
49 457 0
49 458 0
49 459 0
49 460 0
49 461 462 0
49 -461 -462 0
49 463 464 0
49 -463 -464 0
49 465 0
49 466 0
49 467 0
49 468 0
49 469 470 0
49 -469 -470 0
49 471 472 0
49 -471 -472 0
49 473 474 0
49 -473 -474 0
49 475 476 0
49 -475 -476 0
49 477 0
49 478 0
49 479 0
49 480 0
49 481 482 483 484 0
49 -2359 2357 2360 0
49 -2358 2357 2360 0
49 -2358 -2359 2360 0
49 -2360 0
49 -484 2359 2361 0
49 -483 2359 2361 0
49 -483 -484 2361 0
49 -2361 0
49 -482 2358 2362 0
49 -481 2358 2362 0
49 -481 -482 2362 0
49 -2362 0
49 485 486 487 488 0
49 -2365 2363 2366 0
49 -2364 2363 2366 0
49 -2364 -2365 2366 0
49 -2366 0
49 -488 2365 2367 0
49 -487 2365 2367 0
49 -487 -488 2367 0
49 -2367 0
49 -486 2364 2368 0
49 -485 2364 2368 0
49 -485 -486 2368 0
49 -2368 0
49 489 0
49 490 0
49 491 0
49 492 0
49 493 0
49 494 0
49 495 0
49 496 0
49 497 498 0
49 -497 -498 0
49 499 500 0
49 -499 -500 0
49 501 0
49 502 0
49 503 0
49 504 0
49 505 0
49 506 0
49 507 508 509 510 511 512 513 514 515 0
49 -2371 2369 2372 0
49 -2370 2369 2372 0
49 -2370 -2371 2372 0
49 -2372 0
49 -2374 2371 2375 0
49 -2373 2371 2375 0
49 -2373 -2374 2375 0
49 -2375 0
49 -515 2374 2376 0
49 -514 2374 2376 0
49 -514 -515 2376 0
49 -2376 0
49 -513 2373 2377 0
49 -512 2373 2377 0
49 -512 -513 2377 0
49 -2377 0
49 -2379 2370 2380 0
49 -2378 2370 2380 0
49 -2378 -2379 2380 0
49 -2380 0
49 -511 2379 2381 0
49 -510 2379 2381 0
49 -510 -511 2381 0
49 -2381 0
49 -509 2378 2383 0
49 -2382 2378 2383 0
49 -2382 -509 2383 0
49 -2383 0
49 -508 2382 2384 0
49 -507 2382 2384 0
49 -507 -508 2384 0
49 -2384 0
49 516 517 518 519 520 521 522 523 524 0
49 -2387 2385 2388 0
49 -2386 2385 2388 0
49 -2386 -2387 2388 0
49 -2388 0
49 -2390 2387 2391 0
49 -2389 2387 2391 0
49 -2389 -2390 2391 0
49 -2391 0
49 -524 2390 2392 0
49 -523 2390 2392 0
49 -523 -524 2392 0
49 -2392 0
49 -522 2389 2393 0
49 -521 2389 2393 0
49 -521 -522 2393 0
49 -2393 0
49 -2395 2386 2396 0
49 -2394 2386 2396 0
49 -2394 -2395 2396 0
49 -2396 0
49 -520 2395 2397 0
49 -519 2395 2397 0
49 -519 -520 2397 0
49 -2397 0
49 -518 2394 2399 0
49 -2398 2394 2399 0
49 -2398 -518 2399 0
49 -2399 0
49 -517 2398 2400 0
49 -516 2398 2400 0
49 -516 -517 2400 0
49 -2400 0
49 525 526 527 528 529 530 0
49 -2403 2401 2404 0
49 -2402 2401 2404 0
49 -2402 -2403 2404 0
49 -2404 0
49 -530 2403 2406 0
49 -2405 2403 2406 0
49 -2405 -530 2406 0
49 -2406 0
49 -529 2405 2407 0
49 -528 2405 2407 0
49 -528 -529 2407 0
49 -2407 0
49 -527 2402 2409 0
49 -2408 2402 2409 0
49 -2408 -527 2409 0
49 -2409 0
49 -526 2408 2410 0
49 -525 2408 2410 0
49 -525 -526 2410 0
49 -2410 0
49 531 532 533 534 535 536 0
49 -2413 2411 2414 0
49 -2412 2411 2414 0
49 -2412 -2413 2414 0
49 -2414 0
49 -536 2413 2416 0
49 -2415 2413 2416 0
49 -2415 -536 2416 0
49 -2416 0
49 -535 2415 2417 0
49 -534 2415 2417 0
49 -534 -535 2417 0
49 -2417 0
49 -533 2412 2419 0
49 -2418 2412 2419 0
49 -2418 -533 2419 0
49 -2419 0
49 -532 2418 2420 0
49 -531 2418 2420 0
49 -531 -532 2420 0
49 -2420 0
49 537 538 539 0
49 -539 2421 2423 0
49 -2422 2421 2423 0
49 -2422 -539 2423 0
49 -2423 0
49 -538 2422 2424 0
49 -537 2422 2424 0
49 -537 -538 2424 0
49 -2424 0
49 540 541 542 0
49 -542 2425 2427 0
49 -2426 2425 2427 0
49 -2426 -542 2427 0
49 -2427 0
49 -541 2426 2428 0
49 -540 2426 2428 0
49 -540 -541 2428 0
49 -2428 0
49 543 544 545 546 547 548 549 550 0
49 -2431 2429 2432 0
49 -2430 2429 2432 0
49 -2430 -2431 2432 0
49 -2432 0
49 -2434 2431 2435 0
49 -2433 2431 2435 0
49 -2433 -2434 2435 0
49 -2435 0
49 -550 2434 2436 0
49 -549 2434 2436 0
49 -549 -550 2436 0
49 -2436 0
49 -548 2433 2437 0
49 -547 2433 2437 0
49 -547 -548 2437 0
49 -2437 0
49 -2439 2430 2440 0
49 -2438 2430 2440 0
49 -2438 -2439 2440 0
49 -2440 0
49 -546 2439 2441 0
49 -545 2439 2441 0
49 -545 -546 2441 0
49 -2441 0
49 -544 2438 2442 0
49 -543 2438 2442 0
49 -543 -544 2442 0
49 -2442 0
49 551 552 553 554 555 556 557 558 0
49 -2445 2443 2446 0
49 -2444 2443 2446 0
49 -2444 -2445 2446 0
49 -2446 0
49 -2448 2445 2449 0
49 -2447 2445 2449 0
49 -2447 -2448 2449 0
49 -2449 0
49 -558 2448 2450 0
49 -557 2448 2450 0
49 -557 -558 2450 0
49 -2450 0
49 -556 2447 2451 0
49 -555 2447 2451 0
49 -555 -556 2451 0
49 -2451 0
49 -2453 2444 2454 0
49 -2452 2444 2454 0
49 -2452 -2453 2454 0
49 -2454 0
49 -554 2453 2455 0
49 -553 2453 2455 0
49 -553 -554 2455 0
49 -2455 0
49 -552 2452 2456 0
49 -551 2452 2456 0
49 -551 -552 2456 0
49 -2456 0
49 559 0
49 560 0
49 561 0
49 562 0
49 563 0
49 564 0
49 565 0
49 566 0
49 567 0
49 568 0
49 569 0
49 570 0
49 571 0
49 572 0
49 573 0
49 574 0
49 575 0
49 576 0
49 577 578 579 580 581 582 583 584 0
49 -2459 2457 2460 0
49 -2458 2457 2460 0
49 -2458 -2459 2460 0
49 -2460 0
49 -2462 2459 2463 0
49 -2461 2459 2463 0
49 -2461 -2462 2463 0
49 -2463 0
49 -584 2462 2464 0
49 -583 2462 2464 0
49 -583 -584 2464 0
49 -2464 0
49 -582 2461 2465 0
49 -581 2461 2465 0
49 -581 -582 2465 0
49 -2465 0
49 -2467 2458 2468 0
49 -2466 2458 2468 0
49 -2466 -2467 2468 0
49 -2468 0
49 -580 2467 2469 0
49 -579 2467 2469 0
49 -579 -580 2469 0
49 -2469 0
49 -578 2466 2470 0
49 -577 2466 2470 0
49 -577 -578 2470 0
49 -2470 0
49 585 586 587 588 589 590 591 592 0
49 -2473 2471 2474 0
49 -2472 2471 2474 0
49 -2472 -2473 2474 0
49 -2474 0
49 -2476 2473 2477 0
49 -2475 2473 2477 0
49 -2475 -2476 2477 0
49 -2477 0
49 -592 2476 2478 0
49 -591 2476 2478 0
49 -591 -592 2478 0
49 -2478 0
49 -590 2475 2479 0
49 -589 2475 2479 0
49 -589 -590 2479 0
49 -2479 0
49 -2481 2472 2482 0
49 -2480 2472 2482 0
49 -2480 -2481 2482 0
49 -2482 0
49 -588 2481 2483 0
49 -587 2481 2483 0
49 -587 -588 2483 0
49 -2483 0
49 -586 2480 2484 0
49 -585 2480 2484 0
49 -585 -586 2484 0
49 -2484 0
49 593 0
49 594 0
49 595 0
49 596 0
49 597 598 599 600 0
49 -2487 2485 2488 0
49 -2486 2485 2488 0
49 -2486 -2487 2488 0
49 -2488 0
49 -600 2487 2489 0
49 -599 2487 2489 0
49 -599 -600 2489 0
49 -2489 0
49 -598 2486 2490 0
49 -597 2486 2490 0
49 -597 -598 2490 0
49 -2490 0
49 601 602 603 604 0
49 -2493 2491 2494 0
49 -2492 2491 2494 0
49 -2492 -2493 2494 0
49 -2494 0
49 -604 2493 2495 0
49 -603 2493 2495 0
49 -603 -604 2495 0
49 -2495 0
49 -602 2492 2496 0
49 -601 2492 2496 0
49 -601 -602 2496 0
49 -2496 0
49 605 606 0
49 -605 -606 0
49 607 608 0
49 -607 -608 0
49 609 610 0
49 -609 -610 0
49 611 612 0
49 -611 -612 0
49 613 614 615 616 0
49 -2499 2497 2500 0
49 -2498 2497 2500 0
49 -2498 -2499 2500 0
49 -2500 0
49 -616 2499 2501 0
49 -615 2499 2501 0
49 -615 -616 2501 0
49 -2501 0
49 -614 2498 2502 0
49 -613 2498 2502 0
49 -613 -614 2502 0
49 -2502 0
49 617 618 619 620 0
49 -2505 2503 2506 0
49 -2504 2503 2506 0
49 -2504 -2505 2506 0
49 -2506 0
49 -620 2505 2507 0
49 -619 2505 2507 0
49 -619 -620 2507 0
49 -2507 0
49 -618 2504 2508 0
49 -617 2504 2508 0
49 -617 -618 2508 0
49 -2508 0
49 621 622 623 624 625 0
49 -2511 2509 2512 0
49 -2510 2509 2512 0
49 -2510 -2511 2512 0
49 -2512 0
49 -625 2511 2513 0
49 -624 2511 2513 0
49 -624 -625 2513 0
49 -2513 0
49 -623 2510 2515 0
49 -2514 2510 2515 0
49 -2514 -623 2515 0
49 -2515 0
49 -622 2514 2516 0
49 -621 2514 2516 0
49 -621 -622 2516 0
49 -2516 0
49 626 627 628 629 630 0
49 -2519 2517 2520 0
49 -2518 2517 2520 0
49 -2518 -2519 2520 0
49 -2520 0
49 -630 2519 2521 0
49 -629 2519 2521 0
49 -629 -630 2521 0
49 -2521 0
49 -628 2518 2523 0
49 -2522 2518 2523 0
49 -2522 -628 2523 0
49 -2523 0
49 -627 2522 2524 0
49 -626 2522 2524 0
49 -626 -627 2524 0
49 -2524 0
49 631 0
49 632 0
49 633 0
49 634 0
49 635 0
49 636 0
49 637 0
49 638 0
49 639 0
49 640 0
49 641 642 643 644 645 646 647 648 649 0
49 -2527 2525 2528 0
49 -2526 2525 2528 0
49 -2526 -2527 2528 0
49 -2528 0
49 -2530 2527 2531 0
49 -2529 2527 2531 0
49 -2529 -2530 2531 0
49 -2531 0
49 -649 2530 2532 0
49 -648 2530 2532 0
49 -648 -649 2532 0
49 -2532 0
49 -647 2529 2533 0
49 -646 2529 2533 0
49 -646 -647 2533 0
49 -2533 0
49 -2535 2526 2536 0
49 -2534 2526 2536 0
49 -2534 -2535 2536 0
49 -2536 0
49 -645 2535 2537 0
49 -644 2535 2537 0
49 -644 -645 2537 0
49 -2537 0
49 -643 2534 2539 0
49 -2538 2534 2539 0
49 -2538 -643 2539 0
49 -2539 0
49 -642 2538 2540 0
49 -641 2538 2540 0
49 -641 -642 2540 0
49 -2540 0
49 650 651 652 653 654 655 656 657 658 0
49 -2543 2541 2544 0
49 -2542 2541 2544 0
49 -2542 -2543 2544 0
49 -2544 0
49 -2546 2543 2547 0
49 -2545 2543 2547 0
49 -2545 -2546 2547 0
49 -2547 0
49 -658 2546 2548 0
49 -657 2546 2548 0
49 -657 -658 2548 0
49 -2548 0
49 -656 2545 2549 0
49 -655 2545 2549 0
49 -655 -656 2549 0
49 -2549 0
49 -2551 2542 2552 0
49 -2550 2542 2552 0
49 -2550 -2551 2552 0
49 -2552 0
49 -654 2551 2553 0
49 -653 2551 2553 0
49 -653 -654 2553 0
49 -2553 0
49 -652 2550 2555 0
49 -2554 2550 2555 0
49 -2554 -652 2555 0
49 -2555 0
49 -651 2554 2556 0
49 -650 2554 2556 0
49 -650 -651 2556 0
49 -2556 0
49 659 660 661 0
49 -661 2557 2559 0
49 -2558 2557 2559 0
49 -2558 -661 2559 0
49 -2559 0
49 -660 2558 2560 0
49 -659 2558 2560 0
49 -659 -660 2560 0
49 -2560 0
49 662 663 664 0
49 -664 2561 2563 0
49 -2562 2561 2563 0
49 -2562 -664 2563 0
49 -2563 0
49 -663 2562 2564 0
49 -662 2562 2564 0
49 -662 -663 2564 0
49 -2564 0
49 665 0
49 666 0
49 667 668 0
49 -667 -668 0
49 669 670 0
49 -669 -670 0
49 671 672 673 674 675 0
49 -2567 2565 2568 0
49 -2566 2565 2568 0
49 -2566 -2567 2568 0
49 -2568 0
49 -675 2567 2569 0
49 -674 2567 2569 0
49 -674 -675 2569 0
49 -2569 0
49 -673 2566 2571 0
49 -2570 2566 2571 0
49 -2570 -673 2571 0
49 -2571 0
49 -672 2570 2572 0
49 -671 2570 2572 0
49 -671 -672 2572 0
49 -2572 0
49 676 677 678 679 680 0
49 -2575 2573 2576 0
49 -2574 2573 2576 0
49 -2574 -2575 2576 0
49 -2576 0
49 -680 2575 2577 0
49 -679 2575 2577 0
49 -679 -680 2577 0
49 -2577 0
49 -678 2574 2579 0
49 -2578 2574 2579 0
49 -2578 -678 2579 0
49 -2579 0
49 -677 2578 2580 0
49 -676 2578 2580 0
49 -676 -677 2580 0
49 -2580 0
49 681 0
49 682 0
49 683 0
49 684 0
49 685 686 687 688 689 690 691 692 693 0
49 -2583 2581 2584 0
49 -2582 2581 2584 0
49 -2582 -2583 2584 0
49 -2584 0
49 -2586 2583 2587 0
49 -2585 2583 2587 0
49 -2585 -2586 2587 0
49 -2587 0
49 -693 2586 2588 0
49 -692 2586 2588 0
49 -692 -693 2588 0
49 -2588 0
49 -691 2585 2589 0
49 -690 2585 2589 0
49 -690 -691 2589 0
49 -2589 0
49 -2591 2582 2592 0
49 -2590 2582 2592 0
49 -2590 -2591 2592 0
49 -2592 0
49 -689 2591 2593 0
49 -688 2591 2593 0
49 -688 -689 2593 0
49 -2593 0
49 -687 2590 2595 0
49 -2594 2590 2595 0
49 -2594 -687 2595 0
49 -2595 0
49 -686 2594 2596 0
49 -685 2594 2596 0
49 -685 -686 2596 0
49 -2596 0
49 694 695 696 697 698 699 700 701 702 0
49 -2599 2597 2600 0
49 -2598 2597 2600 0
49 -2598 -2599 2600 0
49 -2600 0
49 -2602 2599 2603 0
49 -2601 2599 2603 0
49 -2601 -2602 2603 0
49 -2603 0
49 -702 2602 2604 0
49 -701 2602 2604 0
49 -701 -702 2604 0
49 -2604 0
49 -700 2601 2605 0
49 -699 2601 2605 0
49 -699 -700 2605 0
49 -2605 0
49 -2607 2598 2608 0
49 -2606 2598 2608 0
49 -2606 -2607 2608 0
49 -2608 0
49 -698 2607 2609 0
49 -697 2607 2609 0
49 -697 -698 2609 0
49 -2609 0
49 -696 2606 2611 0
49 -2610 2606 2611 0
49 -2610 -696 2611 0
49 -2611 0
49 -695 2610 2612 0
49 -694 2610 2612 0
49 -694 -695 2612 0
49 -2612 0
49 703 704 705 0
49 -705 2613 2615 0
49 -2614 2613 2615 0
49 -2614 -705 2615 0
49 -2615 0
49 -704 2614 2616 0
49 -703 2614 2616 0
49 -703 -704 2616 0
49 -2616 0
49 706 707 708 0
49 -708 2617 2619 0
49 -2618 2617 2619 0
49 -2618 -708 2619 0
49 -2619 0
49 -707 2618 2620 0
49 -706 2618 2620 0
49 -706 -707 2620 0
49 -2620 0
49 709 0
49 710 0
49 711 0
49 712 0
49 713 0
49 714 0
49 715 716 717 718 719 720 721 722 723 724 0
49 -2623 2621 2624 0
49 -2622 2621 2624 0
49 -2622 -2623 2624 0
49 -2624 0
49 -2626 2623 2627 0
49 -2625 2623 2627 0
49 -2625 -2626 2627 0
49 -2627 0
49 -724 2626 2628 0
49 -723 2626 2628 0
49 -723 -724 2628 0
49 -2628 0
49 -722 2625 2630 0
49 -2629 2625 2630 0
49 -2629 -722 2630 0
49 -2630 0
49 -721 2629 2631 0
49 -720 2629 2631 0
49 -720 -721 2631 0
49 -2631 0
49 -2633 2622 2634 0
49 -2632 2622 2634 0
49 -2632 -2633 2634 0
49 -2634 0
49 -719 2633 2635 0
49 -718 2633 2635 0
49 -718 -719 2635 0
49 -2635 0
49 -717 2632 2637 0
49 -2636 2632 2637 0
49 -2636 -717 2637 0
49 -2637 0
49 -716 2636 2638 0
49 -715 2636 2638 0
49 -715 -716 2638 0
49 -2638 0
49 725 726 727 728 729 730 731 732 733 734 0
49 -2641 2639 2642 0
49 -2640 2639 2642 0
49 -2640 -2641 2642 0
49 -2642 0
49 -2644 2641 2645 0
49 -2643 2641 2645 0
49 -2643 -2644 2645 0
49 -2645 0
49 -734 2644 2646 0
49 -733 2644 2646 0
49 -733 -734 2646 0
49 -2646 0
49 -732 2643 2648 0
49 -2647 2643 2648 0
49 -2647 -732 2648 0
49 -2648 0
49 -731 2647 2649 0
49 -730 2647 2649 0
49 -730 -731 2649 0
49 -2649 0
49 -2651 2640 2652 0
49 -2650 2640 2652 0
49 -2650 -2651 2652 0
49 -2652 0
49 -729 2651 2653 0
49 -728 2651 2653 0
49 -728 -729 2653 0
49 -2653 0
49 -727 2650 2655 0
49 -2654 2650 2655 0
49 -2654 -727 2655 0
49 -2655 0
49 -726 2654 2656 0
49 -725 2654 2656 0
49 -725 -726 2656 0
49 -2656 0
49 735 736 737 738 739 740 741 742 0
49 -2659 2657 2660 0
49 -2658 2657 2660 0
49 -2658 -2659 2660 0
49 -2660 0
49 -2662 2659 2663 0
49 -2661 2659 2663 0
49 -2661 -2662 2663 0
49 -2663 0
49 -742 2662 2664 0
49 -741 2662 2664 0
49 -741 -742 2664 0
49 -2664 0
49 -740 2661 2665 0
49 -739 2661 2665 0
49 -739 -740 2665 0
49 -2665 0
49 -2667 2658 2668 0
49 -2666 2658 2668 0
49 -2666 -2667 2668 0
49 -2668 0
49 -738 2667 2669 0
49 -737 2667 2669 0
49 -737 -738 2669 0
49 -2669 0
49 -736 2666 2670 0
49 -735 2666 2670 0
49 -735 -736 2670 0
49 -2670 0
49 743 744 745 746 747 748 749 750 0
49 -2673 2671 2674 0
49 -2672 2671 2674 0
49 -2672 -2673 2674 0
49 -2674 0
49 -2676 2673 2677 0
49 -2675 2673 2677 0
49 -2675 -2676 2677 0
49 -2677 0
49 -750 2676 2678 0
49 -749 2676 2678 0
49 -749 -750 2678 0
49 -2678 0
49 -748 2675 2679 0
49 -747 2675 2679 0
49 -747 -748 2679 0
49 -2679 0
49 -2681 2672 2682 0
49 -2680 2672 2682 0
49 -2680 -2681 2682 0
49 -2682 0
49 -746 2681 2683 0
49 -745 2681 2683 0
49 -745 -746 2683 0
49 -2683 0
49 -744 2680 2684 0
49 -743 2680 2684 0
49 -743 -744 2684 0
49 -2684 0
49 751 0
49 752 0
49 753 754 0
49 -753 -754 0
49 755 756 0
49 -755 -756 0
49 757 0
49 758 0
49 759 0
49 760 0
49 761 0
49 762 0
49 763 0
49 764 0
49 765 766 767 768 0
49 -2687 2685 2688 0
49 -2686 2685 2688 0
49 -2686 -2687 2688 0
49 -2688 0
49 -768 2687 2689 0
49 -767 2687 2689 0
49 -767 -768 2689 0
49 -2689 0
49 -766 2686 2690 0
49 -765 2686 2690 0
49 -765 -766 2690 0
49 -2690 0
49 769 770 771 772 0
49 -2693 2691 2694 0
49 -2692 2691 2694 0
49 -2692 -2693 2694 0
49 -2694 0
49 -772 2693 2695 0
49 -771 2693 2695 0
49 -771 -772 2695 0
49 -2695 0
49 -770 2692 2696 0
49 -769 2692 2696 0
49 -769 -770 2696 0
49 -2696 0
49 773 0
49 774 0
49 775 0
49 776 0
49 777 0
49 778 0
49 779 0
49 780 0
49 781 782 783 0
49 -783 2697 2699 0
49 -2698 2697 2699 0
49 -2698 -783 2699 0
49 -2699 0
49 -782 2698 2700 0
49 -781 2698 2700 0
49 -781 -782 2700 0
49 -2700 0
49 784 785 786 0
49 -786 2701 2703 0
49 -2702 2701 2703 0
49 -2702 -786 2703 0
49 -2703 0
49 -785 2702 2704 0
49 -784 2702 2704 0
49 -784 -785 2704 0
49 -2704 0
49 787 0
49 788 0
49 789 0
49 790 0
49 791 0
49 792 0
49 793 0
49 794 0
49 795 796 797 0
49 -797 2705 2707 0
49 -2706 2705 2707 0
49 -2706 -797 2707 0
49 -2707 0
49 -796 2706 2708 0
49 -795 2706 2708 0
49 -795 -796 2708 0
49 -2708 0
49 798 799 800 0
49 -800 2709 2711 0
49 -2710 2709 2711 0
49 -2710 -800 2711 0
49 -2711 0
49 -799 2710 2712 0
49 -798 2710 2712 0
49 -798 -799 2712 0
49 -2712 0
49 801 802 0
49 -801 -802 0
49 803 804 0
49 -803 -804 0
49 805 0
49 806 0
49 807 0
49 808 0
49 809 0
49 810 0
49 811 812 0
49 -811 -812 0
49 813 814 0
49 -813 -814 0
49 815 0
49 816 0
49 817 818 0
49 -817 -818 0
49 819 820 0
49 -819 -820 0
49 821 0
49 822 0
49 823 0
49 824 0
49 825 826 827 828 829 830 831 832 833 834 835 0
49 -2715 2713 2716 0
49 -2714 2713 2716 0
49 -2714 -2715 2716 0
49 -2716 0
49 -2718 2715 2719 0
49 -2717 2715 2719 0
49 -2717 -2718 2719 0
49 -2719 0
49 -835 2718 2720 0
49 -834 2718 2720 0
49 -834 -835 2720 0
49 -2720 0
49 -833 2717 2722 0
49 -2721 2717 2722 0
49 -2721 -833 2722 0
49 -2722 0
49 -832 2721 2723 0
49 -831 2721 2723 0
49 -831 -832 2723 0
49 -2723 0
49 -2725 2714 2726 0
49 -2724 2714 2726 0
49 -2724 -2725 2726 0
49 -2726 0
49 -830 2725 2728 0
49 -2727 2725 2728 0
49 -2727 -830 2728 0
49 -2728 0
49 -829 2727 2729 0
49 -828 2727 2729 0
49 -828 -829 2729 0
49 -2729 0
49 -827 2724 2731 0
49 -2730 2724 2731 0
49 -2730 -827 2731 0
49 -2731 0
49 -826 2730 2732 0
49 -825 2730 2732 0
49 -825 -826 2732 0
49 -2732 0
49 836 837 838 839 840 841 842 843 844 845 846 0
49 -2735 2733 2736 0
49 -2734 2733 2736 0
49 -2734 -2735 2736 0
49 -2736 0
49 -2738 2735 2739 0
49 -2737 2735 2739 0
49 -2737 -2738 2739 0
49 -2739 0
49 -846 2738 2740 0
49 -845 2738 2740 0
49 -845 -846 2740 0
49 -2740 0
49 -844 2737 2742 0
49 -2741 2737 2742 0
49 -2741 -844 2742 0
49 -2742 0
49 -843 2741 2743 0
49 -842 2741 2743 0
49 -842 -843 2743 0
49 -2743 0
49 -2745 2734 2746 0
49 -2744 2734 2746 0
49 -2744 -2745 2746 0
49 -2746 0
49 -841 2745 2748 0
49 -2747 2745 2748 0
49 -2747 -841 2748 0
49 -2748 0
49 -840 2747 2749 0
49 -839 2747 2749 0
49 -839 -840 2749 0
49 -2749 0
49 -838 2744 2751 0
49 -2750 2744 2751 0
49 -2750 -838 2751 0
49 -2751 0
49 -837 2750 2752 0
49 -836 2750 2752 0
49 -836 -837 2752 0
49 -2752 0
49 847 0
49 848 0
49 849 0
49 850 0
49 851 852 853 0
49 -853 2753 2755 0
49 -2754 2753 2755 0
49 -2754 -853 2755 0
49 -2755 0
49 -852 2754 2756 0
49 -851 2754 2756 0
49 -851 -852 2756 0
49 -2756 0
49 854 855 856 0
49 -856 2757 2759 0
49 -2758 2757 2759 0
49 -2758 -856 2759 0
49 -2759 0
49 -855 2758 2760 0
49 -854 2758 2760 0
49 -854 -855 2760 0
49 -2760 0
49 857 858 0
49 -857 -858 0
49 859 860 0
49 -859 -860 0
49 861 0
49 862 0
49 863 0
49 864 0
49 865 0
49 866 0
49 867 0
49 868 0
49 869 870 0
49 -869 -870 0
49 871 872 0
49 -871 -872 0
49 873 874 875 876 877 878 879 0
49 -2763 2761 2764 0
49 -2762 2761 2764 0
49 -2762 -2763 2764 0
49 -2764 0
49 -879 2763 2766 0
49 -2765 2763 2766 0
49 -2765 -879 2766 0
49 -2766 0
49 -878 2765 2767 0
49 -877 2765 2767 0
49 -877 -878 2767 0
49 -2767 0
49 -2769 2762 2770 0
49 -2768 2762 2770 0
49 -2768 -2769 2770 0
49 -2770 0
49 -876 2769 2771 0
49 -875 2769 2771 0
49 -875 -876 2771 0
49 -2771 0
49 -874 2768 2772 0
49 -873 2768 2772 0
49 -873 -874 2772 0
49 -2772 0
49 880 881 882 883 884 885 886 0
49 -2775 2773 2776 0
49 -2774 2773 2776 0
49 -2774 -2775 2776 0
49 -2776 0
49 -886 2775 2778 0
49 -2777 2775 2778 0
49 -2777 -886 2778 0
49 -2778 0
49 -885 2777 2779 0
49 -884 2777 2779 0
49 -884 -885 2779 0
49 -2779 0
49 -2781 2774 2782 0
49 -2780 2774 2782 0
49 -2780 -2781 2782 0
49 -2782 0
49 -883 2781 2783 0
49 -882 2781 2783 0
49 -882 -883 2783 0
49 -2783 0
49 -881 2780 2784 0
49 -880 2780 2784 0
49 -880 -881 2784 0
49 -2784 0
49 887 888 0
49 -887 -888 0
49 889 890 0
49 -889 -890 0
49 891 0
49 892 0
49 893 894 0
49 -893 -894 0
49 895 896 0
49 -895 -896 0
49 897 0
49 898 0
49 899 0
49 900 0
49 901 0
49 902 0
49 903 904 905 906 0
49 -2787 2785 2788 0
49 -2786 2785 2788 0
49 -2786 -2787 2788 0
49 -2788 0
49 -906 2787 2789 0
49 -905 2787 2789 0
49 -905 -906 2789 0
49 -2789 0
49 -904 2786 2790 0
49 -903 2786 2790 0
49 -903 -904 2790 0
49 -2790 0
49 907 908 909 910 0
49 -2793 2791 2794 0
49 -2792 2791 2794 0
49 -2792 -2793 2794 0
49 -2794 0
49 -910 2793 2795 0
49 -909 2793 2795 0
49 -909 -910 2795 0
49 -2795 0
49 -908 2792 2796 0
49 -907 2792 2796 0
49 -907 -908 2796 0
49 -2796 0
49 911 0
49 912 0
49 913 0
49 914 0
49 915 0
49 916 0
49 917 918 0
49 -917 -918 0
49 919 920 0
49 -919 -920 0
49 921 0
49 922 0
49 923 0
49 924 0
49 925 0
49 926 0
49 927 928 929 930 0
49 -2799 2797 2800 0
49 -2798 2797 2800 0
49 -2798 -2799 2800 0
49 -2800 0
49 -930 2799 2801 0
49 -929 2799 2801 0
49 -929 -930 2801 0
49 -2801 0
49 -928 2798 2802 0
49 -927 2798 2802 0
49 -927 -928 2802 0
49 -2802 0
49 931 932 933 934 0
49 -2805 2803 2806 0
49 -2804 2803 2806 0
49 -2804 -2805 2806 0
49 -2806 0
49 -934 2805 2807 0
49 -933 2805 2807 0
49 -933 -934 2807 0
49 -2807 0
49 -932 2804 2808 0
49 -931 2804 2808 0
49 -931 -932 2808 0
49 -2808 0
49 935 0
49 936 0
49 937 0
49 938 0
49 939 940 941 942 943 944 945 946 0
49 -2811 2809 2812 0
49 -2810 2809 2812 0
49 -2810 -2811 2812 0
49 -2812 0
49 -2814 2811 2815 0
49 -2813 2811 2815 0
49 -2813 -2814 2815 0
49 -2815 0
49 -946 2814 2816 0
49 -945 2814 2816 0
49 -945 -946 2816 0
49 -2816 0
49 -944 2813 2817 0
49 -943 2813 2817 0
49 -943 -944 2817 0
49 -2817 0
49 -2819 2810 2820 0
49 -2818 2810 2820 0
49 -2818 -2819 2820 0
49 -2820 0
49 -942 2819 2821 0
49 -941 2819 2821 0
49 -941 -942 2821 0
49 -2821 0
49 -940 2818 2822 0
49 -939 2818 2822 0
49 -939 -940 2822 0
49 -2822 0
49 947 948 949 950 951 952 953 954 0
49 -2825 2823 2826 0
49 -2824 2823 2826 0
49 -2824 -2825 2826 0
49 -2826 0
49 -2828 2825 2829 0
49 -2827 2825 2829 0
49 -2827 -2828 2829 0
49 -2829 0
49 -954 2828 2830 0
49 -953 2828 2830 0
49 -953 -954 2830 0
49 -2830 0
49 -952 2827 2831 0
49 -951 2827 2831 0
49 -951 -952 2831 0
49 -2831 0
49 -2833 2824 2834 0
49 -2832 2824 2834 0
49 -2832 -2833 2834 0
49 -2834 0
49 -950 2833 2835 0
49 -949 2833 2835 0
49 -949 -950 2835 0
49 -2835 0
49 -948 2832 2836 0
49 -947 2832 2836 0
49 -947 -948 2836 0
49 -2836 0
49 955 956 957 958 0
49 -2839 2837 2840 0
49 -2838 2837 2840 0
49 -2838 -2839 2840 0
49 -2840 0
49 -958 2839 2841 0
49 -957 2839 2841 0
49 -957 -958 2841 0
49 -2841 0
49 -956 2838 2842 0
49 -955 2838 2842 0
49 -955 -956 2842 0
49 -2842 0
49 959 960 961 962 0
49 -2845 2843 2846 0
49 -2844 2843 2846 0
49 -2844 -2845 2846 0
49 -2846 0
49 -962 2845 2847 0
49 -961 2845 2847 0
49 -961 -962 2847 0
49 -2847 0
49 -960 2844 2848 0
49 -959 2844 2848 0
49 -959 -960 2848 0
49 -2848 0
49 963 964 965 0
49 -965 2849 2851 0
49 -2850 2849 2851 0
49 -2850 -965 2851 0
49 -2851 0
49 -964 2850 2852 0
49 -963 2850 2852 0
49 -963 -964 2852 0
49 -2852 0
49 966 967 968 0
49 -968 2853 2855 0
49 -2854 2853 2855 0
49 -2854 -968 2855 0
49 -2855 0
49 -967 2854 2856 0
49 -966 2854 2856 0
49 -966 -967 2856 0
49 -2856 0
49 969 970 971 972 973 974 975 976 977 978 979 980 981 982 983 984 985 986 987 988 989 990 991 992 993 994 995 996 997 998 999 1000 1001 0
49 -2859 2857 2860 0
49 -2858 2857 2860 0
49 -2858 -2859 2860 0
49 -2860 0
49 -2862 2859 2863 0
49 -2861 2859 2863 0
49 -2861 -2862 2863 0
49 -2863 0
49 -2865 2862 2866 0
49 -2864 2862 2866 0
49 -2864 -2865 2866 0
49 -2866 0
49 -2868 2865 2869 0
49 -2867 2865 2869 0
49 -2867 -2868 2869 0
49 -2869 0
49 -1001 2868 2870 0
49 -1000 2868 2870 0
49 -1000 -1001 2870 0
49 -2870 0
49 -999 2867 2871 0
49 -998 2867 2871 0
49 -998 -999 2871 0
49 -2871 0
49 -2873 2864 2874 0
49 -2872 2864 2874 0
49 -2872 -2873 2874 0
49 -2874 0
49 -997 2873 2875 0
49 -996 2873 2875 0
49 -996 -997 2875 0
49 -2875 0
49 -995 2872 2876 0
49 -994 2872 2876 0
49 -994 -995 2876 0
49 -2876 0
49 -2878 2861 2879 0
49 -2877 2861 2879 0
49 -2877 -2878 2879 0
49 -2879 0
49 -2881 2878 2882 0
49 -2880 2878 2882 0
49 -2880 -2881 2882 0
49 -2882 0
49 -993 2881 2883 0
49 -992 2881 2883 0
49 -992 -993 2883 0
49 -2883 0
49 -991 2880 2884 0
49 -990 2880 2884 0
49 -990 -991 2884 0
49 -2884 0
49 -2886 2877 2887 0
49 -2885 2877 2887 0
49 -2885 -2886 2887 0
49 -2887 0
49 -989 2886 2888 0
49 -988 2886 2888 0
49 -988 -989 2888 0
49 -2888 0
49 -987 2885 2889 0
49 -986 2885 2889 0
49 -986 -987 2889 0
49 -2889 0
49 -2891 2858 2892 0
49 -2890 2858 2892 0
49 -2890 -2891 2892 0
49 -2892 0
49 -2894 2891 2895 0
49 -2893 2891 2895 0
49 -2893 -2894 2895 0
49 -2895 0
49 -2897 2894 2898 0
49 -2896 2894 2898 0
49 -2896 -2897 2898 0
49 -2898 0
49 -985 2897 2899 0
49 -984 2897 2899 0
49 -984 -985 2899 0
49 -2899 0
49 -983 2896 2900 0
49 -982 2896 2900 0
49 -982 -983 2900 0
49 -2900 0
49 -2902 2893 2903 0
49 -2901 2893 2903 0
49 -2901 -2902 2903 0
49 -2903 0
49 -981 2902 2904 0
49 -980 2902 2904 0
49 -980 -981 2904 0
49 -2904 0
49 -979 2901 2905 0
49 -978 2901 2905 0
49 -978 -979 2905 0
49 -2905 0
49 -2907 2890 2908 0
49 -2906 2890 2908 0
49 -2906 -2907 2908 0
49 -2908 0
49 -2910 2907 2911 0
49 -2909 2907 2911 0
49 -2909 -2910 2911 0
49 -2911 0
49 -977 2910 2912 0
49 -976 2910 2912 0
49 -976 -977 2912 0
49 -2912 0
49 -975 2909 2913 0
49 -974 2909 2913 0
49 -974 -975 2913 0
49 -2913 0
49 -2915 2906 2916 0
49 -2914 2906 2916 0
49 -2914 -2915 2916 0
49 -2916 0
49 -973 2915 2917 0
49 -972 2915 2917 0
49 -972 -973 2917 0
49 -2917 0
49 -971 2914 2919 0
49 -2918 2914 2919 0
49 -2918 -971 2919 0
49 -2919 0
49 -970 2918 2920 0
49 -969 2918 2920 0
49 -969 -970 2920 0
49 -2920 0
49 1002 1003 1004 1005 1006 1007 1008 1009 1010 1011 1012 1013 1014 1015 1016 1017 1018 1019 1020 1021 1022 1023 1024 1025 1026 1027 1028 1029 1030 1031 1032 1033 1034 0
49 -2923 2921 2924 0
49 -2922 2921 2924 0
49 -2922 -2923 2924 0
49 -2924 0
49 -2926 2923 2927 0
49 -2925 2923 2927 0
49 -2925 -2926 2927 0
49 -2927 0
49 -2929 2926 2930 0
49 -2928 2926 2930 0
49 -2928 -2929 2930 0
49 -2930 0
49 -2932 2929 2933 0
49 -2931 2929 2933 0
49 -2931 -2932 2933 0
49 -2933 0
49 -1034 2932 2934 0
49 -1033 2932 2934 0
49 -1033 -1034 2934 0
49 -2934 0
49 -1032 2931 2935 0
49 -1031 2931 2935 0
49 -1031 -1032 2935 0
49 -2935 0
49 -2937 2928 2938 0
49 -2936 2928 2938 0
49 -2936 -2937 2938 0
49 -2938 0
49 -1030 2937 2939 0
49 -1029 2937 2939 0
49 -1029 -1030 2939 0
49 -2939 0
49 -1028 2936 2940 0
49 -1027 2936 2940 0
49 -1027 -1028 2940 0
49 -2940 0
49 -2942 2925 2943 0
49 -2941 2925 2943 0
49 -2941 -2942 2943 0
49 -2943 0
49 -2945 2942 2946 0
49 -2944 2942 2946 0
49 -2944 -2945 2946 0
49 -2946 0
49 -1026 2945 2947 0
49 -1025 2945 2947 0
49 -1025 -1026 2947 0
49 -2947 0
49 -1024 2944 2948 0
49 -1023 2944 2948 0
49 -1023 -1024 2948 0
49 -2948 0
49 -2950 2941 2951 0
49 -2949 2941 2951 0
49 -2949 -2950 2951 0
49 -2951 0
49 -1022 2950 2952 0
49 -1021 2950 2952 0
49 -1021 -1022 2952 0
49 -2952 0
49 -1020 2949 2953 0
49 -1019 2949 2953 0
49 -1019 -1020 2953 0
49 -2953 0
49 -2955 2922 2956 0
49 -2954 2922 2956 0
49 -2954 -2955 2956 0
49 -2956 0
49 -2958 2955 2959 0
49 -2957 2955 2959 0
49 -2957 -2958 2959 0
49 -2959 0
49 -2961 2958 2962 0
49 -2960 2958 2962 0
49 -2960 -2961 2962 0
49 -2962 0
49 -1018 2961 2963 0
49 -1017 2961 2963 0
49 -1017 -1018 2963 0
49 -2963 0
49 -1016 2960 2964 0
49 -1015 2960 2964 0
49 -1015 -1016 2964 0
49 -2964 0
49 -2966 2957 2967 0
49 -2965 2957 2967 0
49 -2965 -2966 2967 0
49 -2967 0
49 -1014 2966 2968 0
49 -1013 2966 2968 0
49 -1013 -1014 2968 0
49 -2968 0
49 -1012 2965 2969 0
49 -1011 2965 2969 0
49 -1011 -1012 2969 0
49 -2969 0
49 -2971 2954 2972 0
49 -2970 2954 2972 0
49 -2970 -2971 2972 0
49 -2972 0
49 -2974 2971 2975 0
49 -2973 2971 2975 0
49 -2973 -2974 2975 0
49 -2975 0
49 -1010 2974 2976 0
49 -1009 2974 2976 0
49 -1009 -1010 2976 0
49 -2976 0
49 -1008 2973 2977 0
49 -1007 2973 2977 0
49 -1007 -1008 2977 0
49 -2977 0
49 -2979 2970 2980 0
49 -2978 2970 2980 0
49 -2978 -2979 2980 0
49 -2980 0
49 -1006 2979 2981 0
49 -1005 2979 2981 0
49 -1005 -1006 2981 0
49 -2981 0
49 -1004 2978 2983 0
49 -2982 2978 2983 0
49 -2982 -1004 2983 0
49 -2983 0
49 -1003 2982 2984 0
49 -1002 2982 2984 0
49 -1002 -1003 2984 0
49 -2984 0
49 1035 0
49 1036 0
49 1037 0
49 1038 0
49 1039 0
49 1040 0
49 1041 1042 0
49 -1041 -1042 0
49 1043 1044 0
49 -1043 -1044 0
49 1045 1046 1047 1048 1049 1050 1051 1052 0
49 -2987 2985 2988 0
49 -2986 2985 2988 0
49 -2986 -2987 2988 0
49 -2988 0
49 -2990 2987 2991 0
49 -2989 2987 2991 0
49 -2989 -2990 2991 0
49 -2991 0
49 -1052 2990 2992 0
49 -1051 2990 2992 0
49 -1051 -1052 2992 0
49 -2992 0
49 -1050 2989 2993 0
49 -1049 2989 2993 0
49 -1049 -1050 2993 0
49 -2993 0
49 -2995 2986 2996 0
49 -2994 2986 2996 0
49 -2994 -2995 2996 0
49 -2996 0
49 -1048 2995 2997 0
49 -1047 2995 2997 0
49 -1047 -1048 2997 0
49 -2997 0
49 -1046 2994 2998 0
49 -1045 2994 2998 0
49 -1045 -1046 2998 0
49 -2998 0
49 1053 1054 1055 1056 1057 1058 1059 1060 0
49 -3001 2999 3002 0
49 -3000 2999 3002 0
49 -3000 -3001 3002 0
49 -3002 0
49 -3004 3001 3005 0
49 -3003 3001 3005 0
49 -3003 -3004 3005 0
49 -3005 0
49 -1060 3004 3006 0
49 -1059 3004 3006 0
49 -1059 -1060 3006 0
49 -3006 0
49 -1058 3003 3007 0
49 -1057 3003 3007 0
49 -1057 -1058 3007 0
49 -3007 0
49 -3009 3000 3010 0
49 -3008 3000 3010 0
49 -3008 -3009 3010 0
49 -3010 0
49 -1056 3009 3011 0
49 -1055 3009 3011 0
49 -1055 -1056 3011 0
49 -3011 0
49 -1054 3008 3012 0
49 -1053 3008 3012 0
49 -1053 -1054 3012 0
49 -3012 0
49 1061 0
49 1062 0
49 1063 1064 1065 1066 1067 1068 1069 1070 1071 1072 1073 1074 1075 1076 1077 1078 1079 1080 0
49 -3015 3013 3016 0
49 -3014 3013 3016 0
49 -3014 -3015 3016 0
49 -3016 0
49 -3018 3015 3019 0
49 -3017 3015 3019 0
49 -3017 -3018 3019 0
49 -3019 0
49 -3021 3018 3022 0
49 -3020 3018 3022 0
49 -3020 -3021 3022 0
49 -3022 0
49 -1080 3021 3023 0
49 -1079 3021 3023 0
49 -1079 -1080 3023 0
49 -3023 0
49 -1078 3020 3024 0
49 -1077 3020 3024 0
49 -1077 -1078 3024 0
49 -3024 0
49 -3026 3017 3027 0
49 -3025 3017 3027 0
49 -3025 -3026 3027 0
49 -3027 0
49 -1076 3026 3028 0
49 -1075 3026 3028 0
49 -1075 -1076 3028 0
49 -3028 0
49 -1074 3025 3030 0
49 -3029 3025 3030 0
49 -3029 -1074 3030 0
49 -3030 0
49 -1073 3029 3031 0
49 -1072 3029 3031 0
49 -1072 -1073 3031 0
49 -3031 0
49 -3033 3014 3034 0
49 -3032 3014 3034 0
49 -3032 -3033 3034 0
49 -3034 0
49 -3036 3033 3037 0
49 -3035 3033 3037 0
49 -3035 -3036 3037 0
49 -3037 0
49 -1071 3036 3038 0
49 -1070 3036 3038 0
49 -1070 -1071 3038 0
49 -3038 0
49 -1069 3035 3039 0
49 -1068 3035 3039 0
49 -1068 -1069 3039 0
49 -3039 0
49 -3041 3032 3042 0
49 -3040 3032 3042 0
49 -3040 -3041 3042 0
49 -3042 0
49 -1067 3041 3043 0
49 -1066 3041 3043 0
49 -1066 -1067 3043 0
49 -3043 0
49 -1065 3040 3045 0
49 -3044 3040 3045 0
49 -3044 -1065 3045 0
49 -3045 0
49 -1064 3044 3046 0
49 -1063 3044 3046 0
49 -1063 -1064 3046 0
49 -3046 0
49 1081 1082 1083 1084 1085 1086 1087 1088 1089 1090 1091 1092 1093 1094 1095 1096 1097 1098 0
49 -3049 3047 3050 0
49 -3048 3047 3050 0
49 -3048 -3049 3050 0
49 -3050 0
49 -3052 3049 3053 0
49 -3051 3049 3053 0
49 -3051 -3052 3053 0
49 -3053 0
49 -3055 3052 3056 0
49 -3054 3052 3056 0
49 -3054 -3055 3056 0
49 -3056 0
49 -1098 3055 3057 0
49 -1097 3055 3057 0
49 -1097 -1098 3057 0
49 -3057 0
49 -1096 3054 3058 0
49 -1095 3054 3058 0
49 -1095 -1096 3058 0
49 -3058 0
49 -3060 3051 3061 0
49 -3059 3051 3061 0
49 -3059 -3060 3061 0
49 -3061 0
49 -1094 3060 3062 0
49 -1093 3060 3062 0
49 -1093 -1094 3062 0
49 -3062 0
49 -1092 3059 3064 0
49 -3063 3059 3064 0
49 -3063 -1092 3064 0
49 -3064 0
49 -1091 3063 3065 0
49 -1090 3063 3065 0
49 -1090 -1091 3065 0
49 -3065 0
49 -3067 3048 3068 0
49 -3066 3048 3068 0
49 -3066 -3067 3068 0
49 -3068 0
49 -3070 3067 3071 0
49 -3069 3067 3071 0
49 -3069 -3070 3071 0
49 -3071 0
49 -1089 3070 3072 0
49 -1088 3070 3072 0
49 -1088 -1089 3072 0
49 -3072 0
49 -1087 3069 3073 0
49 -1086 3069 3073 0
49 -1086 -1087 3073 0
49 -3073 0
49 -3075 3066 3076 0
49 -3074 3066 3076 0
49 -3074 -3075 3076 0
49 -3076 0
49 -1085 3075 3077 0
49 -1084 3075 3077 0
49 -1084 -1085 3077 0
49 -3077 0
49 -1083 3074 3079 0
49 -3078 3074 3079 0
49 -3078 -1083 3079 0
49 -3079 0
49 -1082 3078 3080 0
49 -1081 3078 3080 0
49 -1081 -1082 3080 0
49 -3080 0
49 1099 1100 1101 1102 1103 1104 1105 1106 1107 1108 1109 1110 1111 1112 1113 1114 1115 1116 1117 1118 1119 1120 1121 1122 1123 1124 0
49 -3083 3081 3084 0
49 -3082 3081 3084 0
49 -3082 -3083 3084 0
49 -3084 0
49 -3086 3083 3087 0
49 -3085 3083 3087 0
49 -3085 -3086 3087 0
49 -3087 0
49 -3089 3086 3090 0
49 -3088 3086 3090 0
49 -3088 -3089 3090 0
49 -3090 0
49 -1124 3089 3092 0
49 -3091 3089 3092 0
49 -3091 -1124 3092 0
49 -3092 0
49 -1123 3091 3093 0
49 -1122 3091 3093 0
49 -1122 -1123 3093 0
49 -3093 0
49 -1121 3088 3095 0
49 -3094 3088 3095 0
49 -3094 -1121 3095 0
49 -3095 0
49 -1120 3094 3096 0
49 -1119 3094 3096 0
49 -1119 -1120 3096 0
49 -3096 0
49 -3098 3085 3099 0
49 -3097 3085 3099 0
49 -3097 -3098 3099 0
49 -3099 0
49 -1118 3098 3101 0
49 -3100 3098 3101 0
49 -3100 -1118 3101 0
49 -3101 0
49 -1117 3100 3102 0
49 -1116 3100 3102 0
49 -1116 -1117 3102 0
49 -3102 0
49 -3104 3097 3105 0
49 -3103 3097 3105 0
49 -3103 -3104 3105 0
49 -3105 0
49 -1115 3104 3106 0
49 -1114 3104 3106 0
49 -1114 -1115 3106 0
49 -3106 0
49 -1113 3103 3107 0
49 -1112 3103 3107 0
49 -1112 -1113 3107 0
49 -3107 0
49 -3109 3082 3110 0
49 -3108 3082 3110 0
49 -3108 -3109 3110 0
49 -3110 0
49 -3112 3109 3113 0
49 -3111 3109 3113 0
49 -3111 -3112 3113 0
49 -3113 0
49 -1111 3112 3115 0
49 -3114 3112 3115 0
49 -3114 -1111 3115 0
49 -3115 0
49 -1110 3114 3116 0
49 -1109 3114 3116 0
49 -1109 -1110 3116 0
49 -3116 0
49 -1108 3111 3118 0
49 -3117 3111 3118 0
49 -3117 -1108 3118 0
49 -3118 0
49 -1107 3117 3119 0
49 -1106 3117 3119 0
49 -1106 -1107 3119 0
49 -3119 0
49 -3121 3108 3122 0
49 -3120 3108 3122 0
49 -3120 -3121 3122 0
49 -3122 0
49 -1105 3121 3124 0
49 -3123 3121 3124 0
49 -3123 -1105 3124 0
49 -3124 0
49 -1104 3123 3125 0
49 -1103 3123 3125 0
49 -1103 -1104 3125 0
49 -3125 0
49 -3127 3120 3128 0
49 -3126 3120 3128 0
49 -3126 -3127 3128 0
49 -3128 0
49 -1102 3127 3129 0
49 -1101 3127 3129 0
49 -1101 -1102 3129 0
49 -3129 0
49 -1100 3126 3130 0
49 -1099 3126 3130 0
49 -1099 -1100 3130 0
49 -3130 0
49 1125 1126 1127 1128 1129 1130 1131 1132 1133 1134 1135 1136 1137 1138 1139 1140 1141 1142 1143 1144 1145 1146 1147 1148 1149 1150 0
49 -3133 3131 3134 0
49 -3132 3131 3134 0
49 -3132 -3133 3134 0
49 -3134 0
49 -3136 3133 3137 0
49 -3135 3133 3137 0
49 -3135 -3136 3137 0
49 -3137 0
49 -3139 3136 3140 0
49 -3138 3136 3140 0
49 -3138 -3139 3140 0
49 -3140 0
49 -1150 3139 3142 0
49 -3141 3139 3142 0
49 -3141 -1150 3142 0
49 -3142 0
49 -1149 3141 3143 0
49 -1148 3141 3143 0
49 -1148 -1149 3143 0
49 -3143 0
49 -1147 3138 3145 0
49 -3144 3138 3145 0
49 -3144 -1147 3145 0
49 -3145 0
49 -1146 3144 3146 0
49 -1145 3144 3146 0
49 -1145 -1146 3146 0
49 -3146 0
49 -3148 3135 3149 0
49 -3147 3135 3149 0
49 -3147 -3148 3149 0
49 -3149 0
49 -1144 3148 3151 0
49 -3150 3148 3151 0
49 -3150 -1144 3151 0
49 -3151 0
49 -1143 3150 3152 0
49 -1142 3150 3152 0
49 -1142 -1143 3152 0
49 -3152 0
49 -3154 3147 3155 0
49 -3153 3147 3155 0
49 -3153 -3154 3155 0
49 -3155 0
49 -1141 3154 3156 0
49 -1140 3154 3156 0
49 -1140 -1141 3156 0
49 -3156 0
49 -1139 3153 3157 0
49 -1138 3153 3157 0
49 -1138 -1139 3157 0
49 -3157 0
49 -3159 3132 3160 0
49 -3158 3132 3160 0
49 -3158 -3159 3160 0
49 -3160 0
49 -3162 3159 3163 0
49 -3161 3159 3163 0
49 -3161 -3162 3163 0
49 -3163 0
49 -1137 3162 3165 0
49 -3164 3162 3165 0
49 -3164 -1137 3165 0
49 -3165 0
49 -1136 3164 3166 0
49 -1135 3164 3166 0
49 -1135 -1136 3166 0
49 -3166 0
49 -1134 3161 3168 0
49 -3167 3161 3168 0
49 -3167 -1134 3168 0
49 -3168 0
49 -1133 3167 3169 0
49 -1132 3167 3169 0
49 -1132 -1133 3169 0
49 -3169 0
49 -3171 3158 3172 0
49 -3170 3158 3172 0
49 -3170 -3171 3172 0
49 -3172 0
49 -1131 3171 3174 0
49 -3173 3171 3174 0
49 -3173 -1131 3174 0
49 -3174 0
49 -1130 3173 3175 0
49 -1129 3173 3175 0
49 -1129 -1130 3175 0
49 -3175 0
49 -3177 3170 3178 0
49 -3176 3170 3178 0
49 -3176 -3177 3178 0
49 -3178 0
49 -1128 3177 3179 0
49 -1127 3177 3179 0
49 -1127 -1128 3179 0
49 -3179 0
49 -1126 3176 3180 0
49 -1125 3176 3180 0
49 -1125 -1126 3180 0
49 -3180 0
49 1151 1152 1153 1154 1155 1156 1157 1158 1159 1160 1161 1162 1163 1164 1165 1166 1167 1168 1169 0
49 -3183 3181 3184 0
49 -3182 3181 3184 0
49 -3182 -3183 3184 0
49 -3184 0
49 -3186 3183 3187 0
49 -3185 3183 3187 0
49 -3185 -3186 3187 0
49 -3187 0
49 -3189 3186 3190 0
49 -3188 3186 3190 0
49 -3188 -3189 3190 0
49 -3190 0
49 -1169 3189 3191 0
49 -1168 3189 3191 0
49 -1168 -1169 3191 0
49 -3191 0
49 -1167 3188 3192 0
49 -1166 3188 3192 0
49 -1166 -1167 3192 0
49 -3192 0
49 -3194 3185 3195 0
49 -3193 3185 3195 0
49 -3193 -3194 3195 0
49 -3195 0
49 -1165 3194 3196 0
49 -1164 3194 3196 0
49 -1164 -1165 3196 0
49 -3196 0
49 -1163 3193 3198 0
49 -3197 3193 3198 0
49 -3197 -1163 3198 0
49 -3198 0
49 -1162 3197 3199 0
49 -1161 3197 3199 0
49 -1161 -1162 3199 0
49 -3199 0
49 -3201 3182 3202 0
49 -3200 3182 3202 0
49 -3200 -3201 3202 0
49 -3202 0
49 -3204 3201 3205 0
49 -3203 3201 3205 0
49 -3203 -3204 3205 0
49 -3205 0
49 -1160 3204 3206 0
49 -1159 3204 3206 0
49 -1159 -1160 3206 0
49 -3206 0
49 -1158 3203 3208 0
49 -3207 3203 3208 0
49 -3207 -1158 3208 0
49 -3208 0
49 -1157 3207 3209 0
49 -1156 3207 3209 0
49 -1156 -1157 3209 0
49 -3209 0
49 -3211 3200 3212 0
49 -3210 3200 3212 0
49 -3210 -3211 3212 0
49 -3212 0
49 -1155 3211 3213 0
49 -1154 3211 3213 0
49 -1154 -1155 3213 0
49 -3213 0
49 -1153 3210 3215 0
49 -3214 3210 3215 0
49 -3214 -1153 3215 0
49 -3215 0
49 -1152 3214 3216 0
49 -1151 3214 3216 0
49 -1151 -1152 3216 0
49 -3216 0
49 1170 1171 1172 1173 1174 1175 1176 1177 1178 1179 1180 1181 1182 1183 1184 1185 1186 1187 1188 0
49 -3219 3217 3220 0
49 -3218 3217 3220 0
49 -3218 -3219 3220 0
49 -3220 0
49 -3222 3219 3223 0
49 -3221 3219 3223 0
49 -3221 -3222 3223 0
49 -3223 0
49 -3225 3222 3226 0
49 -3224 3222 3226 0
49 -3224 -3225 3226 0
49 -3226 0
49 -1188 3225 3227 0
49 -1187 3225 3227 0
49 -1187 -1188 3227 0
49 -3227 0
49 -1186 3224 3228 0
49 -1185 3224 3228 0
49 -1185 -1186 3228 0
49 -3228 0
49 -3230 3221 3231 0
49 -3229 3221 3231 0
49 -3229 -3230 3231 0
49 -3231 0
49 -1184 3230 3232 0
49 -1183 3230 3232 0
49 -1183 -1184 3232 0
49 -3232 0
49 -1182 3229 3234 0
49 -3233 3229 3234 0
49 -3233 -1182 3234 0
49 -3234 0
49 -1181 3233 3235 0
49 -1180 3233 3235 0
49 -1180 -1181 3235 0
49 -3235 0
49 -3237 3218 3238 0
49 -3236 3218 3238 0
49 -3236 -3237 3238 0
49 -3238 0
49 -3240 3237 3241 0
49 -3239 3237 3241 0
49 -3239 -3240 3241 0
49 -3241 0
49 -1179 3240 3242 0
49 -1178 3240 3242 0
49 -1178 -1179 3242 0
49 -3242 0
49 -1177 3239 3244 0
49 -3243 3239 3244 0
49 -3243 -1177 3244 0
49 -3244 0
49 -1176 3243 3245 0
49 -1175 3243 3245 0
49 -1175 -1176 3245 0
49 -3245 0
49 -3247 3236 3248 0
49 -3246 3236 3248 0
49 -3246 -3247 3248 0
49 -3248 0
49 -1174 3247 3249 0
49 -1173 3247 3249 0
49 -1173 -1174 3249 0
49 -3249 0
49 -1172 3246 3251 0
49 -3250 3246 3251 0
49 -3250 -1172 3251 0
49 -3251 0
49 -1171 3250 3252 0
49 -1170 3250 3252 0
49 -1170 -1171 3252 0
49 -3252 0
49 1189 0
49 1190 0
49 1191 1192 1193 1194 1195 1196 1197 1198 0
49 -3255 3253 3256 0
49 -3254 3253 3256 0
49 -3254 -3255 3256 0
49 -3256 0
49 -3258 3255 3259 0
49 -3257 3255 3259 0
49 -3257 -3258 3259 0
49 -3259 0
49 -1198 3258 3260 0
49 -1197 3258 3260 0
49 -1197 -1198 3260 0
49 -3260 0
49 -1196 3257 3261 0
49 -1195 3257 3261 0
49 -1195 -1196 3261 0
49 -3261 0
49 -3263 3254 3264 0
49 -3262 3254 3264 0
49 -3262 -3263 3264 0
49 -3264 0
49 -1194 3263 3265 0
49 -1193 3263 3265 0
49 -1193 -1194 3265 0
49 -3265 0
49 -1192 3262 3266 0
49 -1191 3262 3266 0
49 -1191 -1192 3266 0
49 -3266 0
49 1199 1200 1201 1202 1203 1204 1205 1206 0
49 -3269 3267 3270 0
49 -3268 3267 3270 0
49 -3268 -3269 3270 0
49 -3270 0
49 -3272 3269 3273 0
49 -3271 3269 3273 0
49 -3271 -3272 3273 0
49 -3273 0
49 -1206 3272 3274 0
49 -1205 3272 3274 0
49 -1205 -1206 3274 0
49 -3274 0
49 -1204 3271 3275 0
49 -1203 3271 3275 0
49 -1203 -1204 3275 0
49 -3275 0
49 -3277 3268 3278 0
49 -3276 3268 3278 0
49 -3276 -3277 3278 0
49 -3278 0
49 -1202 3277 3279 0
49 -1201 3277 3279 0
49 -1201 -1202 3279 0
49 -3279 0
49 -1200 3276 3280 0
49 -1199 3276 3280 0
49 -1199 -1200 3280 0
49 -3280 0
49 1207 1208 1209 1210 1211 1212 1213 1214 1215 1216 1217 1218 0
49 -3283 3281 3284 0
49 -3282 3281 3284 0
49 -3282 -3283 3284 0
49 -3284 0
49 -3286 3283 3287 0
49 -3285 3283 3287 0
49 -3285 -3286 3287 0
49 -3287 0
49 -1218 3286 3289 0
49 -3288 3286 3289 0
49 -3288 -1218 3289 0
49 -3289 0
49 -1217 3288 3290 0
49 -1216 3288 3290 0
49 -1216 -1217 3290 0
49 -3290 0
49 -1215 3285 3292 0
49 -3291 3285 3292 0
49 -3291 -1215 3292 0
49 -3292 0
49 -1214 3291 3293 0
49 -1213 3291 3293 0
49 -1213 -1214 3293 0
49 -3293 0
49 -3295 3282 3296 0
49 -3294 3282 3296 0
49 -3294 -3295 3296 0
49 -3296 0
49 -1212 3295 3298 0
49 -3297 3295 3298 0
49 -3297 -1212 3298 0
49 -3298 0
49 -1211 3297 3299 0
49 -1210 3297 3299 0
49 -1210 -1211 3299 0
49 -3299 0
49 -1209 3294 3301 0
49 -3300 3294 3301 0
49 -3300 -1209 3301 0
49 -3301 0
49 -1208 3300 3302 0
49 -1207 3300 3302 0
49 -1207 -1208 3302 0
49 -3302 0
49 1219 1220 1221 1222 1223 1224 1225 1226 1227 1228 1229 1230 0
49 -3305 3303 3306 0
49 -3304 3303 3306 0
49 -3304 -3305 3306 0
49 -3306 0
49 -3308 3305 3309 0
49 -3307 3305 3309 0
49 -3307 -3308 3309 0
49 -3309 0
49 -1230 3308 3311 0
49 -3310 3308 3311 0
49 -3310 -1230 3311 0
49 -3311 0
49 -1229 3310 3312 0
49 -1228 3310 3312 0
49 -1228 -1229 3312 0
49 -3312 0
49 -1227 3307 3314 0
49 -3313 3307 3314 0
49 -3313 -1227 3314 0
49 -3314 0
49 -1226 3313 3315 0
49 -1225 3313 3315 0
49 -1225 -1226 3315 0
49 -3315 0
49 -3317 3304 3318 0
49 -3316 3304 3318 0
49 -3316 -3317 3318 0
49 -3318 0
49 -1224 3317 3320 0
49 -3319 3317 3320 0
49 -3319 -1224 3320 0
49 -3320 0
49 -1223 3319 3321 0
49 -1222 3319 3321 0
49 -1222 -1223 3321 0
49 -3321 0
49 -1221 3316 3323 0
49 -3322 3316 3323 0
49 -3322 -1221 3323 0
49 -3323 0
49 -1220 3322 3324 0
49 -1219 3322 3324 0
49 -1219 -1220 3324 0
49 -3324 0
49 1231 1232 1233 1234 1235 1236 1237 0
49 -3327 3325 3328 0
49 -3326 3325 3328 0
49 -3326 -3327 3328 0
49 -3328 0
49 -1237 3327 3330 0
49 -3329 3327 3330 0
49 -3329 -1237 3330 0
49 -3330 0
49 -1236 3329 3331 0
49 -1235 3329 3331 0
49 -1235 -1236 3331 0
49 -3331 0
49 -3333 3326 3334 0
49 -3332 3326 3334 0
49 -3332 -3333 3334 0
49 -3334 0
49 -1234 3333 3335 0
49 -1233 3333 3335 0
49 -1233 -1234 3335 0
49 -3335 0
49 -1232 3332 3336 0
49 -1231 3332 3336 0
49 -1231 -1232 3336 0
49 -3336 0
49 1238 1239 1240 1241 1242 1243 1244 0
49 -3339 3337 3340 0
49 -3338 3337 3340 0
49 -3338 -3339 3340 0
49 -3340 0
49 -1244 3339 3342 0
49 -3341 3339 3342 0
49 -3341 -1244 3342 0
49 -3342 0
49 -1243 3341 3343 0
49 -1242 3341 3343 0
49 -1242 -1243 3343 0
49 -3343 0
49 -3345 3338 3346 0
49 -3344 3338 3346 0
49 -3344 -3345 3346 0
49 -3346 0
49 -1241 3345 3347 0
49 -1240 3345 3347 0
49 -1240 -1241 3347 0
49 -3347 0
49 -1239 3344 3348 0
49 -1238 3344 3348 0
49 -1238 -1239 3348 0
49 -3348 0
49 1245 0
49 1246 0
49 1247 0
49 1248 0
49 1249 1250 1251 1252 0
49 -3351 3349 3352 0
49 -3350 3349 3352 0
49 -3350 -3351 3352 0
49 -3352 0
49 -1252 3351 3353 0
49 -1251 3351 3353 0
49 -1251 -1252 3353 0
49 -3353 0
49 -1250 3350 3354 0
49 -1249 3350 3354 0
49 -1249 -1250 3354 0
49 -3354 0
49 1253 1254 1255 1256 0
49 -3357 3355 3358 0
49 -3356 3355 3358 0
49 -3356 -3357 3358 0
49 -3358 0
49 -1256 3357 3359 0
49 -1255 3357 3359 0
49 -1255 -1256 3359 0
49 -3359 0
49 -1254 3356 3360 0
49 -1253 3356 3360 0
49 -1253 -1254 3360 0
49 -3360 0
49 1257 1258 1259 0
49 -1259 3361 3363 0
49 -3362 3361 3363 0
49 -3362 -1259 3363 0
49 -3363 0
49 -1258 3362 3364 0
49 -1257 3362 3364 0
49 -1257 -1258 3364 0
49 -3364 0
49 1260 1261 1262 0
49 -1262 3365 3367 0
49 -3366 3365 3367 0
49 -3366 -1262 3367 0
49 -3367 0
49 -1261 3366 3368 0
49 -1260 3366 3368 0
49 -1260 -1261 3368 0
49 -3368 0
49 1263 0
49 1264 0
49 1265 0
49 1266 0
49 1267 0
49 1268 0
49 1269 0
49 1270 0
49 1271 0
49 1272 0
49 1273 0
49 1274 0
49 1275 1276 1277 1278 0
49 -3371 3369 3372 0
49 -3370 3369 3372 0
49 -3370 -3371 3372 0
49 -3372 0
49 -1278 3371 3373 0
49 -1277 3371 3373 0
49 -1277 -1278 3373 0
49 -3373 0
49 -1276 3370 3374 0
49 -1275 3370 3374 0
49 -1275 -1276 3374 0
49 -3374 0
49 1279 1280 1281 1282 0
49 -3377 3375 3378 0
49 -3376 3375 3378 0
49 -3376 -3377 3378 0
49 -3378 0
49 -1282 3377 3379 0
49 -1281 3377 3379 0
49 -1281 -1282 3379 0
49 -3379 0
49 -1280 3376 3380 0
49 -1279 3376 3380 0
49 -1279 -1280 3380 0
49 -3380 0
49 1283 0
49 1284 0
49 1285 0
49 1286 0
49 1287 1288 1289 1290 0
49 -3383 3381 3384 0
49 -3382 3381 3384 0
49 -3382 -3383 3384 0
49 -3384 0
49 -1290 3383 3385 0
49 -1289 3383 3385 0
49 -1289 -1290 3385 0
49 -3385 0
49 -1288 3382 3386 0
49 -1287 3382 3386 0
49 -1287 -1288 3386 0
49 -3386 0
49 1291 1292 1293 1294 0
49 -3389 3387 3390 0
49 -3388 3387 3390 0
49 -3388 -3389 3390 0
49 -3390 0
49 -1294 3389 3391 0
49 -1293 3389 3391 0
49 -1293 -1294 3391 0
49 -3391 0
49 -1292 3388 3392 0
49 -1291 3388 3392 0
49 -1291 -1292 3392 0
49 -3392 0
49 1295 1296 1297 1298 1299 1300 0
49 -3395 3393 3396 0
49 -3394 3393 3396 0
49 -3394 -3395 3396 0
49 -3396 0
49 -1300 3395 3398 0
49 -3397 3395 3398 0
49 -3397 -1300 3398 0
49 -3398 0
49 -1299 3397 3399 0
49 -1298 3397 3399 0
49 -1298 -1299 3399 0
49 -3399 0
49 -1297 3394 3401 0
49 -3400 3394 3401 0
49 -3400 -1297 3401 0
49 -3401 0
49 -1296 3400 3402 0
49 -1295 3400 3402 0
49 -1295 -1296 3402 0
49 -3402 0
49 1301 1302 1303 1304 1305 1306 0
49 -3405 3403 3406 0
49 -3404 3403 3406 0
49 -3404 -3405 3406 0
49 -3406 0
49 -1306 3405 3408 0
49 -3407 3405 3408 0
49 -3407 -1306 3408 0
49 -3408 0
49 -1305 3407 3409 0
49 -1304 3407 3409 0
49 -1304 -1305 3409 0
49 -3409 0
49 -1303 3404 3411 0
49 -3410 3404 3411 0
49 -3410 -1303 3411 0
49 -3411 0
49 -1302 3410 3412 0
49 -1301 3410 3412 0
49 -1301 -1302 3412 0
49 -3412 0
49 1307 1308 1309 1310 0
49 -3415 3413 3416 0
49 -3414 3413 3416 0
49 -3414 -3415 3416 0
49 -3416 0
49 -1310 3415 3417 0
49 -1309 3415 3417 0
49 -1309 -1310 3417 0
49 -3417 0
49 -1308 3414 3418 0
49 -1307 3414 3418 0
49 -1307 -1308 3418 0
49 -3418 0
49 1311 1312 1313 1314 0
49 -3421 3419 3422 0
49 -3420 3419 3422 0
49 -3420 -3421 3422 0
49 -3422 0
49 -1314 3421 3423 0
49 -1313 3421 3423 0
49 -1313 -1314 3423 0
49 -3423 0
49 -1312 3420 3424 0
49 -1311 3420 3424 0
49 -1311 -1312 3424 0
49 -3424 0
49 1315 0
49 1316 0
49 1317 0
49 1318 0
49 1319 1320 0
49 -1319 -1320 0
49 1321 1322 0
49 -1321 -1322 0
49 1323 1324 1325 1326 0
49 -3427 3425 3428 0
49 -3426 3425 3428 0
49 -3426 -3427 3428 0
49 -3428 0
49 -1326 3427 3429 0
49 -1325 3427 3429 0
49 -1325 -1326 3429 0
49 -3429 0
49 -1324 3426 3430 0
49 -1323 3426 3430 0
49 -1323 -1324 3430 0
49 -3430 0
49 1327 1328 1329 1330 0
49 -3433 3431 3434 0
49 -3432 3431 3434 0
49 -3432 -3433 3434 0
49 -3434 0
49 -1330 3433 3435 0
49 -1329 3433 3435 0
49 -1329 -1330 3435 0
49 -3435 0
49 -1328 3432 3436 0
49 -1327 3432 3436 0
49 -1327 -1328 3436 0
49 -3436 0
49 1331 1332 0
49 -1331 -1332 0
49 1333 1334 0
49 -1333 -1334 0
49 1335 1336 1337 0
49 -1337 3437 3439 0
49 -3438 3437 3439 0
49 -3438 -1337 3439 0
49 -3439 0
49 -1336 3438 3440 0
49 -1335 3438 3440 0
49 -1335 -1336 3440 0
49 -3440 0
49 1338 1339 1340 0
49 -1340 3441 3443 0
49 -3442 3441 3443 0
49 -3442 -1340 3443 0
49 -3443 0
49 -1339 3442 3444 0
49 -1338 3442 3444 0
49 -1338 -1339 3444 0
49 -3444 0
49 1341 1342 1343 0
49 -1343 3445 3447 0
49 -3446 3445 3447 0
49 -3446 -1343 3447 0
49 -3447 0
49 -1342 3446 3448 0
49 -1341 3446 3448 0
49 -1341 -1342 3448 0
49 -3448 0
49 1344 1345 1346 0
49 -1346 3449 3451 0
49 -3450 3449 3451 0
49 -3450 -1346 3451 0
49 -3451 0
49 -1345 3450 3452 0
49 -1344 3450 3452 0
49 -1344 -1345 3452 0
49 -3452 0
49 1347 1348 1349 1350 1351 0
49 -3455 3453 3456 0
49 -3454 3453 3456 0
49 -3454 -3455 3456 0
49 -3456 0
49 -1351 3455 3457 0
49 -1350 3455 3457 0
49 -1350 -1351 3457 0
49 -3457 0
49 -1349 3454 3459 0
49 -3458 3454 3459 0
49 -3458 -1349 3459 0
49 -3459 0
49 -1348 3458 3460 0
49 -1347 3458 3460 0
49 -1347 -1348 3460 0
49 -3460 0
49 1352 1353 1354 1355 1356 0
49 -3463 3461 3464 0
49 -3462 3461 3464 0
49 -3462 -3463 3464 0
49 -3464 0
49 -1356 3463 3465 0
49 -1355 3463 3465 0
49 -1355 -1356 3465 0
49 -3465 0
49 -1354 3462 3467 0
49 -3466 3462 3467 0
49 -3466 -1354 3467 0
49 -3467 0
49 -1353 3466 3468 0
49 -1352 3466 3468 0
49 -1352 -1353 3468 0
49 -3468 0
49 1357 1358 0
49 -1357 -1358 0
49 1359 1360 0
49 -1359 -1360 0
49 1361 1362 1363 1364 0
49 -3471 3469 3472 0
49 -3470 3469 3472 0
49 -3470 -3471 3472 0
49 -3472 0
49 -1364 3471 3473 0
49 -1363 3471 3473 0
49 -1363 -1364 3473 0
49 -3473 0
49 -1362 3470 3474 0
49 -1361 3470 3474 0
49 -1361 -1362 3474 0
49 -3474 0
49 1365 1366 1367 1368 0
49 -3477 3475 3478 0
49 -3476 3475 3478 0
49 -3476 -3477 3478 0
49 -3478 0
49 -1368 3477 3479 0
49 -1367 3477 3479 0
49 -1367 -1368 3479 0
49 -3479 0
49 -1366 3476 3480 0
49 -1365 3476 3480 0
49 -1365 -1366 3480 0
49 -3480 0
49 1369 1370 1371 1372 0
49 -3483 3481 3484 0
49 -3482 3481 3484 0
49 -3482 -3483 3484 0
49 -3484 0
49 -1372 3483 3485 0
49 -1371 3483 3485 0
49 -1371 -1372 3485 0
49 -3485 0
49 -1370 3482 3486 0
49 -1369 3482 3486 0
49 -1369 -1370 3486 0
49 -3486 0
49 1373 1374 1375 1376 0
49 -3489 3487 3490 0
49 -3488 3487 3490 0
49 -3488 -3489 3490 0
49 -3490 0
49 -1376 3489 3491 0
49 -1375 3489 3491 0
49 -1375 -1376 3491 0
49 -3491 0
49 -1374 3488 3492 0
49 -1373 3488 3492 0
49 -1373 -1374 3492 0
49 -3492 0
49 1377 1378 0
49 -1377 -1378 0
49 1379 1380 0
49 -1379 -1380 0
49 1381 1382 0
49 -1381 -1382 0
49 1383 1384 0
49 -1383 -1384 0
49 1385 1386 0
49 -1385 -1386 0
49 1387 1388 0
49 -1387 -1388 0
49 1389 0
49 1390 0
49 1391 1392 0
49 -1391 -1392 0
49 1393 1394 0
49 -1393 -1394 0
49 1395 0
49 1396 0
49 1397 1398 1399 0
49 -1399 3493 3495 0
49 -3494 3493 3495 0
49 -3494 -1399 3495 0
49 -3495 0
49 -1398 3494 3496 0
49 -1397 3494 3496 0
49 -1397 -1398 3496 0
49 -3496 0
49 1400 1401 1402 0
49 -1402 3497 3499 0
49 -3498 3497 3499 0
49 -3498 -1402 3499 0
49 -3499 0
49 -1401 3498 3500 0
49 -1400 3498 3500 0
49 -1400 -1401 3500 0
49 -3500 0
49 1403 1404 0
49 -1403 -1404 0
49 1405 1406 0
49 -1405 -1406 0
49 1407 1408 0
49 -1407 -1408 0
49 1409 1410 0
49 -1409 -1410 0
49 1411 0
49 1412 0
49 1413 1414 1415 0
49 -1415 3501 3503 0
49 -3502 3501 3503 0
49 -3502 -1415 3503 0
49 -3503 0
49 -1414 3502 3504 0
49 -1413 3502 3504 0
49 -1413 -1414 3504 0
49 -3504 0
49 1416 1417 1418 0
49 -1418 3505 3507 0
49 -3506 3505 3507 0
49 -3506 -1418 3507 0
49 -3507 0
49 -1417 3506 3508 0
49 -1416 3506 3508 0
49 -1416 -1417 3508 0
49 -3508 0
49 1419 1420 1421 1422 1423 0
49 -3511 3509 3512 0
49 -3510 3509 3512 0
49 -3510 -3511 3512 0
49 -3512 0
49 -1423 3511 3513 0
49 -1422 3511 3513 0
49 -1422 -1423 3513 0
49 -3513 0
49 -1421 3510 3515 0
49 -3514 3510 3515 0
49 -3514 -1421 3515 0
49 -3515 0
49 -1420 3514 3516 0
49 -1419 3514 3516 0
49 -1419 -1420 3516 0
49 -3516 0
49 1424 1425 1426 1427 1428 0
49 -3519 3517 3520 0
49 -3518 3517 3520 0
49 -3518 -3519 3520 0
49 -3520 0
49 -1428 3519 3521 0
49 -1427 3519 3521 0
49 -1427 -1428 3521 0
49 -3521 0
49 -1426 3518 3523 0
49 -3522 3518 3523 0
49 -3522 -1426 3523 0
49 -3523 0
49 -1425 3522 3524 0
49 -1424 3522 3524 0
49 -1424 -1425 3524 0
49 -3524 0
49 1429 1430 1431 1432 1433 1434 1435 1436 0
49 -3527 3525 3528 0
49 -3526 3525 3528 0
49 -3526 -3527 3528 0
49 -3528 0
49 -3530 3527 3531 0
49 -3529 3527 3531 0
49 -3529 -3530 3531 0
49 -3531 0
49 -1436 3530 3532 0
49 -1435 3530 3532 0
49 -1435 -1436 3532 0
49 -3532 0
49 -1434 3529 3533 0
49 -1433 3529 3533 0
49 -1433 -1434 3533 0
49 -3533 0
49 -3535 3526 3536 0
49 -3534 3526 3536 0
49 -3534 -3535 3536 0
49 -3536 0
49 -1432 3535 3537 0
49 -1431 3535 3537 0
49 -1431 -1432 3537 0
49 -3537 0
49 -1430 3534 3538 0
49 -1429 3534 3538 0
49 -1429 -1430 3538 0
49 -3538 0
49 1437 1438 1439 1440 1441 1442 1443 1444 0
49 -3541 3539 3542 0
49 -3540 3539 3542 0
49 -3540 -3541 3542 0
49 -3542 0
49 -3544 3541 3545 0
49 -3543 3541 3545 0
49 -3543 -3544 3545 0
49 -3545 0
49 -1444 3544 3546 0
49 -1443 3544 3546 0
49 -1443 -1444 3546 0
49 -3546 0
49 -1442 3543 3547 0
49 -1441 3543 3547 0
49 -1441 -1442 3547 0
49 -3547 0
49 -3549 3540 3550 0
49 -3548 3540 3550 0
49 -3548 -3549 3550 0
49 -3550 0
49 -1440 3549 3551 0
49 -1439 3549 3551 0
49 -1439 -1440 3551 0
49 -3551 0
49 -1438 3548 3552 0
49 -1437 3548 3552 0
49 -1437 -1438 3552 0
49 -3552 0
49 1445 1446 1447 1448 0
49 -3555 3553 3556 0
49 -3554 3553 3556 0
49 -3554 -3555 3556 0
49 -3556 0
49 -1448 3555 3557 0
49 -1447 3555 3557 0
49 -1447 -1448 3557 0
49 -3557 0
49 -1446 3554 3558 0
49 -1445 3554 3558 0
49 -1445 -1446 3558 0
49 -3558 0
49 1449 1450 1451 1452 0
49 -3561 3559 3562 0
49 -3560 3559 3562 0
49 -3560 -3561 3562 0
49 -3562 0
49 -1452 3561 3563 0
49 -1451 3561 3563 0
49 -1451 -1452 3563 0
49 -3563 0
49 -1450 3560 3564 0
49 -1449 3560 3564 0
49 -1449 -1450 3564 0
49 -3564 0
49 1453 1454 1455 1456 0
49 -3567 3565 3568 0
49 -3566 3565 3568 0
49 -3566 -3567 3568 0
49 -3568 0
49 -1456 3567 3569 0
49 -1455 3567 3569 0
49 -1455 -1456 3569 0
49 -3569 0
49 -1454 3566 3570 0
49 -1453 3566 3570 0
49 -1453 -1454 3570 0
49 -3570 0
49 1457 1458 1459 1460 0
49 -3573 3571 3574 0
49 -3572 3571 3574 0
49 -3572 -3573 3574 0
49 -3574 0
49 -1460 3573 3575 0
49 -1459 3573 3575 0
49 -1459 -1460 3575 0
49 -3575 0
49 -1458 3572 3576 0
49 -1457 3572 3576 0
49 -1457 -1458 3576 0
49 -3576 0
49 1461 1462 1463 1464 0
49 -3579 3577 3580 0
49 -3578 3577 3580 0
49 -3578 -3579 3580 0
49 -3580 0
49 -1464 3579 3581 0
49 -1463 3579 3581 0
49 -1463 -1464 3581 0
49 -3581 0
49 -1462 3578 3582 0
49 -1461 3578 3582 0
49 -1461 -1462 3582 0
49 -3582 0
49 1465 1466 1467 1468 0
49 -3585 3583 3586 0
49 -3584 3583 3586 0
49 -3584 -3585 3586 0
49 -3586 0
49 -1468 3585 3587 0
49 -1467 3585 3587 0
49 -1467 -1468 3587 0
49 -3587 0
49 -1466 3584 3588 0
49 -1465 3584 3588 0
49 -1465 -1466 3588 0
49 -3588 0
49 1469 1470 0
49 -1469 -1470 0
49 1471 1472 0
49 -1471 -1472 0
49 1473 1474 0
49 -1473 -1474 0
49 1475 1476 0
49 -1475 -1476 0
49 1477 1478 1479 0
49 -1479 3589 3591 0
49 -3590 3589 3591 0
49 -3590 -1479 3591 0
49 -3591 0
49 -1478 3590 3592 0
49 -1477 3590 3592 0
49 -1477 -1478 3592 0
49 -3592 0
49 1480 1481 1482 0
49 -1482 3593 3595 0
49 -3594 3593 3595 0
49 -3594 -1482 3595 0
49 -3595 0
49 -1481 3594 3596 0
49 -1480 3594 3596 0
49 -1480 -1481 3596 0
49 -3596 0
49 1483 1484 1485 0
49 -1485 3597 3599 0
49 -3598 3597 3599 0
49 -3598 -1485 3599 0
49 -3599 0
49 -1484 3598 3600 0
49 -1483 3598 3600 0
49 -1483 -1484 3600 0
49 -3600 0
49 1486 1487 1488 0
49 -1488 3601 3603 0
49 -3602 3601 3603 0
49 -3602 -1488 3603 0
49 -3603 0
49 -1487 3602 3604 0
49 -1486 3602 3604 0
49 -1486 -1487 3604 0
49 -3604 0
49 1489 1490 1491 0
49 -1491 3605 3607 0
49 -3606 3605 3607 0
49 -3606 -1491 3607 0
49 -3607 0
49 -1490 3606 3608 0
49 -1489 3606 3608 0
49 -1489 -1490 3608 0
49 -3608 0
49 1492 1493 1494 0
49 -1494 3609 3611 0
49 -3610 3609 3611 0
49 -3610 -1494 3611 0
49 -3611 0
49 -1493 3610 3612 0
49 -1492 3610 3612 0
49 -1492 -1493 3612 0
49 -3612 0
49 1495 1496 1497 0
49 -1497 3613 3615 0
49 -3614 3613 3615 0
49 -3614 -1497 3615 0
49 -3615 0
49 -1496 3614 3616 0
49 -1495 3614 3616 0
49 -1495 -1496 3616 0
49 -3616 0
49 1498 1499 1500 0
49 -1500 3617 3619 0
49 -3618 3617 3619 0
49 -3618 -1500 3619 0
49 -3619 0
49 -1499 3618 3620 0
49 -1498 3618 3620 0
49 -1498 -1499 3620 0
49 -3620 0
49 1501 1502 1503 1504 1505 1506 0
49 -3623 3621 3624 0
49 -3622 3621 3624 0
49 -3622 -3623 3624 0
49 -3624 0
49 -1506 3623 3626 0
49 -3625 3623 3626 0
49 -3625 -1506 3626 0
49 -3626 0
49 -1505 3625 3627 0
49 -1504 3625 3627 0
49 -1504 -1505 3627 0
49 -3627 0
49 -1503 3622 3629 0
49 -3628 3622 3629 0
49 -3628 -1503 3629 0
49 -3629 0
49 -1502 3628 3630 0
49 -1501 3628 3630 0
49 -1501 -1502 3630 0
49 -3630 0
49 1507 1508 1509 1510 1511 1512 0
49 -3633 3631 3634 0
49 -3632 3631 3634 0
49 -3632 -3633 3634 0
49 -3634 0
49 -1512 3633 3636 0
49 -3635 3633 3636 0
49 -3635 -1512 3636 0
49 -3636 0
49 -1511 3635 3637 0
49 -1510 3635 3637 0
49 -1510 -1511 3637 0
49 -3637 0
49 -1509 3632 3639 0
49 -3638 3632 3639 0
49 -3638 -1509 3639 0
49 -3639 0
49 -1508 3638 3640 0
49 -1507 3638 3640 0
49 -1507 -1508 3640 0
49 -3640 0
49 1513 0
49 1514 0
49 1515 1516 1517 1518 1519 1520 0
49 -3643 3641 3644 0
49 -3642 3641 3644 0
49 -3642 -3643 3644 0
49 -3644 0
49 -1520 3643 3646 0
49 -3645 3643 3646 0
49 -3645 -1520 3646 0
49 -3646 0
49 -1519 3645 3647 0
49 -1518 3645 3647 0
49 -1518 -1519 3647 0
49 -3647 0
49 -1517 3642 3649 0
49 -3648 3642 3649 0
49 -3648 -1517 3649 0
49 -3649 0
49 -1516 3648 3650 0
49 -1515 3648 3650 0
49 -1515 -1516 3650 0
49 -3650 0
49 1521 1522 1523 1524 1525 1526 0
49 -3653 3651 3654 0
49 -3652 3651 3654 0
49 -3652 -3653 3654 0
49 -3654 0
49 -1526 3653 3656 0
49 -3655 3653 3656 0
49 -3655 -1526 3656 0
49 -3656 0
49 -1525 3655 3657 0
49 -1524 3655 3657 0
49 -1524 -1525 3657 0
49 -3657 0
49 -1523 3652 3659 0
49 -3658 3652 3659 0
49 -3658 -1523 3659 0
49 -3659 0
49 -1522 3658 3660 0
49 -1521 3658 3660 0
49 -1521 -1522 3660 0
49 -3660 0
49 1527 1528 0
49 -1527 -1528 0
49 1529 1530 0
49 -1529 -1530 0
49 1531 1532 0
49 -1531 -1532 0
49 1533 1534 0
49 -1533 -1534 0
49 1535 1536 1537 1538 0
49 -3663 3661 3664 0
49 -3662 3661 3664 0
49 -3662 -3663 3664 0
49 -3664 0
49 -1538 3663 3665 0
49 -1537 3663 3665 0
49 -1537 -1538 3665 0
49 -3665 0
49 -1536 3662 3666 0
49 -1535 3662 3666 0
49 -1535 -1536 3666 0
49 -3666 0
49 1539 1540 1541 1542 0
49 -3669 3667 3670 0
49 -3668 3667 3670 0
49 -3668 -3669 3670 0
49 -3670 0
49 -1542 3669 3671 0
49 -1541 3669 3671 0
49 -1541 -1542 3671 0
49 -3671 0
49 -1540 3668 3672 0
49 -1539 3668 3672 0
49 -1539 -1540 3672 0
49 -3672 0
49 1543 1544 1545 1546 1547 0
49 -3675 3673 3676 0
49 -3674 3673 3676 0
49 -3674 -3675 3676 0
49 -3676 0
49 -1547 3675 3677 0
49 -1546 3675 3677 0
49 -1546 -1547 3677 0
49 -3677 0
49 -1545 3674 3679 0
49 -3678 3674 3679 0
49 -3678 -1545 3679 0
49 -3679 0
49 -1544 3678 3680 0
49 -1543 3678 3680 0
49 -1543 -1544 3680 0
49 -3680 0
49 1548 1549 1550 1551 1552 0
49 -3683 3681 3684 0
49 -3682 3681 3684 0
49 -3682 -3683 3684 0
49 -3684 0
49 -1552 3683 3685 0
49 -1551 3683 3685 0
49 -1551 -1552 3685 0
49 -3685 0
49 -1550 3682 3687 0
49 -3686 3682 3687 0
49 -3686 -1550 3687 0
49 -3687 0
49 -1549 3686 3688 0
49 -1548 3686 3688 0
49 -1548 -1549 3688 0
49 -3688 0
49 1553 0
49 1554 0
49 1555 0
49 1556 0
49 1557 0
49 1558 0
49 1559 1560 1561 1562 1563 1564 1565 1566 0
49 -3691 3689 3692 0
49 -3690 3689 3692 0
49 -3690 -3691 3692 0
49 -3692 0
49 -3694 3691 3695 0
49 -3693 3691 3695 0
49 -3693 -3694 3695 0
49 -3695 0
49 -1566 3694 3696 0
49 -1565 3694 3696 0
49 -1565 -1566 3696 0
49 -3696 0
49 -1564 3693 3697 0
49 -1563 3693 3697 0
49 -1563 -1564 3697 0
49 -3697 0
49 -3699 3690 3700 0
49 -3698 3690 3700 0
49 -3698 -3699 3700 0
49 -3700 0
49 -1562 3699 3701 0
49 -1561 3699 3701 0
49 -1561 -1562 3701 0
49 -3701 0
49 -1560 3698 3702 0
49 -1559 3698 3702 0
49 -1559 -1560 3702 0
49 -3702 0
49 1567 1568 1569 1570 1571 1572 1573 1574 0
49 -3705 3703 3706 0
49 -3704 3703 3706 0
49 -3704 -3705 3706 0
49 -3706 0
49 -3708 3705 3709 0
49 -3707 3705 3709 0
49 -3707 -3708 3709 0
49 -3709 0
49 -1574 3708 3710 0
49 -1573 3708 3710 0
49 -1573 -1574 3710 0
49 -3710 0
49 -1572 3707 3711 0
49 -1571 3707 3711 0
49 -1571 -1572 3711 0
49 -3711 0
49 -3713 3704 3714 0
49 -3712 3704 3714 0
49 -3712 -3713 3714 0
49 -3714 0
49 -1570 3713 3715 0
49 -1569 3713 3715 0
49 -1569 -1570 3715 0
49 -3715 0
49 -1568 3712 3716 0
49 -1567 3712 3716 0
49 -1567 -1568 3716 0
49 -3716 0
49 1575 1576 1577 0
49 -1577 3717 3719 0
49 -3718 3717 3719 0
49 -3718 -1577 3719 0
49 -3719 0
49 -1576 3718 3720 0
49 -1575 3718 3720 0
49 -1575 -1576 3720 0
49 -3720 0
49 1578 1579 1580 0
49 -1580 3721 3723 0
49 -3722 3721 3723 0
49 -3722 -1580 3723 0
49 -3723 0
49 -1579 3722 3724 0
49 -1578 3722 3724 0
49 -1578 -1579 3724 0
49 -3724 0
49 1581 1582 1583 1584 1585 1586 1587 1588 0
49 -3727 3725 3728 0
49 -3726 3725 3728 0
49 -3726 -3727 3728 0
49 -3728 0
49 -3730 3727 3731 0
49 -3729 3727 3731 0
49 -3729 -3730 3731 0
49 -3731 0
49 -1588 3730 3732 0
49 -1587 3730 3732 0
49 -1587 -1588 3732 0
49 -3732 0
49 -1586 3729 3733 0
49 -1585 3729 3733 0
49 -1585 -1586 3733 0
49 -3733 0
49 -3735 3726 3736 0
49 -3734 3726 3736 0
49 -3734 -3735 3736 0
49 -3736 0
49 -1584 3735 3737 0
49 -1583 3735 3737 0
49 -1583 -1584 3737 0
49 -3737 0
49 -1582 3734 3738 0
49 -1581 3734 3738 0
49 -1581 -1582 3738 0
49 -3738 0
49 1589 1590 1591 1592 1593 1594 1595 1596 0
49 -3741 3739 3742 0
49 -3740 3739 3742 0
49 -3740 -3741 3742 0
49 -3742 0
49 -3744 3741 3745 0
49 -3743 3741 3745 0
49 -3743 -3744 3745 0
49 -3745 0
49 -1596 3744 3746 0
49 -1595 3744 3746 0
49 -1595 -1596 3746 0
49 -3746 0
49 -1594 3743 3747 0
49 -1593 3743 3747 0
49 -1593 -1594 3747 0
49 -3747 0
49 -3749 3740 3750 0
49 -3748 3740 3750 0
49 -3748 -3749 3750 0
49 -3750 0
49 -1592 3749 3751 0
49 -1591 3749 3751 0
49 -1591 -1592 3751 0
49 -3751 0
49 -1590 3748 3752 0
49 -1589 3748 3752 0
49 -1589 -1590 3752 0
49 -3752 0
49 1597 1598 1599 1600 1601 0
49 -3755 3753 3756 0
49 -3754 3753 3756 0
49 -3754 -3755 3756 0
49 -3756 0
49 -1601 3755 3757 0
49 -1600 3755 3757 0
49 -1600 -1601 3757 0
49 -3757 0
49 -1599 3754 3759 0
49 -3758 3754 3759 0
49 -3758 -1599 3759 0
49 -3759 0
49 -1598 3758 3760 0
49 -1597 3758 3760 0
49 -1597 -1598 3760 0
49 -3760 0
49 1602 1603 1604 1605 1606 0
49 -3763 3761 3764 0
49 -3762 3761 3764 0
49 -3762 -3763 3764 0
49 -3764 0
49 -1606 3763 3765 0
49 -1605 3763 3765 0
49 -1605 -1606 3765 0
49 -3765 0
49 -1604 3762 3767 0
49 -3766 3762 3767 0
49 -3766 -1604 3767 0
49 -3767 0
49 -1603 3766 3768 0
49 -1602 3766 3768 0
49 -1602 -1603 3768 0
49 -3768 0
49 1607 1608 1609 1610 1611 1612 0
49 -3771 3769 3772 0
49 -3770 3769 3772 0
49 -3770 -3771 3772 0
49 -3772 0
49 -1612 3771 3774 0
49 -3773 3771 3774 0
49 -3773 -1612 3774 0
49 -3774 0
49 -1611 3773 3775 0
49 -1610 3773 3775 0
49 -1610 -1611 3775 0
49 -3775 0
49 -1609 3770 3777 0
49 -3776 3770 3777 0
49 -3776 -1609 3777 0
49 -3777 0
49 -1608 3776 3778 0
49 -1607 3776 3778 0
49 -1607 -1608 3778 0
49 -3778 0
49 1613 1614 1615 1616 1617 1618 0
49 -3781 3779 3782 0
49 -3780 3779 3782 0
49 -3780 -3781 3782 0
49 -3782 0
49 -1618 3781 3784 0
49 -3783 3781 3784 0
49 -3783 -1618 3784 0
49 -3784 0
49 -1617 3783 3785 0
49 -1616 3783 3785 0
49 -1616 -1617 3785 0
49 -3785 0
49 -1615 3780 3787 0
49 -3786 3780 3787 0
49 -3786 -1615 3787 0
49 -3787 0
49 -1614 3786 3788 0
49 -1613 3786 3788 0
49 -1613 -1614 3788 0
49 -3788 0
49 1619 1620 1621 1622 1623 1624 1625 1626 0
49 -3791 3789 3792 0
49 -3790 3789 3792 0
49 -3790 -3791 3792 0
49 -3792 0
49 -3794 3791 3795 0
49 -3793 3791 3795 0
49 -3793 -3794 3795 0
49 -3795 0
49 -1626 3794 3796 0
49 -1625 3794 3796 0
49 -1625 -1626 3796 0
49 -3796 0
49 -1624 3793 3797 0
49 -1623 3793 3797 0
49 -1623 -1624 3797 0
49 -3797 0
49 -3799 3790 3800 0
49 -3798 3790 3800 0
49 -3798 -3799 3800 0
49 -3800 0
49 -1622 3799 3801 0
49 -1621 3799 3801 0
49 -1621 -1622 3801 0
49 -3801 0
49 -1620 3798 3802 0
49 -1619 3798 3802 0
49 -1619 -1620 3802 0
49 -3802 0
49 1627 1628 1629 1630 1631 1632 1633 1634 0
49 -3805 3803 3806 0
49 -3804 3803 3806 0
49 -3804 -3805 3806 0
49 -3806 0
49 -3808 3805 3809 0
49 -3807 3805 3809 0
49 -3807 -3808 3809 0
49 -3809 0
49 -1634 3808 3810 0
49 -1633 3808 3810 0
49 -1633 -1634 3810 0
49 -3810 0
49 -1632 3807 3811 0
49 -1631 3807 3811 0
49 -1631 -1632 3811 0
49 -3811 0
49 -3813 3804 3814 0
49 -3812 3804 3814 0
49 -3812 -3813 3814 0
49 -3814 0
49 -1630 3813 3815 0
49 -1629 3813 3815 0
49 -1629 -1630 3815 0
49 -3815 0
49 -1628 3812 3816 0
49 -1627 3812 3816 0
49 -1627 -1628 3816 0
49 -3816 0
49 1635 1636 1637 1638 1639 0
49 -3819 3817 3820 0
49 -3818 3817 3820 0
49 -3818 -3819 3820 0
49 -3820 0
49 -1639 3819 3821 0
49 -1638 3819 3821 0
49 -1638 -1639 3821 0
49 -3821 0
49 -1637 3818 3823 0
49 -3822 3818 3823 0
49 -3822 -1637 3823 0
49 -3823 0
49 -1636 3822 3824 0
49 -1635 3822 3824 0
49 -1635 -1636 3824 0
49 -3824 0
49 1640 1641 1642 1643 1644 0
49 -3827 3825 3828 0
49 -3826 3825 3828 0
49 -3826 -3827 3828 0
49 -3828 0
49 -1644 3827 3829 0
49 -1643 3827 3829 0
49 -1643 -1644 3829 0
49 -3829 0
49 -1642 3826 3831 0
49 -3830 3826 3831 0
49 -3830 -1642 3831 0
49 -3831 0
49 -1641 3830 3832 0
49 -1640 3830 3832 0
49 -1640 -1641 3832 0
49 -3832 0
49 1645 1646 1647 1648 1649 1650 1651 1652 1653 0
49 -3835 3833 3836 0
49 -3834 3833 3836 0
49 -3834 -3835 3836 0
49 -3836 0
49 -3838 3835 3839 0
49 -3837 3835 3839 0
49 -3837 -3838 3839 0
49 -3839 0
49 -1653 3838 3840 0
49 -1652 3838 3840 0
49 -1652 -1653 3840 0
49 -3840 0
49 -1651 3837 3841 0
49 -1650 3837 3841 0
49 -1650 -1651 3841 0
49 -3841 0
49 -3843 3834 3844 0
49 -3842 3834 3844 0
49 -3842 -3843 3844 0
49 -3844 0
49 -1649 3843 3845 0
49 -1648 3843 3845 0
49 -1648 -1649 3845 0
49 -3845 0
49 -1647 3842 3847 0
49 -3846 3842 3847 0
49 -3846 -1647 3847 0
49 -3847 0
49 -1646 3846 3848 0
49 -1645 3846 3848 0
49 -1645 -1646 3848 0
49 -3848 0
49 1654 1655 1656 1657 1658 1659 1660 1661 1662 0
49 -3851 3849 3852 0
49 -3850 3849 3852 0
49 -3850 -3851 3852 0
49 -3852 0
49 -3854 3851 3855 0
49 -3853 3851 3855 0
49 -3853 -3854 3855 0
49 -3855 0
49 -1662 3854 3856 0
49 -1661 3854 3856 0
49 -1661 -1662 3856 0
49 -3856 0
49 -1660 3853 3857 0
49 -1659 3853 3857 0
49 -1659 -1660 3857 0
49 -3857 0
49 -3859 3850 3860 0
49 -3858 3850 3860 0
49 -3858 -3859 3860 0
49 -3860 0
49 -1658 3859 3861 0
49 -1657 3859 3861 0
49 -1657 -1658 3861 0
49 -3861 0
49 -1656 3858 3863 0
49 -3862 3858 3863 0
49 -3862 -1656 3863 0
49 -3863 0
49 -1655 3862 3864 0
49 -1654 3862 3864 0
49 -1654 -1655 3864 0
49 -3864 0
49 1663 1664 1665 1666 1667 1668 1669 1670 1671 1672 1673 0
49 -3867 3865 3868 0
49 -3866 3865 3868 0
49 -3866 -3867 3868 0
49 -3868 0
49 -3870 3867 3871 0
49 -3869 3867 3871 0
49 -3869 -3870 3871 0
49 -3871 0
49 -1673 3870 3872 0
49 -1672 3870 3872 0
49 -1672 -1673 3872 0
49 -3872 0
49 -1671 3869 3874 0
49 -3873 3869 3874 0
49 -3873 -1671 3874 0
49 -3874 0
49 -1670 3873 3875 0
49 -1669 3873 3875 0
49 -1669 -1670 3875 0
49 -3875 0
49 -3877 3866 3878 0
49 -3876 3866 3878 0
49 -3876 -3877 3878 0
49 -3878 0
49 -1668 3877 3880 0
49 -3879 3877 3880 0
49 -3879 -1668 3880 0
49 -3880 0
49 -1667 3879 3881 0
49 -1666 3879 3881 0
49 -1666 -1667 3881 0
49 -3881 0
49 -1665 3876 3883 0
49 -3882 3876 3883 0
49 -3882 -1665 3883 0
49 -3883 0
49 -1664 3882 3884 0
49 -1663 3882 3884 0
49 -1663 -1664 3884 0
49 -3884 0
49 1674 1675 1676 1677 1678 1679 1680 1681 1682 1683 1684 0
49 -3887 3885 3888 0
49 -3886 3885 3888 0
49 -3886 -3887 3888 0
49 -3888 0
49 -3890 3887 3891 0
49 -3889 3887 3891 0
49 -3889 -3890 3891 0
49 -3891 0
49 -1684 3890 3892 0
49 -1683 3890 3892 0
49 -1683 -1684 3892 0
49 -3892 0
49 -1682 3889 3894 0
49 -3893 3889 3894 0
49 -3893 -1682 3894 0
49 -3894 0
49 -1681 3893 3895 0
49 -1680 3893 3895 0
49 -1680 -1681 3895 0
49 -3895 0
49 -3897 3886 3898 0
49 -3896 3886 3898 0
49 -3896 -3897 3898 0
49 -3898 0
49 -1679 3897 3900 0
49 -3899 3897 3900 0
49 -3899 -1679 3900 0
49 -3900 0
49 -1678 3899 3901 0
49 -1677 3899 3901 0
49 -1677 -1678 3901 0
49 -3901 0
49 -1676 3896 3903 0
49 -3902 3896 3903 0
49 -3902 -1676 3903 0
49 -3903 0
49 -1675 3902 3904 0
49 -1674 3902 3904 0
49 -1674 -1675 3904 0
49 -3904 0
49 1685 1686 1687 1688 0
49 -3907 3905 3908 0
49 -3906 3905 3908 0
49 -3906 -3907 3908 0
49 -3908 0
49 -1688 3907 3909 0
49 -1687 3907 3909 0
49 -1687 -1688 3909 0
49 -3909 0
49 -1686 3906 3910 0
49 -1685 3906 3910 0
49 -1685 -1686 3910 0
49 -3910 0
49 1689 1690 1691 1692 0
49 -3913 3911 3914 0
49 -3912 3911 3914 0
49 -3912 -3913 3914 0
49 -3914 0
49 -1692 3913 3915 0
49 -1691 3913 3915 0
49 -1691 -1692 3915 0
49 -3915 0
49 -1690 3912 3916 0
49 -1689 3912 3916 0
49 -1689 -1690 3916 0
49 -3916 0
49 1693 0
49 1694 0
49 1695 1696 1697 0
49 -1697 3917 3919 0
49 -3918 3917 3919 0
49 -3918 -1697 3919 0
49 -3919 0
49 -1696 3918 3920 0
49 -1695 3918 3920 0
49 -1695 -1696 3920 0
49 -3920 0
49 1698 1699 1700 0
49 -1700 3921 3923 0
49 -3922 3921 3923 0
49 -3922 -1700 3923 0
49 -3923 0
49 -1699 3922 3924 0
49 -1698 3922 3924 0
49 -1698 -1699 3924 0
49 -3924 0
49 1701 1702 1703 1704 0
49 -3927 3925 3928 0
49 -3926 3925 3928 0
49 -3926 -3927 3928 0
49 -3928 0
49 -1704 3927 3929 0
49 -1703 3927 3929 0
49 -1703 -1704 3929 0
49 -3929 0
49 -1702 3926 3930 0
49 -1701 3926 3930 0
49 -1701 -1702 3930 0
49 -3930 0
49 1705 1706 1707 1708 0
49 -3933 3931 3934 0
49 -3932 3931 3934 0
49 -3932 -3933 3934 0
49 -3934 0
49 -1708 3933 3935 0
49 -1707 3933 3935 0
49 -1707 -1708 3935 0
49 -3935 0
49 -1706 3932 3936 0
49 -1705 3932 3936 0
49 -1705 -1706 3936 0
49 -3936 0
49 1709 1710 1711 0
49 -1711 3937 3939 0
49 -3938 3937 3939 0
49 -3938 -1711 3939 0
49 -3939 0
49 -1710 3938 3940 0
49 -1709 3938 3940 0
49 -1709 -1710 3940 0
49 -3940 0
49 1712 1713 1714 0
49 -1714 3941 3943 0
49 -3942 3941 3943 0
49 -3942 -1714 3943 0
49 -3943 0
49 -1713 3942 3944 0
49 -1712 3942 3944 0
49 -1712 -1713 3944 0
49 -3944 0
49 1715 1716 1717 1718 1719 0
49 -3947 3945 3948 0
49 -3946 3945 3948 0
49 -3946 -3947 3948 0
49 -3948 0
49 -1719 3947 3949 0
49 -1718 3947 3949 0
49 -1718 -1719 3949 0
49 -3949 0
49 -1717 3946 3951 0
49 -3950 3946 3951 0
49 -3950 -1717 3951 0
49 -3951 0
49 -1716 3950 3952 0
49 -1715 3950 3952 0
49 -1715 -1716 3952 0
49 -3952 0
49 1720 1721 1722 1723 1724 0
49 -3955 3953 3956 0
49 -3954 3953 3956 0
49 -3954 -3955 3956 0
49 -3956 0
49 -1724 3955 3957 0
49 -1723 3955 3957 0
49 -1723 -1724 3957 0
49 -3957 0
49 -1722 3954 3959 0
49 -3958 3954 3959 0
49 -3958 -1722 3959 0
49 -3959 0
49 -1721 3958 3960 0
49 -1720 3958 3960 0
49 -1720 -1721 3960 0
49 -3960 0
49 1725 0
49 1726 0
49 1727 1728 1729 1730 1731 1732 1733 1734 1735 0
49 -3963 3961 3964 0
49 -3962 3961 3964 0
49 -3962 -3963 3964 0
49 -3964 0
49 -3966 3963 3967 0
49 -3965 3963 3967 0
49 -3965 -3966 3967 0
49 -3967 0
49 -1735 3966 3968 0
49 -1734 3966 3968 0
49 -1734 -1735 3968 0
49 -3968 0
49 -1733 3965 3969 0
49 -1732 3965 3969 0
49 -1732 -1733 3969 0
49 -3969 0
49 -3971 3962 3972 0
49 -3970 3962 3972 0
49 -3970 -3971 3972 0
49 -3972 0
49 -1731 3971 3973 0
49 -1730 3971 3973 0
49 -1730 -1731 3973 0
49 -3973 0
49 -1729 3970 3975 0
49 -3974 3970 3975 0
49 -3974 -1729 3975 0
49 -3975 0
49 -1728 3974 3976 0
49 -1727 3974 3976 0
49 -1727 -1728 3976 0
49 -3976 0
49 1736 1737 1738 1739 1740 1741 1742 1743 1744 0
49 -3979 3977 3980 0
49 -3978 3977 3980 0
49 -3978 -3979 3980 0
49 -3980 0
49 -3982 3979 3983 0
49 -3981 3979 3983 0
49 -3981 -3982 3983 0
49 -3983 0
49 -1744 3982 3984 0
49 -1743 3982 3984 0
49 -1743 -1744 3984 0
49 -3984 0
49 -1742 3981 3985 0
49 -1741 3981 3985 0
49 -1741 -1742 3985 0
49 -3985 0
49 -3987 3978 3988 0
49 -3986 3978 3988 0
49 -3986 -3987 3988 0
49 -3988 0
49 -1740 3987 3989 0
49 -1739 3987 3989 0
49 -1739 -1740 3989 0
49 -3989 0
49 -1738 3986 3991 0
49 -3990 3986 3991 0
49 -3990 -1738 3991 0
49 -3991 0
49 -1737 3990 3992 0
49 -1736 3990 3992 0
49 -1736 -1737 3992 0
49 -3992 0
49 1745 1746 1747 1748 0
49 -3995 3993 3996 0
49 -3994 3993 3996 0
49 -3994 -3995 3996 0
49 -3996 0
49 -1748 3995 3997 0
49 -1747 3995 3997 0
49 -1747 -1748 3997 0
49 -3997 0
49 -1746 3994 3998 0
49 -1745 3994 3998 0
49 -1745 -1746 3998 0
49 -3998 0
49 1749 1750 1751 1752 0
49 -4001 3999 4002 0
49 -4000 3999 4002 0
49 -4000 -4001 4002 0
49 -4002 0
49 -1752 4001 4003 0
49 -1751 4001 4003 0
49 -1751 -1752 4003 0
49 -4003 0
49 -1750 4000 4004 0
49 -1749 4000 4004 0
49 -1749 -1750 4004 0
49 -4004 0
49 1753 1754 1755 0
49 -1755 4005 4007 0
49 -4006 4005 4007 0
49 -4006 -1755 4007 0
49 -4007 0
49 -1754 4006 4008 0
49 -1753 4006 4008 0
49 -1753 -1754 4008 0
49 -4008 0
49 1756 1757 1758 0
49 -1758 4009 4011 0
49 -4010 4009 4011 0
49 -4010 -1758 4011 0
49 -4011 0
49 -1757 4010 4012 0
49 -1756 4010 4012 0
49 -1756 -1757 4012 0
49 -4012 0
49 1759 1760 1761 1762 1763 1764 1765 1766 0
49 -4015 4013 4016 0
49 -4014 4013 4016 0
49 -4014 -4015 4016 0
49 -4016 0
49 -4018 4015 4019 0
49 -4017 4015 4019 0
49 -4017 -4018 4019 0
49 -4019 0
49 -1766 4018 4020 0
49 -1765 4018 4020 0
49 -1765 -1766 4020 0
49 -4020 0
49 -1764 4017 4021 0
49 -1763 4017 4021 0
49 -1763 -1764 4021 0
49 -4021 0
49 -4023 4014 4024 0
49 -4022 4014 4024 0
49 -4022 -4023 4024 0
49 -4024 0
49 -1762 4023 4025 0
49 -1761 4023 4025 0
49 -1761 -1762 4025 0
49 -4025 0
49 -1760 4022 4026 0
49 -1759 4022 4026 0
49 -1759 -1760 4026 0
49 -4026 0
49 1767 1768 1769 1770 1771 1772 1773 1774 0
49 -4029 4027 4030 0
49 -4028 4027 4030 0
49 -4028 -4029 4030 0
49 -4030 0
49 -4032 4029 4033 0
49 -4031 4029 4033 0
49 -4031 -4032 4033 0
49 -4033 0
49 -1774 4032 4034 0
49 -1773 4032 4034 0
49 -1773 -1774 4034 0
49 -4034 0
49 -1772 4031 4035 0
49 -1771 4031 4035 0
49 -1771 -1772 4035 0
49 -4035 0
49 -4037 4028 4038 0
49 -4036 4028 4038 0
49 -4036 -4037 4038 0
49 -4038 0
49 -1770 4037 4039 0
49 -1769 4037 4039 0
49 -1769 -1770 4039 0
49 -4039 0
49 -1768 4036 4040 0
49 -1767 4036 4040 0
49 -1767 -1768 4040 0
49 -4040 0
49 1775 1776 1777 1778 1779 1780 1781 1782 0
49 -4043 4041 4044 0
49 -4042 4041 4044 0
49 -4042 -4043 4044 0
49 -4044 0
49 -4046 4043 4047 0
49 -4045 4043 4047 0
49 -4045 -4046 4047 0
49 -4047 0
49 -1782 4046 4048 0
49 -1781 4046 4048 0
49 -1781 -1782 4048 0
49 -4048 0
49 -1780 4045 4049 0
49 -1779 4045 4049 0
49 -1779 -1780 4049 0
49 -4049 0
49 -4051 4042 4052 0
49 -4050 4042 4052 0
49 -4050 -4051 4052 0
49 -4052 0
49 -1778 4051 4053 0
49 -1777 4051 4053 0
49 -1777 -1778 4053 0
49 -4053 0
49 -1776 4050 4054 0
49 -1775 4050 4054 0
49 -1775 -1776 4054 0
49 -4054 0
49 1783 1784 1785 1786 1787 1788 1789 1790 0
49 -4057 4055 4058 0
49 -4056 4055 4058 0
49 -4056 -4057 4058 0
49 -4058 0
49 -4060 4057 4061 0
49 -4059 4057 4061 0
49 -4059 -4060 4061 0
49 -4061 0
49 -1790 4060 4062 0
49 -1789 4060 4062 0
49 -1789 -1790 4062 0
49 -4062 0
49 -1788 4059 4063 0
49 -1787 4059 4063 0
49 -1787 -1788 4063 0
49 -4063 0
49 -4065 4056 4066 0
49 -4064 4056 4066 0
49 -4064 -4065 4066 0
49 -4066 0
49 -1786 4065 4067 0
49 -1785 4065 4067 0
49 -1785 -1786 4067 0
49 -4067 0
49 -1784 4064 4068 0
49 -1783 4064 4068 0
49 -1783 -1784 4068 0
49 -4068 0
49 1791 1792 0
49 -1791 -1792 0
49 1793 1794 0
49 -1793 -1794 0
49 1795 1796 1797 1798 0
49 -4071 4069 4072 0
49 -4070 4069 4072 0
49 -4070 -4071 4072 0
49 -4072 0
49 -1798 4071 4073 0
49 -1797 4071 4073 0
49 -1797 -1798 4073 0
49 -4073 0
49 -1796 4070 4074 0
49 -1795 4070 4074 0
49 -1795 -1796 4074 0
49 -4074 0
49 1799 1800 1801 1802 0
49 -4077 4075 4078 0
49 -4076 4075 4078 0
49 -4076 -4077 4078 0
49 -4078 0
49 -1802 4077 4079 0
49 -1801 4077 4079 0
49 -1801 -1802 4079 0
49 -4079 0
49 -1800 4076 4080 0
49 -1799 4076 4080 0
49 -1799 -1800 4080 0
49 -4080 0
49 1803 1804 1805 1806 1807 1808 1809 1810 0
49 -4083 4081 4084 0
49 -4082 4081 4084 0
49 -4082 -4083 4084 0
49 -4084 0
49 -4086 4083 4087 0
49 -4085 4083 4087 0
49 -4085 -4086 4087 0
49 -4087 0
49 -1810 4086 4088 0
49 -1809 4086 4088 0
49 -1809 -1810 4088 0
49 -4088 0
49 -1808 4085 4089 0
49 -1807 4085 4089 0
49 -1807 -1808 4089 0
49 -4089 0
49 -4091 4082 4092 0
49 -4090 4082 4092 0
49 -4090 -4091 4092 0
49 -4092 0
49 -1806 4091 4093 0
49 -1805 4091 4093 0
49 -1805 -1806 4093 0
49 -4093 0
49 -1804 4090 4094 0
49 -1803 4090 4094 0
49 -1803 -1804 4094 0
49 -4094 0
49 1811 1812 1813 1814 1815 1816 1817 1818 0
49 -4097 4095 4098 0
49 -4096 4095 4098 0
49 -4096 -4097 4098 0
49 -4098 0
49 -4100 4097 4101 0
49 -4099 4097 4101 0
49 -4099 -4100 4101 0
49 -4101 0
49 -1818 4100 4102 0
49 -1817 4100 4102 0
49 -1817 -1818 4102 0
49 -4102 0
49 -1816 4099 4103 0
49 -1815 4099 4103 0
49 -1815 -1816 4103 0
49 -4103 0
49 -4105 4096 4106 0
49 -4104 4096 4106 0
49 -4104 -4105 4106 0
49 -4106 0
49 -1814 4105 4107 0
49 -1813 4105 4107 0
49 -1813 -1814 4107 0
49 -4107 0
49 -1812 4104 4108 0
49 -1811 4104 4108 0
49 -1811 -1812 4108 0
49 -4108 0
49 1819 1820 1821 1822 1823 1824 1825 1826 0
49 -4111 4109 4112 0
49 -4110 4109 4112 0
49 -4110 -4111 4112 0
49 -4112 0
49 -4114 4111 4115 0
49 -4113 4111 4115 0
49 -4113 -4114 4115 0
49 -4115 0
49 -1826 4114 4116 0
49 -1825 4114 4116 0
49 -1825 -1826 4116 0
49 -4116 0
49 -1824 4113 4117 0
49 -1823 4113 4117 0
49 -1823 -1824 4117 0
49 -4117 0
49 -4119 4110 4120 0
49 -4118 4110 4120 0
49 -4118 -4119 4120 0
49 -4120 0
49 -1822 4119 4121 0
49 -1821 4119 4121 0
49 -1821 -1822 4121 0
49 -4121 0
49 -1820 4118 4122 0
49 -1819 4118 4122 0
49 -1819 -1820 4122 0
49 -4122 0
49 1827 1828 1829 1830 1831 1832 1833 1834 0
49 -4125 4123 4126 0
49 -4124 4123 4126 0
49 -4124 -4125 4126 0
49 -4126 0
49 -4128 4125 4129 0
49 -4127 4125 4129 0
49 -4127 -4128 4129 0
49 -4129 0
49 -1834 4128 4130 0
49 -1833 4128 4130 0
49 -1833 -1834 4130 0
49 -4130 0
49 -1832 4127 4131 0
49 -1831 4127 4131 0
49 -1831 -1832 4131 0
49 -4131 0
49 -4133 4124 4134 0
49 -4132 4124 4134 0
49 -4132 -4133 4134 0
49 -4134 0
49 -1830 4133 4135 0
49 -1829 4133 4135 0
49 -1829 -1830 4135 0
49 -4135 0
49 -1828 4132 4136 0
49 -1827 4132 4136 0
49 -1827 -1828 4136 0
49 -4136 0
49 1835 1836 1837 1838 1839 1840 1841 1842 0
49 -4139 4137 4140 0
49 -4138 4137 4140 0
49 -4138 -4139 4140 0
49 -4140 0
49 -4142 4139 4143 0
49 -4141 4139 4143 0
49 -4141 -4142 4143 0
49 -4143 0
49 -1842 4142 4144 0
49 -1841 4142 4144 0
49 -1841 -1842 4144 0
49 -4144 0
49 -1840 4141 4145 0
49 -1839 4141 4145 0
49 -1839 -1840 4145 0
49 -4145 0
49 -4147 4138 4148 0
49 -4146 4138 4148 0
49 -4146 -4147 4148 0
49 -4148 0
49 -1838 4147 4149 0
49 -1837 4147 4149 0
49 -1837 -1838 4149 0
49 -4149 0
49 -1836 4146 4150 0
49 -1835 4146 4150 0
49 -1835 -1836 4150 0
49 -4150 0
49 1843 1844 1845 1846 1847 1848 1849 1850 0
49 -4153 4151 4154 0
49 -4152 4151 4154 0
49 -4152 -4153 4154 0
49 -4154 0
49 -4156 4153 4157 0
49 -4155 4153 4157 0
49 -4155 -4156 4157 0
49 -4157 0
49 -1850 4156 4158 0
49 -1849 4156 4158 0
49 -1849 -1850 4158 0
49 -4158 0
49 -1848 4155 4159 0
49 -1847 4155 4159 0
49 -1847 -1848 4159 0
49 -4159 0
49 -4161 4152 4162 0
49 -4160 4152 4162 0
49 -4160 -4161 4162 0
49 -4162 0
49 -1846 4161 4163 0
49 -1845 4161 4163 0
49 -1845 -1846 4163 0
49 -4163 0
49 -1844 4160 4164 0
49 -1843 4160 4164 0
49 -1843 -1844 4164 0
49 -4164 0
49 1851 1852 1853 1854 1855 1856 1857 1858 1859 1860 0
49 -4167 4165 4168 0
49 -4166 4165 4168 0
49 -4166 -4167 4168 0
49 -4168 0
49 -4170 4167 4171 0
49 -4169 4167 4171 0
49 -4169 -4170 4171 0
49 -4171 0
49 -1860 4170 4172 0
49 -1859 4170 4172 0
49 -1859 -1860 4172 0
49 -4172 0
49 -1858 4169 4174 0
49 -4173 4169 4174 0
49 -4173 -1858 4174 0
49 -4174 0
49 -1857 4173 4175 0
49 -1856 4173 4175 0
49 -1856 -1857 4175 0
49 -4175 0
49 -4177 4166 4178 0
49 -4176 4166 4178 0
49 -4176 -4177 4178 0
49 -4178 0
49 -1855 4177 4179 0
49 -1854 4177 4179 0
49 -1854 -1855 4179 0
49 -4179 0
49 -1853 4176 4181 0
49 -4180 4176 4181 0
49 -4180 -1853 4181 0
49 -4181 0
49 -1852 4180 4182 0
49 -1851 4180 4182 0
49 -1851 -1852 4182 0
49 -4182 0
49 1861 1862 1863 1864 1865 1866 1867 1868 1869 1870 0
49 -4185 4183 4186 0
49 -4184 4183 4186 0
49 -4184 -4185 4186 0
49 -4186 0
49 -4188 4185 4189 0
49 -4187 4185 4189 0
49 -4187 -4188 4189 0
49 -4189 0
49 -1870 4188 4190 0
49 -1869 4188 4190 0
49 -1869 -1870 4190 0
49 -4190 0
49 -1868 4187 4192 0
49 -4191 4187 4192 0
49 -4191 -1868 4192 0
49 -4192 0
49 -1867 4191 4193 0
49 -1866 4191 4193 0
49 -1866 -1867 4193 0
49 -4193 0
49 -4195 4184 4196 0
49 -4194 4184 4196 0
49 -4194 -4195 4196 0
49 -4196 0
49 -1865 4195 4197 0
49 -1864 4195 4197 0
49 -1864 -1865 4197 0
49 -4197 0
49 -1863 4194 4199 0
49 -4198 4194 4199 0
49 -4198 -1863 4199 0
49 -4199 0
49 -1862 4198 4200 0
49 -1861 4198 4200 0
49 -1861 -1862 4200 0
49 -4200 0
49 1871 1872 0
49 -1871 -1872 0
49 1873 1874 0
49 -1873 -1874 0
49 1875 1876 1877 1878 0
49 -4203 4201 4204 0
49 -4202 4201 4204 0
49 -4202 -4203 4204 0
49 -4204 0
49 -1878 4203 4205 0
49 -1877 4203 4205 0
49 -1877 -1878 4205 0
49 -4205 0
49 -1876 4202 4206 0
49 -1875 4202 4206 0
49 -1875 -1876 4206 0
49 -4206 0
49 1879 1880 1881 1882 0
49 -4209 4207 4210 0
49 -4208 4207 4210 0
49 -4208 -4209 4210 0
49 -4210 0
49 -1882 4209 4211 0
49 -1881 4209 4211 0
49 -1881 -1882 4211 0
49 -4211 0
49 -1880 4208 4212 0
49 -1879 4208 4212 0
49 -1879 -1880 4212 0
49 -4212 0
49 1883 1884 1885 1886 1887 0
49 -4215 4213 4216 0
49 -4214 4213 4216 0
49 -4214 -4215 4216 0
49 -4216 0
49 -1887 4215 4217 0
49 -1886 4215 4217 0
49 -1886 -1887 4217 0
49 -4217 0
49 -1885 4214 4219 0
49 -4218 4214 4219 0
49 -4218 -1885 4219 0
49 -4219 0
49 -1884 4218 4220 0
49 -1883 4218 4220 0
49 -1883 -1884 4220 0
49 -4220 0
49 1888 1889 1890 1891 1892 0
49 -4223 4221 4224 0
49 -4222 4221 4224 0
49 -4222 -4223 4224 0
49 -4224 0
49 -1892 4223 4225 0
49 -1891 4223 4225 0
49 -1891 -1892 4225 0
49 -4225 0
49 -1890 4222 4227 0
49 -4226 4222 4227 0
49 -4226 -1890 4227 0
49 -4227 0
49 -1889 4226 4228 0
49 -1888 4226 4228 0
49 -1888 -1889 4228 0
49 -4228 0
49 1893 1894 1895 1896 1897 1898 1899 1900 1901 1902 1903 0
49 -4231 4229 4232 0
49 -4230 4229 4232 0
49 -4230 -4231 4232 0
49 -4232 0
49 -4234 4231 4235 0
49 -4233 4231 4235 0
49 -4233 -4234 4235 0
49 -4235 0
49 -1903 4234 4236 0
49 -1902 4234 4236 0
49 -1902 -1903 4236 0
49 -4236 0
49 -1901 4233 4238 0
49 -4237 4233 4238 0
49 -4237 -1901 4238 0
49 -4238 0
49 -1900 4237 4239 0
49 -1899 4237 4239 0
49 -1899 -1900 4239 0
49 -4239 0
49 -4241 4230 4242 0
49 -4240 4230 4242 0
49 -4240 -4241 4242 0
49 -4242 0
49 -1898 4241 4244 0
49 -4243 4241 4244 0
49 -4243 -1898 4244 0
49 -4244 0
49 -1897 4243 4245 0
49 -1896 4243 4245 0
49 -1896 -1897 4245 0
49 -4245 0
49 -1895 4240 4247 0
49 -4246 4240 4247 0
49 -4246 -1895 4247 0
49 -4247 0
49 -1894 4246 4248 0
49 -1893 4246 4248 0
49 -1893 -1894 4248 0
49 -4248 0
49 1904 1905 1906 1907 1908 1909 1910 1911 1912 1913 1914 0
49 -4251 4249 4252 0
49 -4250 4249 4252 0
49 -4250 -4251 4252 0
49 -4252 0
49 -4254 4251 4255 0
49 -4253 4251 4255 0
49 -4253 -4254 4255 0
49 -4255 0
49 -1914 4254 4256 0
49 -1913 4254 4256 0
49 -1913 -1914 4256 0
49 -4256 0
49 -1912 4253 4258 0
49 -4257 4253 4258 0
49 -4257 -1912 4258 0
49 -4258 0
49 -1911 4257 4259 0
49 -1910 4257 4259 0
49 -1910 -1911 4259 0
49 -4259 0
49 -4261 4250 4262 0
49 -4260 4250 4262 0
49 -4260 -4261 4262 0
49 -4262 0
49 -1909 4261 4264 0
49 -4263 4261 4264 0
49 -4263 -1909 4264 0
49 -4264 0
49 -1908 4263 4265 0
49 -1907 4263 4265 0
49 -1907 -1908 4265 0
49 -4265 0
49 -1906 4260 4267 0
49 -4266 4260 4267 0
49 -4266 -1906 4267 0
49 -4267 0
49 -1905 4266 4268 0
49 -1904 4266 4268 0
49 -1904 -1905 4268 0
49 -4268 0
49 1915 1916 0
49 -1915 -1916 0
49 1917 1918 0
49 -1917 -1918 0
49 1919 0
49 1920 0
49 1921 1922 1923 1924 1925 1926 1927 1928 1929 0
49 -4271 4269 4272 0
49 -4270 4269 4272 0
49 -4270 -4271 4272 0
49 -4272 0
49 -4274 4271 4275 0
49 -4273 4271 4275 0
49 -4273 -4274 4275 0
49 -4275 0
49 -1929 4274 4276 0
49 -1928 4274 4276 0
49 -1928 -1929 4276 0
49 -4276 0
49 -1927 4273 4277 0
49 -1926 4273 4277 0
49 -1926 -1927 4277 0
49 -4277 0
49 -4279 4270 4280 0
49 -4278 4270 4280 0
49 -4278 -4279 4280 0
49 -4280 0
49 -1925 4279 4281 0
49 -1924 4279 4281 0
49 -1924 -1925 4281 0
49 -4281 0
49 -1923 4278 4283 0
49 -4282 4278 4283 0
49 -4282 -1923 4283 0
49 -4283 0
49 -1922 4282 4284 0
49 -1921 4282 4284 0
49 -1921 -1922 4284 0
49 -4284 0
49 1930 1931 1932 1933 1934 1935 1936 1937 1938 0
49 -4287 4285 4288 0
49 -4286 4285 4288 0
49 -4286 -4287 4288 0
49 -4288 0
49 -4290 4287 4291 0
49 -4289 4287 4291 0
49 -4289 -4290 4291 0
49 -4291 0
49 -1938 4290 4292 0
49 -1937 4290 4292 0
49 -1937 -1938 4292 0
49 -4292 0
49 -1936 4289 4293 0
49 -1935 4289 4293 0
49 -1935 -1936 4293 0
49 -4293 0
49 -4295 4286 4296 0
49 -4294 4286 4296 0
49 -4294 -4295 4296 0
49 -4296 0
49 -1934 4295 4297 0
49 -1933 4295 4297 0
49 -1933 -1934 4297 0
49 -4297 0
49 -1932 4294 4299 0
49 -4298 4294 4299 0
49 -4298 -1932 4299 0
49 -4299 0
49 -1931 4298 4300 0
49 -1930 4298 4300 0
49 -1930 -1931 4300 0
49 -4300 0
49 1939 1940 1941 1942 1943 1944 1945 1946 1947 1948 1949 0
49 -4303 4301 4304 0
49 -4302 4301 4304 0
49 -4302 -4303 4304 0
49 -4304 0
49 -4306 4303 4307 0
49 -4305 4303 4307 0
49 -4305 -4306 4307 0
49 -4307 0
49 -1949 4306 4308 0
49 -1948 4306 4308 0
49 -1948 -1949 4308 0
49 -4308 0
49 -1947 4305 4310 0
49 -4309 4305 4310 0
49 -4309 -1947 4310 0
49 -4310 0
49 -1946 4309 4311 0
49 -1945 4309 4311 0
49 -1945 -1946 4311 0
49 -4311 0
49 -4313 4302 4314 0
49 -4312 4302 4314 0
49 -4312 -4313 4314 0
49 -4314 0
49 -1944 4313 4316 0
49 -4315 4313 4316 0
49 -4315 -1944 4316 0
49 -4316 0
49 -1943 4315 4317 0
49 -1942 4315 4317 0
49 -1942 -1943 4317 0
49 -4317 0
49 -1941 4312 4319 0
49 -4318 4312 4319 0
49 -4318 -1941 4319 0
49 -4319 0
49 -1940 4318 4320 0
49 -1939 4318 4320 0
49 -1939 -1940 4320 0
49 -4320 0
49 1950 1951 1952 1953 1954 1955 1956 1957 1958 1959 1960 0
49 -4323 4321 4324 0
49 -4322 4321 4324 0
49 -4322 -4323 4324 0
49 -4324 0
49 -4326 4323 4327 0
49 -4325 4323 4327 0
49 -4325 -4326 4327 0
49 -4327 0
49 -1960 4326 4328 0
49 -1959 4326 4328 0
49 -1959 -1960 4328 0
49 -4328 0
49 -1958 4325 4330 0
49 -4329 4325 4330 0
49 -4329 -1958 4330 0
49 -4330 0
49 -1957 4329 4331 0
49 -1956 4329 4331 0
49 -1956 -1957 4331 0
49 -4331 0
49 -4333 4322 4334 0
49 -4332 4322 4334 0
49 -4332 -4333 4334 0
49 -4334 0
49 -1955 4333 4336 0
49 -4335 4333 4336 0
49 -4335 -1955 4336 0
49 -4336 0
49 -1954 4335 4337 0
49 -1953 4335 4337 0
49 -1953 -1954 4337 0
49 -4337 0
49 -1952 4332 4339 0
49 -4338 4332 4339 0
49 -4338 -1952 4339 0
49 -4339 0
49 -1951 4338 4340 0
49 -1950 4338 4340 0
49 -1950 -1951 4340 0
49 -4340 0
49 -1 2 0
49 -3 7 0
49 -4 8 0
49 -5 9 0
49 -6 10 0
49 -11 12 0
49 -13 14 0
49 -15 16 0
49 -17 23 0
49 -18 24 0
49 -19 25 0
49 -20 26 0
49 -21 27 0
49 -22 28 0
49 -22 -669 0
49 -21 -1803 0
49 -22 -1803 0
49 -22 -1804 0
49 -18 -1819 0
49 -19 -1819 0
49 -19 -1820 0
49 -20 -1819 0
49 -20 -1820 0
49 -20 -1821 0
49 -21 -1819 0
49 -21 -1820 0
49 -21 -1821 0
49 -21 -1822 0
49 -22 -1819 0
49 -22 -1820 0
49 -22 -1821 0
49 -22 -1822 0
49 -29 30 0
49 -31 32 0
49 -33 44 0
49 -34 45 0
49 -35 46 0
49 -36 47 0
49 -37 48 0
49 -38 49 0
49 -39 50 0
49 -40 51 0
49 -41 52 0
49 -42 53 0
49 -43 54 0
49 -41 -1581 0
49 -42 -1581 0
49 -42 -1582 0
49 -43 -1581 0
49 -43 -1582 0
49 -43 -1583 0
49 -48 -1581 0
49 -49 -1581 0
49 -49 -1582 0
49 -50 -1581 0
49 -50 -1582 0
49 -50 -1583 0
49 -51 -1581 0
49 -51 -1582 0
49 -51 -1583 0
49 -51 -1584 0
49 -52 -1581 0
49 -52 -1582 0
49 -52 -1583 0
49 -52 -1584 0
49 -52 -1585 0
49 -53 -1581 0
49 -53 -1582 0
49 -53 -1583 0
49 -53 -1584 0
49 -53 -1585 0
49 -53 -1586 0
49 -54 -1581 0
49 -54 -1582 0
49 -54 -1583 0
49 -54 -1584 0
49 -54 -1585 0
49 -54 -1586 0
49 -54 -1587 0
49 -52 -1589 0
49 -53 -1589 0
49 -53 -1590 0
49 -54 -1589 0
49 -54 -1590 0
49 -54 -1591 0
49 -55 58 0
49 -56 59 0
49 -57 60 0
49 -57 -63 0
49 -61 62 0
49 -63 66 0
49 -64 67 0
49 -65 68 0
49 -63 -1773 0
49 -63 -1774 0
49 -64 -1774 0
49 -69 70 0
49 -71 72 0
49 -73 74 0
49 -75 76 0
49 -77 87 0
49 -78 88 0
49 -79 89 0
49 -80 90 0
49 -81 91 0
49 -82 92 0
49 -83 93 0
49 -84 94 0
49 -85 95 0
49 -86 96 0
49 -77 -305 0
49 -77 -306 0
49 -78 -306 0
49 -78 -307 0
49 -79 -307 0
49 -87 -308 0
49 -87 -309 0
49 -88 -309 0
49 -88 -310 0
49 -89 -310 0
49 -97 98 0
49 -99 101 0
49 -100 102 0
49 -103 104 0
49 -105 106 0
49 -107 109 0
49 -108 110 0
49 -107 -114 0
49 -109 -116 0
49 -111 112 0
49 -113 115 0
49 -114 116 0
49 -113 -1918 0
49 -115 -1916 0
49 -117 121 0
49 -118 122 0
49 -119 123 0
49 -120 124 0
49 -117 -678 0
49 -117 -679 0
49 -117 -680 0
49 -118 -679 0
49 -118 -680 0
49 -119 -680 0
49 -120 -955 0
49 -121 -673 0
49 -121 -674 0
49 -121 -675 0
49 -122 -674 0
49 -122 -675 0
49 -123 -675 0
49 -124 -676 0
49 -125 126 0
49 -127 128 0
49 -129 130 0
49 -131 132 0
49 -133 135 0
49 -134 136 0
49 -137 138 0
49 -139 140 0
49 -141 142 0
49 -143 144 0
49 -145 146 0
49 -147 148 0
49 -149 150 0
49 -151 152 0
49 -153 154 0
49 -155 156 0
49 -157 158 0
49 -159 160 0
49 -161 162 0
49 -163 164 0
49 -165 170 0
49 -166 171 0
49 -167 172 0
49 -168 173 0
49 -169 174 0
49 -173 -216 0
49 -173 -217 0
49 -173 -218 0
49 -174 -218 0
49 -174 -219 0
49 -174 -220 0
49 -170 -1238 0
49 -170 -1239 0
49 -170 -1240 0
49 -171 -1238 0
49 -171 -1239 0
49 -171 -1240 0
49 -171 -1241 0
49 -172 -1238 0
49 -172 -1239 0
49 -172 -1240 0
49 -172 -1241 0
49 -172 -1242 0
49 -172 -1243 0
49 -175 176 0
49 -177 178 0
49 -179 180 0
49 -181 182 0
49 -183 188 0
49 -184 189 0
49 -185 190 0
49 -186 191 0
49 -187 192 0
49 -193 195 0
49 -194 196 0
49 -195 -896 0
49 -197 198 0
49 -199 202 0
49 -200 203 0
49 -201 204 0
49 -205 206 0
49 -207 208 0
49 -209 210 0
49 -211 212 0
49 -213 222 0
49 -214 223 0
49 -215 224 0
49 -216 225 0
49 -217 226 0
49 -218 227 0
49 -219 228 0
49 -220 229 0
49 -221 230 0
49 -222 -1240 0
49 -222 -1241 0
49 -222 -1242 0
49 -222 -1243 0
49 -222 -1244 0
49 -223 -1241 0
49 -223 -1242 0
49 -223 -1243 0
49 -223 -1244 0
49 -224 -1242 0
49 -224 -1243 0
49 -224 -1244 0
49 -225 -1243 0
49 -225 -1244 0
49 -226 -1244 0
49 -231 232 0
49 -233 234 0
49 -235 236 0
49 -237 245 0
49 -238 246 0
49 -239 247 0
49 -240 248 0
49 -241 249 0
49 -242 250 0
49 -243 251 0
49 -244 252 0
49 -253 254 0
49 -255 263 0
49 -256 264 0
49 -257 265 0
49 -258 266 0
49 -259 267 0
49 -260 268 0
49 -261 269 0
49 -262 270 0
49 -271 273 0
49 -272 274 0
49 -272 -1381 0
49 -274 -1383 0
49 -275 276 0
49 -277 278 0
49 -279 282 0
49 -280 283 0
49 -281 284 0
49 -280 -1257 0
49 -281 -1258 0
49 -283 -1260 0
49 -284 -1261 0
49 -285 286 0
49 -287 289 0
49 -288 290 0
49 -287 -818 0
49 -289 -820 0
49 -289 -870 0
49 -291 292 0
49 -293 294 0
49 -295 296 0
49 -297 298 0
49 -299 300 0
49 -301 302 0
49 -303 304 0
49 -305 308 0
49 -306 309 0
49 -307 310 0
49 -306 -1424 0
49 -307 -1424 0
49 -307 -1425 0
49 -311 312 0
49 -313 314 0
49 -315 316 0
49 -317 318 0
49 -319 320 0
49 -321 322 0
49 -323 324 0
49 -325 326 0
49 -327 328 0
49 -329 330 0
49 -331 332 0
49 -333 335 0
49 -334 336 0
49 -337 339 0
49 -338 340 0
49 -339 -345 0
49 -341 346 0
49 -342 347 0
49 -343 348 0
49 -344 349 0
49 -345 350 0
49 -351 352 0
49 -353 354 0
49 -355 356 0
49 -357 358 0
49 -359 360 0
49 -361 363 0
49 -362 364 0
49 -361 -406 0
49 -363 -404 0
49 -365 366 0
49 -367 368 0
49 -369 370 0
49 -371 374 0
49 -372 375 0
49 -373 376 0
49 -377 379 0
49 -378 380 0
49 -381 382 0
49 -383 384 0
49 -385 389 0
49 -386 390 0
49 -387 391 0
49 -388 392 0
49 -392 -1279 0
49 -393 394 0
49 -395 399 0
49 -396 400 0
49 -397 401 0
49 -398 402 0
49 -403 405 0
49 -404 406 0
49 -407 408 0
49 -409 420 0
49 -410 421 0
49 -411 422 0
49 -412 423 0
49 -413 424 0
49 -414 425 0
49 -415 426 0
49 -416 427 0
49 -417 428 0
49 -418 419 0
49 -409 -434 0
49 -409 -435 0
49 -409 -436 0
49 -409 -437 0
49 -409 -438 0
49 -409 -439 0
49 -410 -435 0
49 -410 -436 0
49 -410 -437 0
49 -410 -438 0
49 -410 -439 0
49 -411 -436 0
49 -411 -437 0
49 -411 -438 0
49 -411 -439 0
49 -412 -437 0
49 -412 -438 0
49 -412 -439 0
49 -413 -438 0
49 -413 -439 0
49 -414 -439 0
49 -419 -432 0
49 -419 -433 0
49 -419 -434 0
49 -419 -435 0
49 -419 -436 0
49 -419 -437 0
49 -419 -438 0
49 -419 -439 0
49 -419 -445 0
49 -419 -446 0
49 -419 -447 0
49 -419 -448 0
49 -429 430 0
49 -431 440 0
49 -432 441 0
49 -433 442 0
49 -434 443 0
49 -435 444 0
49 -436 445 0
49 -437 446 0
49 -438 447 0
49 -439 448 0
49 -449 450 0
49 -451 452 0
49 -453 454 0
49 -455 456 0
49 -457 458 0
49 -459 460 0
49 -461 463 0
49 -462 464 0
49 -465 466 0
49 -467 468 0
49 -469 471 0
49 -470 472 0
49 -470 -1341 0
49 -472 -1344 0
49 -473 475 0
49 -474 476 0
49 -473 -484 0
49 -475 -488 0
49 -477 478 0
49 -479 480 0
49 -481 485 0
49 -482 486 0
49 -483 487 0
49 -484 488 0
49 -489 490 0
49 -491 492 0
49 -493 494 0
49 -495 496 0
49 -497 499 0
49 -498 500 0
49 -501 502 0
49 -503 504 0
49 -505 506 0
49 -507 516 0
49 -508 517 0
49 -509 518 0
49 -510 519 0
49 -511 520 0
49 -512 521 0
49 -513 522 0
49 -514 523 0
49 -515 524 0
49 -512 -525 0
49 -513 -525 0
49 -513 -526 0
49 -514 -525 0
49 -514 -526 0
49 -514 -527 0
49 -515 -525 0
49 -515 -526 0
49 -515 -527 0
49 -515 -528 0
49 -510 -543 0
49 -511 -543 0
49 -511 -544 0
49 -512 -543 0
49 -512 -544 0
49 -512 -545 0
49 -513 -543 0
49 -513 -544 0
49 -513 -545 0
49 -513 -546 0
49 -514 -543 0
49 -514 -544 0
49 -514 -545 0
49 -514 -546 0
49 -514 -547 0
49 -515 -543 0
49 -515 -544 0
49 -515 -545 0
49 -515 -546 0
49 -515 -547 0
49 -515 -548 0
49 -515 -551 0
49 -524 -543 0
49 -525 531 0
49 -526 532 0
49 -527 533 0
49 -528 534 0
49 -529 535 0
49 -530 536 0
49 -537 540 0
49 -538 541 0
49 -539 542 0
49 -539 -1921 0
49 -543 551 0
49 -544 552 0
49 -545 553 0
49 -546 554 0
49 -547 555 0
49 -548 556 0
49 -549 557 0
49 -550 558 0
49 -559 560 0
49 -561 562 0
49 -563 564 0
49 -565 566 0
49 -567 568 0
49 -569 570 0
49 -571 572 0
49 -573 574 0
49 -575 576 0
49 -577 585 0
49 -578 586 0
49 -579 587 0
49 -580 588 0
49 -581 589 0
49 -582 590 0
49 -583 591 0
49 -584 592 0
49 -593 594 0
49 -595 596 0
49 -597 601 0
49 -598 602 0
49 -599 603 0
49 -600 604 0
49 -597 -1800 0
49 -597 -1801 0
49 -597 -1802 0
49 -598 -1801 0
49 -598 -1802 0
49 -599 -1802 0
49 -601 -1796 0
49 -601 -1797 0
49 -601 -1798 0
49 -602 -1797 0
49 -602 -1798 0
49 -603 -1798 0
49 -605 607 0
49 -606 608 0
49 -606 -611 0
49 -608 -609 0
49 -609 611 0
49 -610 612 0
49 -613 617 0
49 -614 618 0
49 -615 619 0
49 -616 620 0
49 -613 -1547 0
49 -614 -1689 0
49 -615 -1689 0
49 -615 -1690 0
49 -616 -1689 0
49 -616 -1690 0
49 -616 -1691 0
49 -613 -1703 0
49 -613 -1704 0
49 -614 -1704 0
49 -618 -1685 0
49 -619 -1685 0
49 -619 -1686 0
49 -620 -1685 0
49 -620 -1686 0
49 -620 -1687 0
49 -621 626 0
49 -622 627 0
49 -623 628 0
49 -624 629 0
49 -625 630 0
49 -631 632 0
49 -633 634 0
49 -635 636 0
49 -637 638 0
49 -639 640 0
49 -641 650 0
49 -642 651 0
49 -643 652 0
49 -644 653 0
49 -645 654 0
49 -646 655 0
49 -647 656 0
49 -648 657 0
49 -649 658 0
49 -641 -1052 0
49 -641 -1053 0
49 -641 -1054 0
49 -641 -1055 0
49 -642 -1053 0
49 -642 -1054 0
49 -642 -1055 0
49 -642 -1056 0
49 -643 -1053 0
49 -643 -1054 0
49 -643 -1055 0
49 -643 -1056 0
49 -643 -1057 0
49 -644 -1053 0
49 -644 -1054 0
49 -644 -1055 0
49 -644 -1056 0
49 -644 -1057 0
49 -644 -1058 0
49 -645 -1053 0
49 -645 -1054 0
49 -645 -1055 0
49 -645 -1056 0
49 -645 -1057 0
49 -645 -1058 0
49 -645 -1059 0
49 -646 -1054 0
49 -646 -1055 0
49 -646 -1056 0
49 -646 -1057 0
49 -646 -1058 0
49 -646 -1059 0
49 -646 -1060 0
49 -647 -1055 0
49 -647 -1056 0
49 -647 -1057 0
49 -647 -1058 0
49 -647 -1059 0
49 -647 -1060 0
49 -648 -1056 0
49 -648 -1057 0
49 -648 -1058 0
49 -648 -1059 0
49 -648 -1060 0
49 -649 -1057 0
49 -649 -1058 0
49 -649 -1059 0
49 -649 -1060 0
49 -650 -1045 0
49 -650 -1046 0
49 -650 -1047 0
49 -651 -1045 0
49 -651 -1046 0
49 -651 -1047 0
49 -651 -1048 0
49 -652 -1045 0
49 -652 -1046 0
49 -652 -1047 0
49 -652 -1048 0
49 -652 -1049 0
49 -653 -1045 0
49 -653 -1046 0
49 -653 -1047 0
49 -653 -1048 0
49 -653 -1049 0
49 -653 -1050 0
49 -654 -1045 0
49 -654 -1046 0
49 -654 -1047 0
49 -654 -1048 0
49 -654 -1049 0
49 -654 -1050 0
49 -654 -1051 0
49 -655 -1046 0
49 -655 -1047 0
49 -655 -1048 0
49 -655 -1049 0
49 -655 -1050 0
49 -655 -1051 0
49 -655 -1052 0
49 -656 -1047 0
49 -656 -1048 0
49 -656 -1049 0
49 -656 -1050 0
49 -656 -1051 0
49 -656 -1052 0
49 -657 -1048 0
49 -657 -1049 0
49 -657 -1050 0
49 -657 -1051 0
49 -657 -1052 0
49 -658 -1049 0
49 -658 -1050 0
49 -658 -1051 0
49 -658 -1052 0
49 -655 -1053 0
49 -655 -1054 0
49 -655 -1055 0
49 -656 -1053 0
49 -656 -1054 0
49 -656 -1055 0
49 -656 -1056 0
49 -657 -1053 0
49 -657 -1054 0
49 -657 -1055 0
49 -657 -1056 0
49 -657 -1057 0
49 -658 -1053 0
49 -658 -1054 0
49 -658 -1055 0
49 -658 -1056 0
49 -658 -1057 0
49 -658 -1058 0
49 -650 -1702 0
49 -650 -1703 0
49 -650 -1704 0
49 -651 -1703 0
49 -651 -1704 0
49 -652 -1704 0
49 -659 662 0
49 -660 663 0
49 -661 664 0
49 -659 -1696 0
49 -659 -1697 0
49 -660 -1697 0
49 -659 -1790 0
49 -662 -1700 0
49 -665 666 0
49 -667 669 0
49 -668 670 0
49 -671 676 0
49 -672 677 0
49 -673 678 0
49 -674 679 0
49 -675 680 0
49 -681 682 0
49 -683 684 0
49 -685 694 0
49 -686 695 0
49 -687 696 0
49 -688 697 0
49 -689 698 0
49 -690 699 0
49 -691 700 0
49 -692 701 0
49 -693 702 0
49 -703 706 0
49 -704 707 0
49 -705 708 0
49 -705 -1477 0
49 -709 710 0
49 -711 712 0
49 -713 714 0
49 -715 725 0
49 -716 726 0
49 -717 727 0
49 -718 728 0
49 -719 729 0
49 -720 730 0
49 -721 731 0
49 -722 732 0
49 -723 733 0
49 -724 734 0
49 -724 -735 0
49 -735 743 0
49 -736 744 0
49 -737 745 0
49 -738 746 0
49 -739 747 0
49 -740 748 0
49 -741 749 0
49 -742 750 0
49 -751 752 0
49 -753 755 0
49 -754 756 0
49 -757 758 0
49 -759 760 0
49 -761 762 0
49 -763 764 0
49 -765 769 0
49 -766 770 0
49 -767 771 0
49 -768 772 0
49 -773 774 0
49 -775 776 0
49 -777 778 0
49 -779 780 0
49 -781 784 0
49 -782 785 0
49 -783 786 0
49 -787 788 0
49 -789 790 0
49 -791 792 0
49 -793 794 0
49 -795 798 0
49 -796 799 0
49 -797 800 0
49 -801 803 0
49 -802 804 0
49 -805 806 0
49 -807 808 0
49 -809 810 0
49 -811 813 0
49 -812 814 0
49 -812 -1471 0
49 -815 816 0
49 -817 819 0
49 -818 820 0
49 -818 -871 0
49 -820 -869 0
49 -821 822 0
49 -823 824 0
49 -825 836 0
49 -826 837 0
49 -827 838 0
49 -828 839 0
49 -829 840 0
49 -830 841 0
49 -831 842 0
49 -832 843 0
49 -833 844 0
49 -834 845 0
49 -835 846 0
49 -836 -852 0
49 -836 -853 0
49 -837 -853 0
49 -847 848 0
49 -849 850 0
49 -851 854 0
49 -852 855 0
49 -853 856 0
49 -857 859 0
49 -858 860 0
49 -861 862 0
49 -863 864 0
49 -865 866 0
49 -867 868 0
49 -869 871 0
49 -870 872 0
49 -873 880 0
49 -874 881 0
49 -875 882 0
49 -876 883 0
49 -877 884 0
49 -878 885 0
49 -879 886 0
49 -873 -890 0
49 -887 889 0
49 -888 890 0
49 -891 892 0
49 -893 895 0
49 -894 896 0
49 -897 898 0
49 -899 900 0
49 -901 902 0
49 -903 907 0
49 -904 908 0
49 -905 909 0
49 -906 910 0
49 -903 -929 0
49 -903 -930 0
49 -904 -930 0
49 -911 912 0
49 -913 914 0
49 -915 916 0
49 -917 919 0
49 -918 920 0
49 -921 922 0
49 -923 924 0
49 -925 926 0
49 -927 931 0
49 -928 932 0
49 -929 933 0
49 -930 934 0
49 -935 936 0
49 -937 938 0
49 -939 947 0
49 -940 948 0
49 -941 949 0
49 -942 950 0
49 -943 951 0
49 -944 952 0
49 -945 953 0
49 -946 954 0
49 -939 -977 0
49 -939 -978 0
49 -939 -979 0
49 -940 -978 0
49 -940 -979 0
49 -941 -979 0
49 -942 -980 0
49 -943 -980 0
49 -943 -981 0
49 -944 -980 0
49 -944 -981 0
49 -944 -982 0
49 -945 -980 0
49 -945 -981 0
49 -945 -982 0
49 -945 -983 0
49 -946 -980 0
49 -946 -981 0
49 -946 -982 0
49 -946 -983 0
49 -946 -984 0
49 -939 -1002 0
49 -939 -1003 0
49 -939 -1004 0
49 -940 -1002 0
49 -940 -1003 0
49 -940 -1004 0
49 -940 -1005 0
49 -941 -1002 0
49 -941 -1003 0
49 -941 -1004 0
49 -941 -1005 0
49 -941 -1006 0
49 -942 -1003 0
49 -942 -1004 0
49 -942 -1005 0
49 -942 -1006 0
49 -942 -1007 0
49 -943 -1004 0
49 -943 -1005 0
49 -943 -1006 0
49 -943 -1007 0
49 -943 -1008 0
49 -944 -1005 0
49 -944 -1006 0
49 -944 -1007 0
49 -944 -1008 0
49 -944 -1009 0
49 -945 -1006 0
49 -945 -1007 0
49 -945 -1008 0
49 -945 -1009 0
49 -945 -1010 0
49 -946 -1007 0
49 -946 -1008 0
49 -946 -1009 0
49 -946 -1010 0
49 -946 -1011 0
49 -947 -969 0
49 -947 -970 0
49 -947 -971 0
49 -948 -969 0
49 -948 -970 0
49 -948 -971 0
49 -948 -972 0
49 -949 -969 0
49 -949 -970 0
49 -949 -971 0
49 -949 -972 0
49 -949 -973 0
49 -950 -970 0
49 -950 -971 0
49 -950 -972 0
49 -950 -973 0
49 -950 -974 0
49 -951 -971 0
49 -951 -972 0
49 -951 -973 0
49 -951 -974 0
49 -951 -975 0
49 -952 -972 0
49 -952 -973 0
49 -952 -974 0
49 -952 -975 0
49 -952 -976 0
49 -953 -973 0
49 -953 -974 0
49 -953 -975 0
49 -953 -976 0
49 -953 -977 0
49 -954 -974 0
49 -954 -975 0
49 -954 -976 0
49 -954 -977 0
49 -954 -978 0
49 -950 -1002 0
49 -951 -1002 0
49 -951 -1003 0
49 -952 -1002 0
49 -952 -1003 0
49 -952 -1004 0
49 -953 -1002 0
49 -953 -1003 0
49 -953 -1004 0
49 -953 -1005 0
49 -954 -1002 0
49 -954 -1003 0
49 -954 -1004 0
49 -954 -1005 0
49 -954 -1006 0
49 -955 959 0
49 -956 960 0
49 -957 961 0
49 -958 962 0
49 -955 -1580 0
49 -963 966 0
49 -964 967 0
49 -965 968 0
49 -966 -1398 0
49 -966 -1399 0
49 -967 -1399 0
49 -969 1002 0
49 -970 1003 0
49 -971 1004 0
49 -972 1005 0
49 -973 1006 0
49 -974 1007 0
49 -975 1008 0
49 -976 1009 0
49 -977 1010 0
49 -978 1011 0
49 -979 1012 0
49 -980 1024 0
49 -981 1025 0
49 -982 1026 0
49 -983 1027 0
49 -984 1028 0
49 -985 1029 0
49 -986 1030 0
49 -987 1031 0
49 -988 1032 0
49 -989 1033 0
49 -990 1034 0
49 -991 1013 0
49 -992 1014 0
49 -993 1015 0
49 -994 1016 0
49 -995 1017 0
49 -996 1018 0
49 -997 1019 0
49 -998 1020 0
49 -999 1021 0
49 -1000 1022 0
49 -1001 1023 0
49 -1035 1036 0
49 -1037 1038 0
49 -1039 1040 0
49 -1041 1043 0
49 -1042 1044 0
49 -1045 1053 0
49 -1046 1054 0
49 -1047 1055 0
49 -1048 1056 0
49 -1049 1057 0
49 -1050 1058 0
49 -1051 1059 0
49 -1052 1060 0
49 -1045 -1702 0
49 -1045 -1703 0
49 -1045 -1704 0
49 -1046 -1703 0
49 -1046 -1704 0
49 -1047 -1704 0
49 -1061 1062 0
49 -1063 1081 0
49 -1064 1091 0
49 -1065 1092 0
49 -1066 1093 0
49 -1067 1094 0
49 -1068 1095 0
49 -1069 1096 0
49 -1070 1097 0
49 -1071 1098 0
49 -1072 1082 0
49 -1073 1083 0
49 -1074 1084 0
49 -1075 1085 0
49 -1076 1086 0
49 -1077 1087 0
49 -1078 1088 0
49 -1079 1089 0
49 -1080 1090 0
49 -1063 -1099 0
49 -1063 -1100 0
49 -1063 -1101 0
49 -1063 -1102 0
49 -1063 -1103 0
49 -1063 -1104 0
49 -1063 -1105 0
49 -1063 -1106 0
49 -1063 -1107 0
49 -1063 -1108 0
49 -1063 -1109 0
49 -1063 -1110 0
49 -1063 -1111 0
49 -1063 -1112 0
49 -1063 -1113 0
49 -1063 -1114 0
49 -1063 -1115 0
49 -1064 -1107 0
49 -1064 -1108 0
49 -1064 -1109 0
49 -1064 -1110 0
49 -1064 -1111 0
49 -1064 -1112 0
49 -1064 -1113 0
49 -1064 -1114 0
49 -1064 -1115 0
49 -1064 -1116 0
49 -1064 -1117 0
49 -1064 -1118 0
49 -1064 -1119 0
49 -1064 -1120 0
49 -1064 -1121 0
49 -1064 -1122 0
49 -1064 -1123 0
49 -1064 -1124 0
49 -1065 -1107 0
49 -1065 -1108 0
49 -1065 -1109 0
49 -1065 -1110 0
49 -1065 -1111 0
49 -1065 -1112 0
49 -1065 -1113 0
49 -1065 -1114 0
49 -1065 -1115 0
49 -1065 -1116 0
49 -1065 -1117 0
49 -1065 -1118 0
49 -1065 -1119 0
49 -1065 -1120 0
49 -1065 -1121 0
49 -1065 -1122 0
49 -1065 -1123 0
49 -1065 -1124 0
49 -1066 -1107 0
49 -1066 -1108 0
49 -1066 -1109 0
49 -1066 -1110 0
49 -1066 -1111 0
49 -1066 -1112 0
49 -1066 -1113 0
49 -1066 -1114 0
49 -1066 -1115 0
49 -1066 -1116 0
49 -1066 -1117 0
49 -1066 -1118 0
49 -1066 -1119 0
49 -1066 -1120 0
49 -1066 -1121 0
49 -1066 -1122 0
49 -1066 -1123 0
49 -1066 -1124 0
49 -1067 -1107 0
49 -1067 -1108 0
49 -1067 -1109 0
49 -1067 -1110 0
49 -1067 -1111 0
49 -1067 -1112 0
49 -1067 -1113 0
49 -1067 -1114 0
49 -1067 -1115 0
49 -1067 -1116 0
49 -1067 -1117 0
49 -1067 -1118 0
49 -1067 -1119 0
49 -1067 -1120 0
49 -1067 -1121 0
49 -1067 -1122 0
49 -1067 -1123 0
49 -1067 -1124 0
49 -1068 -1107 0
49 -1068 -1108 0
49 -1068 -1109 0
49 -1068 -1110 0
49 -1068 -1111 0
49 -1068 -1112 0
49 -1068 -1113 0
49 -1068 -1114 0
49 -1068 -1115 0
49 -1068 -1116 0
49 -1068 -1117 0
49 -1068 -1118 0
49 -1068 -1119 0
49 -1068 -1120 0
49 -1068 -1121 0
49 -1068 -1122 0
49 -1068 -1123 0
49 -1068 -1124 0
49 -1069 -1107 0
49 -1069 -1108 0
49 -1069 -1109 0
49 -1069 -1110 0
49 -1069 -1111 0
49 -1069 -1112 0
49 -1069 -1113 0
49 -1069 -1114 0
49 -1069 -1115 0
49 -1069 -1116 0
49 -1069 -1117 0
49 -1069 -1118 0
49 -1069 -1119 0
49 -1069 -1120 0
49 -1069 -1121 0
49 -1069 -1122 0
49 -1069 -1123 0
49 -1069 -1124 0
49 -1070 -1107 0
49 -1070 -1108 0
49 -1070 -1109 0
49 -1070 -1110 0
49 -1070 -1111 0
49 -1070 -1112 0
49 -1070 -1113 0
49 -1070 -1114 0
49 -1070 -1115 0
49 -1070 -1116 0
49 -1070 -1117 0
49 -1070 -1118 0
49 -1070 -1119 0
49 -1070 -1120 0
49 -1070 -1121 0
49 -1070 -1122 0
49 -1070 -1123 0
49 -1070 -1124 0
49 -1071 -1108 0
49 -1071 -1109 0
49 -1071 -1110 0
49 -1071 -1111 0
49 -1071 -1112 0
49 -1071 -1113 0
49 -1071 -1114 0
49 -1071 -1115 0
49 -1071 -1116 0
49 -1071 -1117 0
49 -1071 -1118 0
49 -1071 -1119 0
49 -1071 -1120 0
49 -1071 -1121 0
49 -1071 -1122 0
49 -1071 -1123 0
49 -1071 -1124 0
49 -1072 -1116 0
49 -1072 -1117 0
49 -1072 -1118 0
49 -1072 -1119 0
49 -1072 -1120 0
49 -1072 -1121 0
49 -1072 -1122 0
49 -1072 -1123 0
49 -1072 -1124 0
49 -1073 -1116 0
49 -1073 -1117 0
49 -1073 -1118 0
49 -1073 -1119 0
49 -1073 -1120 0
49 -1073 -1121 0
49 -1073 -1122 0
49 -1073 -1123 0
49 -1073 -1124 0
49 -1074 -1117 0
49 -1074 -1118 0
49 -1074 -1119 0
49 -1074 -1120 0
49 -1074 -1121 0
49 -1074 -1122 0
49 -1074 -1123 0
49 -1074 -1124 0
49 -1075 -1118 0
49 -1075 -1119 0
49 -1075 -1120 0
49 -1075 -1121 0
49 -1075 -1122 0
49 -1075 -1123 0
49 -1075 -1124 0
49 -1076 -1119 0
49 -1076 -1120 0
49 -1076 -1121 0
49 -1076 -1122 0
49 -1076 -1123 0
49 -1076 -1124 0
49 -1077 -1120 0
49 -1077 -1121 0
49 -1077 -1122 0
49 -1077 -1123 0
49 -1077 -1124 0
49 -1078 -1121 0
49 -1078 -1122 0
49 -1078 -1123 0
49 -1078 -1124 0
49 -1079 -1122 0
49 -1079 -1123 0
49 -1079 -1124 0
49 -1080 -1123 0
49 -1080 -1124 0
49 -1063 -1125 0
49 -1063 -1126 0
49 -1063 -1127 0
49 -1063 -1128 0
49 -1063 -1129 0
49 -1063 -1130 0
49 -1063 -1131 0
49 -1063 -1132 0
49 -1063 -1133 0
49 -1063 -1134 0
49 -1063 -1135 0
49 -1063 -1136 0
49 -1063 -1137 0
49 -1063 -1138 0
49 -1063 -1139 0
49 -1063 -1140 0
49 -1063 -1141 0
49 -1064 -1126 0
49 -1064 -1127 0
49 -1064 -1128 0
49 -1064 -1129 0
49 -1064 -1130 0
49 -1064 -1131 0
49 -1064 -1132 0
49 -1064 -1133 0
49 -1064 -1134 0
49 -1064 -1135 0
49 -1064 -1136 0
49 -1064 -1137 0
49 -1064 -1138 0
49 -1064 -1139 0
49 -1064 -1140 0
49 -1064 -1141 0
49 -1064 -1142 0
49 -1064 -1143 0
49 -1064 -1144 0
49 -1064 -1145 0
49 -1064 -1146 0
49 -1064 -1147 0
49 -1064 -1148 0
49 -1064 -1149 0
49 -1064 -1150 0
49 -1065 -1127 0
49 -1065 -1128 0
49 -1065 -1129 0
49 -1065 -1130 0
49 -1065 -1131 0
49 -1065 -1132 0
49 -1065 -1133 0
49 -1065 -1134 0
49 -1065 -1135 0
49 -1065 -1136 0
49 -1065 -1137 0
49 -1065 -1138 0
49 -1065 -1139 0
49 -1065 -1140 0
49 -1065 -1141 0
49 -1065 -1142 0
49 -1065 -1143 0
49 -1065 -1144 0
49 -1065 -1145 0
49 -1065 -1146 0
49 -1065 -1147 0
49 -1065 -1148 0
49 -1065 -1149 0
49 -1065 -1150 0
49 -1066 -1128 0
49 -1066 -1129 0
49 -1066 -1130 0
49 -1066 -1131 0
49 -1066 -1132 0
49 -1066 -1133 0
49 -1066 -1134 0
49 -1066 -1135 0
49 -1066 -1136 0
49 -1066 -1137 0
49 -1066 -1138 0
49 -1066 -1139 0
49 -1066 -1140 0
49 -1066 -1141 0
49 -1066 -1142 0
49 -1066 -1143 0
49 -1066 -1144 0
49 -1066 -1145 0
49 -1066 -1146 0
49 -1066 -1147 0
49 -1066 -1148 0
49 -1066 -1149 0
49 -1066 -1150 0
49 -1067 -1129 0
49 -1067 -1130 0
49 -1067 -1131 0
49 -1067 -1132 0
49 -1067 -1133 0
49 -1067 -1134 0
49 -1067 -1135 0
49 -1067 -1136 0
49 -1067 -1137 0
49 -1067 -1138 0
49 -1067 -1139 0
49 -1067 -1140 0
49 -1067 -1141 0
49 -1067 -1142 0
49 -1067 -1143 0
49 -1067 -1144 0
49 -1067 -1145 0
49 -1067 -1146 0
49 -1067 -1147 0
49 -1067 -1148 0
49 -1067 -1149 0
49 -1067 -1150 0
49 -1068 -1130 0
49 -1068 -1131 0
49 -1068 -1132 0
49 -1068 -1133 0
49 -1068 -1134 0
49 -1068 -1135 0
49 -1068 -1136 0
49 -1068 -1137 0
49 -1068 -1138 0
49 -1068 -1139 0
49 -1068 -1140 0
49 -1068 -1141 0
49 -1068 -1142 0
49 -1068 -1143 0
49 -1068 -1144 0
49 -1068 -1145 0
49 -1068 -1146 0
49 -1068 -1147 0
49 -1068 -1148 0
49 -1068 -1149 0
49 -1068 -1150 0
49 -1069 -1131 0
49 -1069 -1132 0
49 -1069 -1133 0
49 -1069 -1134 0
49 -1069 -1135 0
49 -1069 -1136 0
49 -1069 -1137 0
49 -1069 -1138 0
49 -1069 -1139 0
49 -1069 -1140 0
49 -1069 -1141 0
49 -1069 -1142 0
49 -1069 -1143 0
49 -1069 -1144 0
49 -1069 -1145 0
49 -1069 -1146 0
49 -1069 -1147 0
49 -1069 -1148 0
49 -1069 -1149 0
49 -1069 -1150 0
49 -1070 -1132 0
49 -1070 -1133 0
49 -1070 -1134 0
49 -1070 -1135 0
49 -1070 -1136 0
49 -1070 -1137 0
49 -1070 -1138 0
49 -1070 -1139 0
49 -1070 -1140 0
49 -1070 -1141 0
49 -1070 -1142 0
49 -1070 -1143 0
49 -1070 -1144 0
49 -1070 -1145 0
49 -1070 -1146 0
49 -1070 -1147 0
49 -1070 -1148 0
49 -1070 -1149 0
49 -1070 -1150 0
49 -1071 -1133 0
49 -1071 -1134 0
49 -1071 -1135 0
49 -1071 -1136 0
49 -1071 -1137 0
49 -1071 -1138 0
49 -1071 -1139 0
49 -1071 -1140 0
49 -1071 -1141 0
49 -1071 -1142 0
49 -1071 -1143 0
49 -1071 -1144 0
49 -1071 -1145 0
49 -1071 -1146 0
49 -1071 -1147 0
49 -1071 -1148 0
49 -1071 -1149 0
49 -1071 -1150 0
49 -1072 -1134 0
49 -1072 -1135 0
49 -1072 -1136 0
49 -1072 -1137 0
49 -1072 -1138 0
49 -1072 -1139 0
49 -1072 -1140 0
49 -1072 -1141 0
49 -1072 -1142 0
49 -1072 -1143 0
49 -1072 -1144 0
49 -1072 -1145 0
49 -1072 -1146 0
49 -1072 -1147 0
49 -1072 -1148 0
49 -1072 -1149 0
49 -1072 -1150 0
49 -1073 -1135 0
49 -1073 -1136 0
49 -1073 -1137 0
49 -1073 -1138 0
49 -1073 -1139 0
49 -1073 -1140 0
49 -1073 -1141 0
49 -1073 -1142 0
49 -1073 -1143 0
49 -1073 -1144 0
49 -1073 -1145 0
49 -1073 -1146 0
49 -1073 -1147 0
49 -1073 -1148 0
49 -1073 -1149 0
49 -1073 -1150 0
49 -1074 -1136 0
49 -1074 -1137 0
49 -1074 -1138 0
49 -1074 -1139 0
49 -1074 -1140 0
49 -1074 -1141 0
49 -1074 -1142 0
49 -1074 -1143 0
49 -1074 -1144 0
49 -1074 -1145 0
49 -1074 -1146 0
49 -1074 -1147 0
49 -1074 -1148 0
49 -1074 -1149 0
49 -1074 -1150 0
49 -1075 -1137 0
49 -1075 -1138 0
49 -1075 -1139 0
49 -1075 -1140 0
49 -1075 -1141 0
49 -1075 -1142 0
49 -1075 -1143 0
49 -1075 -1144 0
49 -1075 -1145 0
49 -1075 -1146 0
49 -1075 -1147 0
49 -1075 -1148 0
49 -1075 -1149 0
49 -1075 -1150 0
49 -1076 -1138 0
49 -1076 -1139 0
49 -1076 -1140 0
49 -1076 -1141 0
49 -1076 -1142 0
49 -1076 -1143 0
49 -1076 -1144 0
49 -1076 -1145 0
49 -1076 -1146 0
49 -1076 -1147 0
49 -1076 -1148 0
49 -1076 -1149 0
49 -1076 -1150 0
49 -1077 -1139 0
49 -1077 -1140 0
49 -1077 -1141 0
49 -1077 -1142 0
49 -1077 -1143 0
49 -1077 -1144 0
49 -1077 -1145 0
49 -1077 -1146 0
49 -1077 -1147 0
49 -1077 -1148 0
49 -1077 -1149 0
49 -1077 -1150 0
49 -1078 -1140 0
49 -1078 -1141 0
49 -1078 -1142 0
49 -1078 -1143 0
49 -1078 -1144 0
49 -1078 -1145 0
49 -1078 -1146 0
49 -1078 -1147 0
49 -1078 -1148 0
49 -1078 -1149 0
49 -1078 -1150 0
49 -1079 -1141 0
49 -1079 -1142 0
49 -1079 -1143 0
49 -1079 -1144 0
49 -1079 -1145 0
49 -1079 -1146 0
49 -1079 -1147 0
49 -1079 -1148 0
49 -1079 -1149 0
49 -1079 -1150 0
49 -1080 -1142 0
49 -1080 -1143 0
49 -1080 -1144 0
49 -1080 -1145 0
49 -1080 -1146 0
49 -1080 -1147 0
49 -1080 -1148 0
49 -1080 -1149 0
49 -1080 -1150 0
49 -1081 -1109 0
49 -1081 -1110 0
49 -1081 -1111 0
49 -1081 -1112 0
49 -1081 -1113 0
49 -1081 -1114 0
49 -1081 -1115 0
49 -1081 -1116 0
49 -1081 -1117 0
49 -1081 -1118 0
49 -1082 -1113 0
49 -1082 -1114 0
49 -1082 -1115 0
49 -1082 -1116 0
49 -1082 -1117 0
49 -1082 -1118 0
49 -1082 -1119 0
49 -1082 -1120 0
49 -1082 -1121 0
49 -1082 -1122 0
49 -1083 -1114 0
49 -1083 -1115 0
49 -1083 -1116 0
49 -1083 -1117 0
49 -1083 -1118 0
49 -1083 -1119 0
49 -1083 -1120 0
49 -1083 -1121 0
49 -1083 -1122 0
49 -1083 -1123 0
49 -1084 -1115 0
49 -1084 -1116 0
49 -1084 -1117 0
49 -1084 -1118 0
49 -1084 -1119 0
49 -1084 -1120 0
49 -1084 -1121 0
49 -1084 -1122 0
49 -1084 -1123 0
49 -1084 -1124 0
49 -1085 -1116 0
49 -1085 -1117 0
49 -1085 -1118 0
49 -1085 -1119 0
49 -1085 -1120 0
49 -1085 -1121 0
49 -1085 -1122 0
49 -1085 -1123 0
49 -1085 -1124 0
49 -1086 -1116 0
49 -1086 -1117 0
49 -1086 -1118 0
49 -1086 -1119 0
49 -1086 -1120 0
49 -1086 -1121 0
49 -1086 -1122 0
49 -1086 -1123 0
49 -1086 -1124 0
49 -1087 -1116 0
49 -1087 -1117 0
49 -1087 -1118 0
49 -1087 -1119 0
49 -1087 -1120 0
49 -1087 -1121 0
49 -1087 -1122 0
49 -1087 -1123 0
49 -1087 -1124 0
49 -1088 -1116 0
49 -1088 -1117 0
49 -1088 -1118 0
49 -1088 -1119 0
49 -1088 -1120 0
49 -1088 -1121 0
49 -1088 -1122 0
49 -1088 -1123 0
49 -1088 -1124 0
49 -1089 -1117 0
49 -1089 -1118 0
49 -1089 -1119 0
49 -1089 -1120 0
49 -1089 -1121 0
49 -1089 -1122 0
49 -1089 -1123 0
49 -1089 -1124 0
49 -1090 -1118 0
49 -1090 -1119 0
49 -1090 -1120 0
49 -1090 -1121 0
49 -1090 -1122 0
49 -1090 -1123 0
49 -1090 -1124 0
49 -1081 -1132 0
49 -1081 -1133 0
49 -1081 -1134 0
49 -1081 -1135 0
49 -1081 -1136 0
49 -1081 -1137 0
49 -1081 -1138 0
49 -1081 -1139 0
49 -1081 -1140 0
49 -1081 -1141 0
49 -1082 -1134 0
49 -1082 -1135 0
49 -1082 -1136 0
49 -1082 -1137 0
49 -1082 -1138 0
49 -1082 -1139 0
49 -1082 -1140 0
49 -1082 -1141 0
49 -1082 -1142 0
49 -1082 -1143 0
49 -1083 -1134 0
49 -1083 -1135 0
49 -1083 -1136 0
49 -1083 -1137 0
49 -1083 -1138 0
49 -1083 -1139 0
49 -1083 -1140 0
49 -1083 -1141 0
49 -1083 -1142 0
49 -1083 -1143 0
49 -1083 -1144 0
49 -1084 -1134 0
49 -1084 -1135 0
49 -1084 -1136 0
49 -1084 -1137 0
49 -1084 -1138 0
49 -1084 -1139 0
49 -1084 -1140 0
49 -1084 -1141 0
49 -1084 -1142 0
49 -1084 -1143 0
49 -1084 -1144 0
49 -1084 -1145 0
49 -1085 -1134 0
49 -1085 -1135 0
49 -1085 -1136 0
49 -1085 -1137 0
49 -1085 -1138 0
49 -1085 -1139 0
49 -1085 -1140 0
49 -1085 -1141 0
49 -1085 -1142 0
49 -1085 -1143 0
49 -1085 -1144 0
49 -1085 -1145 0
49 -1085 -1146 0
49 -1086 -1134 0
49 -1086 -1135 0
49 -1086 -1136 0
49 -1086 -1137 0
49 -1086 -1138 0
49 -1086 -1139 0
49 -1086 -1140 0
49 -1086 -1141 0
49 -1086 -1142 0
49 -1086 -1143 0
49 -1086 -1144 0
49 -1086 -1145 0
49 -1086 -1146 0
49 -1086 -1147 0
49 -1087 -1134 0
49 -1087 -1135 0
49 -1087 -1136 0
49 -1087 -1137 0
49 -1087 -1138 0
49 -1087 -1139 0
49 -1087 -1140 0
49 -1087 -1141 0
49 -1087 -1142 0
49 -1087 -1143 0
49 -1087 -1144 0
49 -1087 -1145 0
49 -1087 -1146 0
49 -1087 -1147 0
49 -1087 -1148 0
49 -1088 -1134 0
49 -1088 -1135 0
49 -1088 -1136 0
49 -1088 -1137 0
49 -1088 -1138 0
49 -1088 -1139 0
49 -1088 -1140 0
49 -1088 -1141 0
49 -1088 -1142 0
49 -1088 -1143 0
49 -1088 -1144 0
49 -1088 -1145 0
49 -1088 -1146 0
49 -1088 -1147 0
49 -1088 -1148 0
49 -1088 -1149 0
49 -1089 -1134 0
49 -1089 -1135 0
49 -1089 -1136 0
49 -1089 -1137 0
49 -1089 -1138 0
49 -1089 -1139 0
49 -1089 -1140 0
49 -1089 -1141 0
49 -1089 -1142 0
49 -1089 -1143 0
49 -1089 -1144 0
49 -1089 -1145 0
49 -1089 -1146 0
49 -1089 -1147 0
49 -1089 -1148 0
49 -1089 -1149 0
49 -1089 -1150 0
49 -1090 -1135 0
49 -1090 -1136 0
49 -1090 -1137 0
49 -1090 -1138 0
49 -1090 -1139 0
49 -1090 -1140 0
49 -1090 -1141 0
49 -1090 -1142 0
49 -1090 -1143 0
49 -1090 -1144 0
49 -1090 -1145 0
49 -1090 -1146 0
49 -1090 -1147 0
49 -1090 -1148 0
49 -1090 -1149 0
49 -1090 -1150 0
49 -1091 -1142 0
49 -1091 -1143 0
49 -1091 -1144 0
49 -1091 -1145 0
49 -1091 -1146 0
49 -1091 -1147 0
49 -1091 -1148 0
49 -1091 -1149 0
49 -1091 -1150 0
49 -1092 -1142 0
49 -1092 -1143 0
49 -1092 -1144 0
49 -1092 -1145 0
49 -1092 -1146 0
49 -1092 -1147 0
49 -1092 -1148 0
49 -1092 -1149 0
49 -1092 -1150 0
49 -1093 -1142 0
49 -1093 -1143 0
49 -1093 -1144 0
49 -1093 -1145 0
49 -1093 -1146 0
49 -1093 -1147 0
49 -1093 -1148 0
49 -1093 -1149 0
49 -1093 -1150 0
49 -1094 -1142 0
49 -1094 -1143 0
49 -1094 -1144 0
49 -1094 -1145 0
49 -1094 -1146 0
49 -1094 -1147 0
49 -1094 -1148 0
49 -1094 -1149 0
49 -1094 -1150 0
49 -1095 -1142 0
49 -1095 -1143 0
49 -1095 -1144 0
49 -1095 -1145 0
49 -1095 -1146 0
49 -1095 -1147 0
49 -1095 -1148 0
49 -1095 -1149 0
49 -1095 -1150 0
49 -1096 -1142 0
49 -1096 -1143 0
49 -1096 -1144 0
49 -1096 -1145 0
49 -1096 -1146 0
49 -1096 -1147 0
49 -1096 -1148 0
49 -1096 -1149 0
49 -1096 -1150 0
49 -1097 -1142 0
49 -1097 -1143 0
49 -1097 -1144 0
49 -1097 -1145 0
49 -1097 -1146 0
49 -1097 -1147 0
49 -1097 -1148 0
49 -1097 -1149 0
49 -1097 -1150 0
49 -1098 -1142 0
49 -1098 -1143 0
49 -1098 -1144 0
49 -1098 -1145 0
49 -1098 -1146 0
49 -1098 -1147 0
49 -1098 -1148 0
49 -1098 -1149 0
49 -1098 -1150 0
49 -1099 1134 0
49 -1100 1135 0
49 -1101 1136 0
49 -1102 1137 0
49 -1103 1138 0
49 -1104 1139 0
49 -1105 1140 0
49 -1106 1141 0
49 -1107 1125 0
49 -1108 1126 0
49 -1109 1127 0
49 -1110 1128 0
49 -1111 1129 0
49 -1112 1130 0
49 -1113 1131 0
49 -1114 1132 0
49 -1115 1133 0
49 -1116 1142 0
49 -1117 1143 0
49 -1118 1144 0
49 -1119 1145 0
49 -1120 1146 0
49 -1121 1147 0
49 -1122 1148 0
49 -1123 1149 0
49 -1124 1150 0
49 -1099 -1151 0
49 -1099 -1152 0
49 -1099 -1153 0
49 -1099 -1154 0
49 -1099 -1155 0
49 -1099 -1156 0
49 -1099 -1157 0
49 -1099 -1158 0
49 -1099 -1159 0
49 -1100 -1151 0
49 -1100 -1152 0
49 -1100 -1153 0
49 -1100 -1154 0
49 -1100 -1155 0
49 -1100 -1156 0
49 -1100 -1157 0
49 -1100 -1158 0
49 -1100 -1159 0
49 -1101 -1151 0
49 -1101 -1152 0
49 -1101 -1153 0
49 -1101 -1154 0
49 -1101 -1155 0
49 -1101 -1156 0
49 -1101 -1157 0
49 -1101 -1158 0
49 -1101 -1159 0
49 -1102 -1151 0
49 -1102 -1152 0
49 -1102 -1153 0
49 -1102 -1154 0
49 -1102 -1155 0
49 -1102 -1156 0
49 -1102 -1157 0
49 -1102 -1158 0
49 -1102 -1159 0
49 -1103 -1151 0
49 -1103 -1152 0
49 -1103 -1153 0
49 -1103 -1154 0
49 -1103 -1155 0
49 -1103 -1156 0
49 -1103 -1157 0
49 -1103 -1158 0
49 -1103 -1159 0
49 -1104 -1151 0
49 -1104 -1152 0
49 -1104 -1153 0
49 -1104 -1154 0
49 -1104 -1155 0
49 -1104 -1156 0
49 -1104 -1157 0
49 -1104 -1158 0
49 -1104 -1159 0
49 -1105 -1151 0
49 -1105 -1152 0
49 -1105 -1153 0
49 -1105 -1154 0
49 -1105 -1155 0
49 -1105 -1156 0
49 -1105 -1157 0
49 -1105 -1158 0
49 -1105 -1159 0
49 -1106 -1151 0
49 -1106 -1152 0
49 -1106 -1153 0
49 -1106 -1154 0
49 -1106 -1155 0
49 -1106 -1156 0
49 -1106 -1157 0
49 -1106 -1158 0
49 -1106 -1159 0
49 -1107 -1160 0
49 -1107 -1161 0
49 -1107 -1162 0
49 -1107 -1163 0
49 -1107 -1164 0
49 -1107 -1165 0
49 -1107 -1166 0
49 -1107 -1167 0
49 -1108 -1160 0
49 -1108 -1161 0
49 -1108 -1162 0
49 -1108 -1163 0
49 -1108 -1164 0
49 -1108 -1165 0
49 -1108 -1166 0
49 -1108 -1167 0
49 -1109 -1160 0
49 -1109 -1161 0
49 -1109 -1162 0
49 -1109 -1163 0
49 -1109 -1164 0
49 -1109 -1165 0
49 -1109 -1166 0
49 -1109 -1167 0
49 -1110 -1160 0
49 -1110 -1161 0
49 -1110 -1162 0
49 -1110 -1163 0
49 -1110 -1164 0
49 -1110 -1165 0
49 -1110 -1166 0
49 -1110 -1167 0
49 -1111 -1160 0
49 -1111 -1161 0
49 -1111 -1162 0
49 -1111 -1163 0
49 -1111 -1164 0
49 -1111 -1165 0
49 -1111 -1166 0
49 -1111 -1167 0
49 -1112 -1160 0
49 -1112 -1161 0
49 -1112 -1162 0
49 -1112 -1163 0
49 -1112 -1164 0
49 -1112 -1165 0
49 -1112 -1166 0
49 -1112 -1167 0
49 -1113 -1160 0
49 -1113 -1161 0
49 -1113 -1162 0
49 -1113 -1163 0
49 -1113 -1164 0
49 -1113 -1165 0
49 -1113 -1166 0
49 -1113 -1167 0
49 -1114 -1160 0
49 -1114 -1161 0
49 -1114 -1162 0
49 -1114 -1163 0
49 -1114 -1164 0
49 -1114 -1165 0
49 -1114 -1166 0
49 -1114 -1167 0
49 -1115 -1160 0
49 -1115 -1161 0
49 -1115 -1162 0
49 -1115 -1163 0
49 -1115 -1164 0
49 -1115 -1165 0
49 -1115 -1166 0
49 -1115 -1167 0
49 -1116 -1163 0
49 -1116 -1164 0
49 -1116 -1165 0
49 -1116 -1166 0
49 -1116 -1167 0
49 -1117 -1164 0
49 -1117 -1165 0
49 -1117 -1166 0
49 -1117 -1167 0
49 -1118 -1165 0
49 -1118 -1166 0
49 -1118 -1167 0
49 -1119 -1166 0
49 -1119 -1167 0
49 -1120 -1167 0
49 -1099 -1170 0
49 -1099 -1171 0
49 -1099 -1172 0
49 -1099 -1173 0
49 -1099 -1174 0
49 -1100 -1170 0
49 -1100 -1171 0
49 -1100 -1172 0
49 -1100 -1173 0
49 -1100 -1174 0
49 -1100 -1175 0
49 -1101 -1170 0
49 -1101 -1171 0
49 -1101 -1172 0
49 -1101 -1173 0
49 -1101 -1174 0
49 -1101 -1175 0
49 -1101 -1176 0
49 -1102 -1170 0
49 -1102 -1171 0
49 -1102 -1172 0
49 -1102 -1173 0
49 -1102 -1174 0
49 -1102 -1175 0
49 -1102 -1176 0
49 -1102 -1177 0
49 -1103 -1170 0
49 -1103 -1171 0
49 -1103 -1172 0
49 -1103 -1173 0
49 -1103 -1174 0
49 -1103 -1175 0
49 -1103 -1176 0
49 -1103 -1177 0
49 -1104 -1171 0
49 -1104 -1172 0
49 -1104 -1173 0
49 -1104 -1174 0
49 -1104 -1175 0
49 -1104 -1176 0
49 -1104 -1177 0
49 -1105 -1172 0
49 -1105 -1173 0
49 -1105 -1174 0
49 -1105 -1175 0
49 -1105 -1176 0
49 -1105 -1177 0
49 -1106 -1173 0
49 -1106 -1174 0
49 -1106 -1175 0
49 -1106 -1176 0
49 -1106 -1177 0
49 -1107 -1178 0
49 -1107 -1179 0
49 -1107 -1180 0
49 -1107 -1181 0
49 -1107 -1182 0
49 -1108 -1178 0
49 -1108 -1179 0
49 -1108 -1180 0
49 -1108 -1181 0
49 -1108 -1182 0
49 -1108 -1183 0
49 -1109 -1178 0
49 -1109 -1179 0
49 -1109 -1180 0
49 -1109 -1181 0
49 -1109 -1182 0
49 -1109 -1183 0
49 -1109 -1184 0
49 -1110 -1178 0
49 -1110 -1179 0
49 -1110 -1180 0
49 -1110 -1181 0
49 -1110 -1182 0
49 -1110 -1183 0
49 -1110 -1184 0
49 -1110 -1185 0
49 -1111 -1178 0
49 -1111 -1179 0
49 -1111 -1180 0
49 -1111 -1181 0
49 -1111 -1182 0
49 -1111 -1183 0
49 -1111 -1184 0
49 -1111 -1185 0
49 -1111 -1186 0
49 -1112 -1179 0
49 -1112 -1180 0
49 -1112 -1181 0
49 -1112 -1182 0
49 -1112 -1183 0
49 -1112 -1184 0
49 -1112 -1185 0
49 -1112 -1186 0
49 -1113 -1180 0
49 -1113 -1181 0
49 -1113 -1182 0
49 -1113 -1183 0
49 -1113 -1184 0
49 -1113 -1185 0
49 -1113 -1186 0
49 -1114 -1181 0
49 -1114 -1182 0
49 -1114 -1183 0
49 -1114 -1184 0
49 -1114 -1185 0
49 -1114 -1186 0
49 -1115 -1182 0
49 -1115 -1183 0
49 -1115 -1184 0
49 -1115 -1185 0
49 -1115 -1186 0
49 -1115 -1187 0
49 -1116 -1186 0
49 -1116 -1187 0
49 -1116 -1188 0
49 -1117 -1187 0
49 -1117 -1188 0
49 -1118 -1187 0
49 -1118 -1188 0
49 -1119 -1187 0
49 -1119 -1188 0
49 -1120 -1187 0
49 -1120 -1188 0
49 -1121 -1188 0
49 -1125 -1151 0
49 -1125 -1152 0
49 -1125 -1153 0
49 -1125 -1154 0
49 -1125 -1155 0
49 -1126 -1151 0
49 -1126 -1152 0
49 -1126 -1153 0
49 -1126 -1154 0
49 -1126 -1155 0
49 -1126 -1156 0
49 -1127 -1151 0
49 -1127 -1152 0
49 -1127 -1153 0
49 -1127 -1154 0
49 -1127 -1155 0
49 -1127 -1156 0
49 -1127 -1157 0
49 -1128 -1151 0
49 -1128 -1152 0
49 -1128 -1153 0
49 -1128 -1154 0
49 -1128 -1155 0
49 -1128 -1156 0
49 -1128 -1157 0
49 -1128 -1158 0
49 -1129 -1151 0
49 -1129 -1152 0
49 -1129 -1153 0
49 -1129 -1154 0
49 -1129 -1155 0
49 -1129 -1156 0
49 -1129 -1157 0
49 -1129 -1158 0
49 -1129 -1159 0
49 -1130 -1152 0
49 -1130 -1153 0
49 -1130 -1154 0
49 -1130 -1155 0
49 -1130 -1156 0
49 -1130 -1157 0
49 -1130 -1158 0
49 -1130 -1159 0
49 -1131 -1153 0
49 -1131 -1154 0
49 -1131 -1155 0
49 -1131 -1156 0
49 -1131 -1157 0
49 -1131 -1158 0
49 -1131 -1159 0
49 -1132 -1154 0
49 -1132 -1155 0
49 -1132 -1156 0
49 -1132 -1157 0
49 -1132 -1158 0
49 -1132 -1159 0
49 -1133 -1155 0
49 -1133 -1156 0
49 -1133 -1157 0
49 -1133 -1158 0
49 -1133 -1159 0
49 -1134 -1160 0
49 -1134 -1161 0
49 -1134 -1162 0
49 -1134 -1163 0
49 -1134 -1164 0
49 -1135 -1160 0
49 -1135 -1161 0
49 -1135 -1162 0
49 -1135 -1163 0
49 -1135 -1164 0
49 -1135 -1165 0
49 -1136 -1160 0
49 -1136 -1161 0
49 -1136 -1162 0
49 -1136 -1163 0
49 -1136 -1164 0
49 -1136 -1165 0
49 -1136 -1166 0
49 -1137 -1160 0
49 -1137 -1161 0
49 -1137 -1162 0
49 -1137 -1163 0
49 -1137 -1164 0
49 -1137 -1165 0
49 -1137 -1166 0
49 -1137 -1167 0
49 -1138 -1160 0
49 -1138 -1161 0
49 -1138 -1162 0
49 -1138 -1163 0
49 -1138 -1164 0
49 -1138 -1165 0
49 -1138 -1166 0
49 -1138 -1167 0
49 -1139 -1161 0
49 -1139 -1162 0
49 -1139 -1163 0
49 -1139 -1164 0
49 -1139 -1165 0
49 -1139 -1166 0
49 -1139 -1167 0
49 -1140 -1162 0
49 -1140 -1163 0
49 -1140 -1164 0
49 -1140 -1165 0
49 -1140 -1166 0
49 -1140 -1167 0
49 -1141 -1163 0
49 -1141 -1164 0
49 -1141 -1165 0
49 -1141 -1166 0
49 -1141 -1167 0
49 -1142 -1168 0
49 -1142 -1169 0
49 -1143 -1168 0
49 -1143 -1169 0
49 -1144 -1168 0
49 -1144 -1169 0
49 -1145 -1168 0
49 -1145 -1169 0
49 -1146 -1168 0
49 -1146 -1169 0
49 -1147 -1169 0
49 -1125 -1170 0
49 -1125 -1171 0
49 -1125 -1172 0
49 -1125 -1173 0
49 -1125 -1174 0
49 -1125 -1175 0
49 -1125 -1176 0
49 -1125 -1177 0
49 -1126 -1170 0
49 -1126 -1171 0
49 -1126 -1172 0
49 -1126 -1173 0
49 -1126 -1174 0
49 -1126 -1175 0
49 -1126 -1176 0
49 -1126 -1177 0
49 -1126 -1178 0
49 -1127 -1170 0
49 -1127 -1171 0
49 -1127 -1172 0
49 -1127 -1173 0
49 -1127 -1174 0
49 -1127 -1175 0
49 -1127 -1176 0
49 -1127 -1177 0
49 -1127 -1178 0
49 -1127 -1179 0
49 -1128 -1170 0
49 -1128 -1171 0
49 -1128 -1172 0
49 -1128 -1173 0
49 -1128 -1174 0
49 -1128 -1175 0
49 -1128 -1176 0
49 -1128 -1177 0
49 -1128 -1178 0
49 -1128 -1179 0
49 -1128 -1180 0
49 -1129 -1170 0
49 -1129 -1171 0
49 -1129 -1172 0
49 -1129 -1173 0
49 -1129 -1174 0
49 -1129 -1175 0
49 -1129 -1176 0
49 -1129 -1177 0
49 -1129 -1178 0
49 -1129 -1179 0
49 -1129 -1180 0
49 -1129 -1181 0
49 -1130 -1170 0
49 -1130 -1171 0
49 -1130 -1172 0
49 -1130 -1173 0
49 -1130 -1174 0
49 -1130 -1175 0
49 -1130 -1176 0
49 -1130 -1177 0
49 -1130 -1178 0
49 -1130 -1179 0
49 -1130 -1180 0
49 -1130 -1181 0
49 -1130 -1182 0
49 -1131 -1170 0
49 -1131 -1171 0
49 -1131 -1172 0
49 -1131 -1173 0
49 -1131 -1174 0
49 -1131 -1175 0
49 -1131 -1176 0
49 -1131 -1177 0
49 -1131 -1178 0
49 -1131 -1179 0
49 -1131 -1180 0
49 -1131 -1181 0
49 -1131 -1182 0
49 -1131 -1183 0
49 -1132 -1170 0
49 -1132 -1171 0
49 -1132 -1172 0
49 -1132 -1173 0
49 -1132 -1174 0
49 -1132 -1175 0
49 -1132 -1176 0
49 -1132 -1177 0
49 -1132 -1178 0
49 -1132 -1179 0
49 -1132 -1180 0
49 -1132 -1181 0
49 -1132 -1182 0
49 -1132 -1183 0
49 -1132 -1184 0
49 -1133 -1170 0
49 -1133 -1171 0
49 -1133 -1172 0
49 -1133 -1173 0
49 -1133 -1174 0
49 -1133 -1175 0
49 -1133 -1176 0
49 -1133 -1177 0
49 -1133 -1178 0
49 -1133 -1179 0
49 -1133 -1180 0
49 -1133 -1181 0
49 -1133 -1182 0
49 -1133 -1183 0
49 -1133 -1184 0
49 -1133 -1185 0
49 -1134 -1171 0
49 -1134 -1172 0
49 -1134 -1173 0
49 -1134 -1174 0
49 -1134 -1175 0
49 -1134 -1176 0
49 -1134 -1177 0
49 -1134 -1178 0
49 -1134 -1179 0
49 -1134 -1180 0
49 -1134 -1181 0
49 -1134 -1182 0
49 -1134 -1183 0
49 -1134 -1184 0
49 -1134 -1185 0
49 -1134 -1186 0
49 -1134 -1187 0
49 -1134 -1188 0
49 -1135 -1172 0
49 -1135 -1173 0
49 -1135 -1174 0
49 -1135 -1175 0
49 -1135 -1176 0
49 -1135 -1177 0
49 -1135 -1178 0
49 -1135 -1179 0
49 -1135 -1180 0
49 -1135 -1181 0
49 -1135 -1182 0
49 -1135 -1183 0
49 -1135 -1184 0
49 -1135 -1185 0
49 -1135 -1186 0
49 -1135 -1187 0
49 -1135 -1188 0
49 -1136 -1173 0
49 -1136 -1174 0
49 -1136 -1175 0
49 -1136 -1176 0
49 -1136 -1177 0
49 -1136 -1178 0
49 -1136 -1179 0
49 -1136 -1180 0
49 -1136 -1181 0
49 -1136 -1182 0
49 -1136 -1183 0
49 -1136 -1184 0
49 -1136 -1185 0
49 -1136 -1186 0
49 -1136 -1187 0
49 -1136 -1188 0
49 -1137 -1174 0
49 -1137 -1175 0
49 -1137 -1176 0
49 -1137 -1177 0
49 -1137 -1178 0
49 -1137 -1179 0
49 -1137 -1180 0
49 -1137 -1181 0
49 -1137 -1182 0
49 -1137 -1183 0
49 -1137 -1184 0
49 -1137 -1185 0
49 -1137 -1186 0
49 -1137 -1187 0
49 -1137 -1188 0
49 -1138 -1175 0
49 -1138 -1176 0
49 -1138 -1177 0
49 -1138 -1178 0
49 -1138 -1179 0
49 -1138 -1180 0
49 -1138 -1181 0
49 -1138 -1182 0
49 -1138 -1183 0
49 -1138 -1184 0
49 -1138 -1185 0
49 -1138 -1186 0
49 -1138 -1187 0
49 -1138 -1188 0
49 -1139 -1176 0
49 -1139 -1177 0
49 -1139 -1178 0
49 -1139 -1179 0
49 -1139 -1180 0
49 -1139 -1181 0
49 -1139 -1182 0
49 -1139 -1183 0
49 -1139 -1184 0
49 -1139 -1185 0
49 -1139 -1186 0
49 -1139 -1187 0
49 -1139 -1188 0
49 -1140 -1177 0
49 -1140 -1178 0
49 -1140 -1179 0
49 -1140 -1180 0
49 -1140 -1181 0
49 -1140 -1182 0
49 -1140 -1183 0
49 -1140 -1184 0
49 -1140 -1185 0
49 -1140 -1186 0
49 -1140 -1187 0
49 -1140 -1188 0
49 -1141 -1178 0
49 -1141 -1179 0
49 -1141 -1180 0
49 -1141 -1181 0
49 -1141 -1182 0
49 -1141 -1183 0
49 -1141 -1184 0
49 -1141 -1185 0
49 -1141 -1186 0
49 -1141 -1187 0
49 -1141 -1188 0
49 -1142 -1188 0
49 -1151 1178 0
49 -1152 1179 0
49 -1153 1180 0
49 -1154 1181 0
49 -1155 1182 0
49 -1156 1183 0
49 -1157 1184 0
49 -1158 1185 0
49 -1159 1186 0
49 -1160 1170 0
49 -1161 1171 0
49 -1162 1172 0
49 -1163 1173 0
49 -1164 1174 0
49 -1165 1175 0
49 -1166 1176 0
49 -1167 1177 0
49 -1168 1187 0
49 -1169 1188 0
49 -1189 1190 0
49 -1191 1199 0
49 -1192 1200 0
49 -1193 1201 0
49 -1194 1202 0
49 -1195 1203 0
49 -1196 1204 0
49 -1197 1205 0
49 -1198 1206 0
49 -1196 -1207 0
49 -1197 -1207 0
49 -1197 -1208 0
49 -1198 -1207 0
49 -1198 -1208 0
49 -1198 -1209 0
49 -1200 -1207 0
49 -1201 -1207 0
49 -1201 -1208 0
49 -1202 -1207 0
49 -1202 -1208 0
49 -1202 -1209 0
49 -1203 -1207 0
49 -1203 -1208 0
49 -1203 -1209 0
49 -1204 -1207 0
49 -1204 -1208 0
49 -1204 -1209 0
49 -1205 -1207 0
49 -1205 -1208 0
49 -1205 -1209 0
49 -1206 -1207 0
49 -1206 -1208 0
49 -1206 -1209 0
49 -1204 -1219 0
49 -1205 -1219 0
49 -1205 -1220 0
49 -1206 -1219 0
49 -1206 -1220 0
49 -1206 -1221 0
49 -1207 1228 0
49 -1208 1229 0
49 -1209 1230 0
49 -1210 1219 0
49 -1211 1220 0
49 -1212 1221 0
49 -1213 1222 0
49 -1214 1223 0
49 -1215 1224 0
49 -1216 1225 0
49 -1217 1226 0
49 -1218 1227 0
49 -1207 -1240 0
49 -1207 -1241 0
49 -1207 -1242 0
49 -1207 -1243 0
49 -1207 -1244 0
49 -1208 -1241 0
49 -1208 -1242 0
49 -1208 -1243 0
49 -1208 -1244 0
49 -1209 -1242 0
49 -1209 -1243 0
49 -1209 -1244 0
49 -1219 -1244 0
49 -1231 1238 0
49 -1232 1239 0
49 -1233 1240 0
49 -1234 1241 0
49 -1235 1242 0
49 -1236 1243 0
49 -1237 1244 0
49 -1245 1246 0
49 -1247 1248 0
49 -1249 1253 0
49 -1250 1254 0
49 -1251 1255 0
49 -1252 1256 0
49 -1253 -1958 0
49 -1253 -1959 0
49 -1253 -1960 0
49 -1254 -1959 0
49 -1254 -1960 0
49 -1255 -1960 0
49 -1257 1260 0
49 -1258 1261 0
49 -1259 1262 0
49 -1263 1264 0
49 -1265 1266 0
49 -1267 1268 0
49 -1269 1270 0
49 -1271 1272 0
49 -1273 1274 0
49 -1275 1279 0
49 -1276 1280 0
49 -1277 1281 0
49 -1278 1282 0
49 -1283 1284 0
49 -1285 1286 0
49 -1287 1291 0
49 -1288 1292 0
49 -1289 1293 0
49 -1290 1294 0
49 -1295 1301 0
49 -1296 1302 0
49 -1297 1303 0
49 -1298 1304 0
49 -1299 1305 0
49 -1300 1306 0
49 -1307 1311 0
49 -1308 1312 0
49 -1309 1313 0
49 -1310 1314 0
49 -1315 1316 0
49 -1317 1318 0
49 -1319 1321 0
49 -1320 1322 0
49 -1323 1327 0
49 -1324 1328 0
49 -1325 1329 0
49 -1326 1330 0
49 -1331 1333 0
49 -1332 1334 0
49 -1331 -1386 0
49 -1335 1338 0
49 -1336 1339 0
49 -1337 1340 0
49 -1341 1344 0
49 -1342 1345 0
49 -1343 1346 0
49 -1345 -1347 0
49 -1346 -1347 0
49 -1346 -1348 0
49 -1347 1352 0
49 -1348 1353 0
49 -1349 1354 0
49 -1350 1355 0
49 -1351 1356 0
49 -1357 1359 0
49 -1358 1360 0
49 -1361 1365 0
49 -1362 1366 0
49 -1363 1367 0
49 -1364 1368 0
49 -1369 1373 0
49 -1370 1374 0
49 -1371 1375 0
49 -1372 1376 0
49 -1377 1379 0
49 -1378 1380 0
49 -1381 1383 0
49 -1382 1384 0
49 -1385 1387 0
49 -1386 1388 0
49 -1389 1390 0
49 -1391 1393 0
49 -1392 1394 0
49 -1395 1396 0
49 -1397 1400 0
49 -1398 1401 0
49 -1399 1402 0
49 -1403 1405 0
49 -1404 1406 0
49 -1407 1409 0
49 -1408 1410 0
49 -1411 1412 0
49 -1413 1416 0
49 -1414 1417 0
49 -1415 1418 0
49 -1419 1424 0
49 -1420 1425 0
49 -1421 1426 0
49 -1422 1427 0
49 -1423 1428 0
49 -1424 -1435 0
49 -1424 -1436 0
49 -1425 -1436 0
49 -1429 1437 0
49 -1430 1438 0
49 -1431 1439 0
49 -1432 1440 0
49 -1433 1441 0
49 -1434 1442 0
49 -1435 1443 0
49 -1436 1444 0
49 -1434 -1445 0
49 -1435 -1445 0
49 -1435 -1446 0
49 -1436 -1445 0
49 -1436 -1446 0
49 -1436 -1447 0
49 -1445 1449 0
49 -1446 1450 0
49 -1447 1451 0
49 -1448 1452 0
49 -1445 -1458 0
49 -1445 -1459 0
49 -1445 -1460 0
49 -1446 -1459 0
49 -1446 -1460 0
49 -1447 -1460 0
49 -1449 -1454 0
49 -1449 -1455 0
49 -1449 -1456 0
49 -1450 -1455 0
49 -1450 -1456 0
49 -1451 -1456 0
49 -1453 1457 0
49 -1454 1458 0
49 -1455 1459 0
49 -1456 1460 0
49 -1461 1465 0
49 -1462 1466 0
49 -1463 1467 0
49 -1464 1468 0
49 -1469 1471 0
49 -1470 1472 0
49 -1470 -1473 0
49 -1472 -1475 0
49 -1473 1475 0
49 -1474 1476 0
49 -1477 1480 0
49 -1478 1481 0
49 -1479 1482 0
49 -1477 -1484 0
49 -1477 -1485 0
49 -1478 -1485 0
49 -1480 -1487 0
49 -1480 -1488 0
49 -1481 -1488 0
49 -1483 1486 0
49 -1484 1487 0
49 -1485 1488 0
49 -1483 -1493 0
49 -1483 -1494 0
49 -1484 -1494 0
49 -1489 1492 0
49 -1490 1493 0
49 -1491 1494 0
49 -1489 -1499 0
49 -1489 -1500 0
49 -1490 -1500 0
49 -1492 -1497 0
49 -1493 -1501 0
49 -1494 -1501 0
49 -1494 -1502 0
49 -1495 1498 0
49 -1496 1499 0
49 -1497 1500 0
49 -1501 1507 0
49 -1502 1508 0
49 -1503 1509 0
49 -1504 1510 0
49 -1505 1511 0
49 -1506 1512 0
49 -1513 1514 0
49 -1515 1521 0
49 -1516 1522 0
49 -1517 1523 0
49 -1518 1524 0
49 -1519 1525 0
49 -1520 1526 0
49 -1527 1529 0
49 -1528 1530 0
49 -1531 1533 0
49 -1532 1534 0
49 -1532 -1535 0
49 -1534 -1539 0
49 -1535 1539 0
49 -1536 1540 0
49 -1537 1541 0
49 -1538 1542 0
49 -1543 1548 0
49 -1544 1549 0
49 -1545 1550 0
49 -1546 1551 0
49 -1547 1552 0
49 -1545 -1701 0
49 -1546 -1701 0
49 -1546 -1702 0
49 -1547 -1701 0
49 -1547 -1702 0
49 -1547 -1703 0
49 -1543 -1708 0
49 -1550 -1705 0
49 -1551 -1705 0
49 -1551 -1706 0
49 -1552 -1705 0
49 -1552 -1706 0
49 -1552 -1707 0
49 -1553 1554 0
49 -1555 1556 0
49 -1557 1558 0
49 -1559 1567 0
49 -1560 1568 0
49 -1561 1569 0
49 -1562 1570 0
49 -1563 1571 0
49 -1564 1572 0
49 -1565 1573 0
49 -1566 1574 0
49 -1575 1578 0
49 -1576 1579 0
49 -1577 1580 0
49 -1579 -1581 0
49 -1580 -1581 0
49 -1580 -1582 0
49 -1581 1589 0
49 -1582 1590 0
49 -1583 1591 0
49 -1584 1592 0
49 -1585 1593 0
49 -1586 1594 0
49 -1587 1595 0
49 -1588 1596 0
49 -1581 -1859 0
49 -1581 -1860 0
49 -1582 -1860 0
49 -1581 -1870 0
49 -1582 -1870 0
49 -1583 -1870 0
49 -1584 -1870 0
49 -1585 -1870 0
49 -1586 -1870 0
49 -1587 -1870 0
49 -1597 1602 0
49 -1598 1603 0
49 -1599 1604 0
49 -1600 1605 0
49 -1601 1606 0
49 -1597 -1608 0
49 -1597 -1609 0
49 -1597 -1610 0
49 -1597 -1611 0
49 -1597 -1612 0
49 -1598 -1609 0
49 -1598 -1610 0
49 -1598 -1611 0
49 -1598 -1612 0
49 -1599 -1610 0
49 -1599 -1611 0
49 -1599 -1612 0
49 -1600 -1611 0
49 -1600 -1612 0
49 -1597 -1618 0
49 -1597 -1638 0
49 -1597 -1639 0
49 -1598 -1639 0
49 -1599 -1639 0
49 -1600 -1639 0
49 -1597 -1722 0
49 -1597 -1723 0
49 -1597 -1724 0
49 -1598 -1723 0
49 -1598 -1724 0
49 -1599 -1724 0
49 -1602 -1612 0
49 -1602 -1634 0
49 -1607 1613 0
49 -1608 1614 0
49 -1609 1615 0
49 -1610 1616 0
49 -1611 1617 0
49 -1612 1618 0
49 -1611 -1619 0
49 -1611 -1620 0
49 -1612 -1619 0
49 -1612 -1620 0
49 -1612 -1621 0
49 -1609 -1627 0
49 -1610 -1627 0
49 -1610 -1628 0
49 -1611 -1627 0
49 -1611 -1628 0
49 -1611 -1629 0
49 -1611 -1630 0
49 -1611 -1631 0
49 -1611 -1632 0
49 -1612 -1627 0
49 -1612 -1628 0
49 -1612 -1629 0
49 -1612 -1630 0
49 -1612 -1631 0
49 -1612 -1632 0
49 -1612 -1633 0
49 -1607 -1720 0
49 -1608 -1720 0
49 -1608 -1721 0
49 -1609 -1720 0
49 -1609 -1721 0
49 -1609 -1722 0
49 -1610 -1720 0
49 -1610 -1721 0
49 -1610 -1722 0
49 -1610 -1723 0
49 -1611 -1721 0
49 -1611 -1722 0
49 -1611 -1723 0
49 -1611 -1724 0
49 -1612 -1721 0
49 -1612 -1722 0
49 -1612 -1723 0
49 -1612 -1724 0
49 -1617 -1627 0
49 -1617 -1628 0
49 -1618 -1627 0
49 -1618 -1628 0
49 -1618 -1629 0
49 -1613 -1715 0
49 -1614 -1715 0
49 -1614 -1716 0
49 -1615 -1715 0
49 -1615 -1716 0
49 -1615 -1717 0
49 -1616 -1715 0
49 -1616 -1716 0
49 -1616 -1717 0
49 -1616 -1718 0
49 -1617 -1716 0
49 -1617 -1717 0
49 -1617 -1718 0
49 -1617 -1719 0
49 -1618 -1716 0
49 -1618 -1717 0
49 -1618 -1718 0
49 -1618 -1719 0
49 -1614 -1720 0
49 -1615 -1720 0
49 -1616 -1720 0
49 -1617 -1720 0
49 -1618 -1720 0
49 -1618 -1721 0
49 -1619 1627 0
49 -1620 1628 0
49 -1621 1629 0
49 -1622 1630 0
49 -1623 1631 0
49 -1624 1632 0
49 -1625 1633 0
49 -1626 1634 0
49 -1619 -1649 0
49 -1619 -1650 0
49 -1619 -1651 0
49 -1619 -1652 0
49 -1619 -1653 0
49 -1620 -1650 0
49 -1620 -1651 0
49 -1620 -1652 0
49 -1620 -1653 0
49 -1621 -1651 0
49 -1621 -1652 0
49 -1621 -1653 0
49 -1622 -1651 0
49 -1622 -1652 0
49 -1622 -1653 0
49 -1623 -1651 0
49 -1623 -1652 0
49 -1623 -1653 0
49 -1624 -1652 0
49 -1624 -1653 0
49 -1625 -1653 0
49 -1619 -1654 0
49 -1619 -1655 0
49 -1619 -1656 0
49 -1619 -1657 0
49 -1619 -1658 0
49 -1619 -1659 0
49 -1620 -1654 0
49 -1620 -1655 0
49 -1620 -1656 0
49 -1620 -1657 0
49 -1620 -1658 0
49 -1620 -1659 0
49 -1620 -1660 0
49 -1621 -1655 0
49 -1621 -1656 0
49 -1621 -1657 0
49 -1621 -1658 0
49 -1621 -1659 0
49 -1621 -1660 0
49 -1621 -1661 0
49 -1622 -1656 0
49 -1622 -1657 0
49 -1622 -1658 0
49 -1622 -1659 0
49 -1622 -1660 0
49 -1622 -1661 0
49 -1622 -1662 0
49 -1623 -1657 0
49 -1623 -1658 0
49 -1623 -1659 0
49 -1623 -1660 0
49 -1623 -1661 0
49 -1623 -1662 0
49 -1624 -1658 0
49 -1624 -1659 0
49 -1624 -1660 0
49 -1624 -1661 0
49 -1624 -1662 0
49 -1625 -1659 0
49 -1625 -1660 0
49 -1625 -1661 0
49 -1625 -1662 0
49 -1626 -1660 0
49 -1626 -1661 0
49 -1626 -1662 0
49 -1619 -1667 0
49 -1619 -1668 0
49 -1619 -1669 0
49 -1619 -1670 0
49 -1619 -1671 0
49 -1619 -1672 0
49 -1619 -1673 0
49 -1620 -1668 0
49 -1620 -1669 0
49 -1620 -1670 0
49 -1620 -1671 0
49 -1620 -1672 0
49 -1620 -1673 0
49 -1621 -1669 0
49 -1621 -1670 0
49 -1621 -1671 0
49 -1621 -1672 0
49 -1621 -1673 0
49 -1622 -1670 0
49 -1622 -1671 0
49 -1622 -1672 0
49 -1622 -1673 0
49 -1623 -1671 0
49 -1623 -1672 0
49 -1623 -1673 0
49 -1624 -1672 0
49 -1624 -1673 0
49 -1625 -1673 0
49 -1619 -1674 0
49 -1619 -1675 0
49 -1619 -1676 0
49 -1619 -1677 0
49 -1619 -1678 0
49 -1619 -1679 0
49 -1619 -1680 0
49 -1620 -1675 0
49 -1620 -1676 0
49 -1620 -1677 0
49 -1620 -1678 0
49 -1620 -1679 0
49 -1620 -1680 0
49 -1620 -1681 0
49 -1621 -1676 0
49 -1621 -1677 0
49 -1621 -1678 0
49 -1621 -1679 0
49 -1621 -1680 0
49 -1621 -1681 0
49 -1621 -1682 0
49 -1622 -1677 0
49 -1622 -1678 0
49 -1622 -1679 0
49 -1622 -1680 0
49 -1622 -1681 0
49 -1622 -1682 0
49 -1622 -1683 0
49 -1623 -1678 0
49 -1623 -1679 0
49 -1623 -1680 0
49 -1623 -1681 0
49 -1623 -1682 0
49 -1623 -1683 0
49 -1623 -1684 0
49 -1624 -1679 0
49 -1624 -1680 0
49 -1624 -1681 0
49 -1624 -1682 0
49 -1624 -1683 0
49 -1624 -1684 0
49 -1625 -1680 0
49 -1625 -1681 0
49 -1625 -1682 0
49 -1625 -1683 0
49 -1625 -1684 0
49 -1626 -1681 0
49 -1626 -1682 0
49 -1626 -1683 0
49 -1626 -1684 0
49 -1627 -1636 0
49 -1627 -1637 0
49 -1627 -1638 0
49 -1627 -1639 0
49 -1628 -1637 0
49 -1628 -1638 0
49 -1628 -1639 0
49 -1629 -1638 0
49 -1629 -1639 0
49 -1630 -1639 0
49 -1631 -1639 0
49 -1632 -1639 0
49 -1633 -1639 0
49 -1627 -1645 0
49 -1627 -1646 0
49 -1627 -1647 0
49 -1627 -1648 0
49 -1627 -1649 0
49 -1627 -1650 0
49 -1628 -1645 0
49 -1628 -1646 0
49 -1628 -1647 0
49 -1628 -1648 0
49 -1628 -1649 0
49 -1628 -1650 0
49 -1628 -1651 0
49 -1629 -1646 0
49 -1629 -1647 0
49 -1629 -1648 0
49 -1629 -1649 0
49 -1629 -1650 0
49 -1629 -1651 0
49 -1629 -1652 0
49 -1630 -1647 0
49 -1630 -1648 0
49 -1630 -1649 0
49 -1630 -1650 0
49 -1630 -1651 0
49 -1630 -1652 0
49 -1630 -1653 0
49 -1631 -1648 0
49 -1631 -1649 0
49 -1631 -1650 0
49 -1631 -1651 0
49 -1631 -1652 0
49 -1631 -1653 0
49 -1632 -1649 0
49 -1632 -1650 0
49 -1632 -1651 0
49 -1632 -1652 0
49 -1632 -1653 0
49 -1633 -1650 0
49 -1633 -1651 0
49 -1633 -1652 0
49 -1633 -1653 0
49 -1634 -1651 0
49 -1634 -1652 0
49 -1634 -1653 0
49 -1633 -1654 0
49 -1634 -1654 0
49 -1634 -1655 0
49 -1627 -1663 0
49 -1627 -1664 0
49 -1627 -1665 0
49 -1627 -1666 0
49 -1627 -1667 0
49 -1627 -1668 0
49 -1627 -1669 0
49 -1628 -1664 0
49 -1628 -1665 0
49 -1628 -1666 0
49 -1628 -1667 0
49 -1628 -1668 0
49 -1628 -1669 0
49 -1628 -1670 0
49 -1629 -1665 0
49 -1629 -1666 0
49 -1629 -1667 0
49 -1629 -1668 0
49 -1629 -1669 0
49 -1629 -1670 0
49 -1629 -1671 0
49 -1630 -1666 0
49 -1630 -1667 0
49 -1630 -1668 0
49 -1630 -1669 0
49 -1630 -1670 0
49 -1630 -1671 0
49 -1630 -1672 0
49 -1631 -1667 0
49 -1631 -1668 0
49 -1631 -1669 0
49 -1631 -1670 0
49 -1631 -1671 0
49 -1631 -1672 0
49 -1631 -1673 0
49 -1632 -1668 0
49 -1632 -1669 0
49 -1632 -1670 0
49 -1632 -1671 0
49 -1632 -1672 0
49 -1632 -1673 0
49 -1633 -1669 0
49 -1633 -1670 0
49 -1633 -1671 0
49 -1633 -1672 0
49 -1633 -1673 0
49 -1634 -1670 0
49 -1634 -1671 0
49 -1634 -1672 0
49 -1634 -1673 0
49 -1632 -1674 0
49 -1633 -1674 0
49 -1633 -1675 0
49 -1634 -1674 0
49 -1634 -1675 0
49 -1634 -1676 0
49 -1627 -1721 0
49 -1627 -1722 0
49 -1627 -1723 0
49 -1627 -1724 0
49 -1628 -1722 0
49 -1628 -1723 0
49 -1628 -1724 0
49 -1629 -1723 0
49 -1629 -1724 0
49 -1630 -1724 0
49 -1635 1640 0
49 -1636 1641 0
49 -1637 1642 0
49 -1638 1643 0
49 -1639 1644 0
49 -1637 -1645 0
49 -1638 -1645 0
49 -1638 -1646 0
49 -1639 -1645 0
49 -1639 -1646 0
49 -1639 -1647 0
49 -1639 -1648 0
49 -1639 -1649 0
49 -1639 -1650 0
49 -1637 -1663 0
49 -1638 -1663 0
49 -1638 -1664 0
49 -1639 -1663 0
49 -1639 -1664 0
49 -1639 -1665 0
49 -1639 -1666 0
49 -1639 -1667 0
49 -1639 -1668 0
49 -1635 -1719 0
49 -1635 -1720 0
49 -1636 -1720 0
49 -1636 -1721 0
49 -1637 -1720 0
49 -1637 -1721 0
49 -1637 -1722 0
49 -1638 -1720 0
49 -1638 -1721 0
49 -1638 -1722 0
49 -1638 -1723 0
49 -1639 -1721 0
49 -1639 -1722 0
49 -1639 -1723 0
49 -1639 -1724 0
49 -1640 -1715 0
49 -1641 -1715 0
49 -1641 -1716 0
49 -1642 -1715 0
49 -1642 -1716 0
49 -1642 -1717 0
49 -1643 -1715 0
49 -1643 -1716 0
49 -1643 -1717 0
49 -1643 -1718 0
49 -1644 -1716 0
49 -1644 -1717 0
49 -1644 -1718 0
49 -1644 -1719 0
49 -1641 -1720 0
49 -1642 -1720 0
49 -1643 -1720 0
49 -1644 -1720 0
49 -1645 1654 0
49 -1646 1655 0
49 -1647 1656 0
49 -1648 1657 0
49 -1649 1658 0
49 -1650 1659 0
49 -1651 1660 0
49 -1652 1661 0
49 -1653 1662 0
49 -1645 -1663 0
49 -1646 -1664 0
49 -1647 -1665 0
49 -1648 -1666 0
49 -1649 -1667 0
49 -1650 -1668 0
49 -1651 -1671 0
49 -1652 -1672 0
49 -1653 -1673 0
49 -1649 -1674 0
49 -1650 -1674 0
49 -1650 -1675 0
49 -1651 -1674 0
49 -1651 -1675 0
49 -1651 -1676 0
49 -1651 -1677 0
49 -1651 -1678 0
49 -1652 -1674 0
49 -1652 -1675 0
49 -1652 -1676 0
49 -1652 -1677 0
49 -1652 -1678 0
49 -1652 -1679 0
49 -1653 -1674 0
49 -1653 -1675 0
49 -1653 -1676 0
49 -1653 -1677 0
49 -1653 -1678 0
49 -1653 -1679 0
49 -1653 -1680 0
49 -1645 -1722 0
49 -1645 -1723 0
49 -1645 -1724 0
49 -1646 -1723 0
49 -1646 -1724 0
49 -1647 -1724 0
49 -1654 -1668 0
49 -1654 -1669 0
49 -1654 -1670 0
49 -1654 -1671 0
49 -1654 -1672 0
49 -1654 -1673 0
49 -1655 -1669 0
49 -1655 -1670 0
49 -1655 -1671 0
49 -1655 -1672 0
49 -1655 -1673 0
49 -1656 -1670 0
49 -1656 -1671 0
49 -1656 -1672 0
49 -1656 -1673 0
49 -1657 -1671 0
49 -1657 -1672 0
49 -1657 -1673 0
49 -1658 -1672 0
49 -1658 -1673 0
49 -1659 -1673 0
49 -1654 -1674 0
49 -1655 -1675 0
49 -1656 -1676 0
49 -1657 -1677 0
49 -1658 -1678 0
49 -1659 -1679 0
49 -1660 -1682 0
49 -1661 -1683 0
49 -1662 -1684 0
49 -1663 1674 0
49 -1664 1675 0
49 -1665 1676 0
49 -1666 1677 0
49 -1667 1678 0
49 -1668 1679 0
49 -1669 1680 0
49 -1670 1681 0
49 -1671 1682 0
49 -1672 1683 0
49 -1673 1684 0
49 -1663 -1722 0
49 -1663 -1723 0
49 -1663 -1724 0
49 -1664 -1723 0
49 -1664 -1724 0
49 -1665 -1724 0
49 -1685 1689 0
49 -1686 1690 0
49 -1687 1691 0
49 -1688 1692 0
49 -1689 -1704 0
49 -1693 1694 0
49 -1695 1698 0
49 -1696 1699 0
49 -1697 1700 0
49 -1695 -1789 0
49 -1695 -1790 0
49 -1696 -1790 0
49 -1701 1705 0
49 -1702 1706 0
49 -1703 1707 0
49 -1704 1708 0
49 -1709 1712 0
49 -1710 1713 0
49 -1711 1714 0
49 -1710 -1749 0
49 -1711 -1749 0
49 -1711 -1750 0
49 -1709 -1774 0
49 -1709 -1849 0
49 -1709 -1850 0
49 -1710 -1850 0
49 -1713 -1745 0
49 -1714 -1745 0
49 -1714 -1746 0
49 -1715 1720 0
49 -1716 1721 0
49 -1717 1722 0
49 -1718 1723 0
49 -1719 1724 0
49 -1725 1726 0
49 -1727 1736 0
49 -1728 1737 0
49 -1729 1738 0
49 -1730 1739 0
49 -1731 1740 0
49 -1732 1741 0
49 -1733 1742 0
49 -1734 1743 0
49 -1735 1744 0
49 -1727 -1893 0
49 -1727 -1894 0
49 -1727 -1895 0
49 -1727 -1896 0
49 -1727 -1897 0
49 -1728 -1893 0
49 -1728 -1894 0
49 -1728 -1895 0
49 -1728 -1896 0
49 -1728 -1897 0
49 -1728 -1898 0
49 -1729 -1893 0
49 -1729 -1894 0
49 -1729 -1895 0
49 -1729 -1896 0
49 -1729 -1897 0
49 -1729 -1898 0
49 -1729 -1899 0
49 -1730 -1894 0
49 -1730 -1895 0
49 -1730 -1896 0
49 -1730 -1897 0
49 -1730 -1898 0
49 -1730 -1899 0
49 -1730 -1900 0
49 -1731 -1895 0
49 -1731 -1896 0
49 -1731 -1897 0
49 -1731 -1898 0
49 -1731 -1899 0
49 -1731 -1900 0
49 -1731 -1901 0
49 -1732 -1896 0
49 -1732 -1897 0
49 -1732 -1898 0
49 -1732 -1899 0
49 -1732 -1900 0
49 -1732 -1901 0
49 -1732 -1902 0
49 -1733 -1897 0
49 -1733 -1898 0
49 -1733 -1899 0
49 -1733 -1900 0
49 -1733 -1901 0
49 -1733 -1902 0
49 -1733 -1903 0
49 -1734 -1898 0
49 -1734 -1899 0
49 -1734 -1900 0
49 -1734 -1901 0
49 -1734 -1902 0
49 -1734 -1903 0
49 -1735 -1899 0
49 -1735 -1900 0
49 -1735 -1901 0
49 -1735 -1902 0
49 -1735 -1903 0
49 -1735 -1904 0
49 -1736 -1897 0
49 -1736 -1898 0
49 -1736 -1899 0
49 -1736 -1900 0
49 -1736 -1901 0
49 -1736 -1902 0
49 -1736 -1903 0
49 -1737 -1898 0
49 -1737 -1899 0
49 -1737 -1900 0
49 -1737 -1901 0
49 -1737 -1902 0
49 -1737 -1903 0
49 -1738 -1899 0
49 -1738 -1900 0
49 -1738 -1901 0
49 -1738 -1902 0
49 -1738 -1903 0
49 -1739 -1900 0
49 -1739 -1901 0
49 -1739 -1902 0
49 -1739 -1903 0
49 -1740 -1901 0
49 -1740 -1902 0
49 -1740 -1903 0
49 -1741 -1902 0
49 -1741 -1903 0
49 -1742 -1903 0
49 -1745 1749 0
49 -1746 1750 0
49 -1747 1751 0
49 -1748 1752 0
49 -1753 1756 0
49 -1754 1757 0
49 -1755 1758 0
49 -1753 -1913 0
49 -1753 -1914 0
49 -1754 -1914 0
49 -1759 1767 0
49 -1760 1768 0
49 -1761 1769 0
49 -1762 1770 0
49 -1763 1771 0
49 -1764 1772 0
49 -1765 1773 0
49 -1766 1774 0
49 -1775 1783 0
49 -1776 1784 0
49 -1777 1785 0
49 -1778 1786 0
49 -1779 1787 0
49 -1780 1788 0
49 -1781 1789 0
49 -1782 1790 0
49 -1788 -1888 0
49 -1789 -1888 0
49 -1789 -1889 0
49 -1790 -1888 0
49 -1790 -1889 0
49 -1790 -1890 0
49 -1791 1793 0
49 -1792 1794 0
49 -1792 -1871 0
49 -1794 -1873 0
49 -1795 1799 0
49 -1796 1800 0
49 -1797 1801 0
49 -1798 1802 0
49 -1803 1811 0
49 -1804 1812 0
49 -1805 1813 0
49 -1806 1814 0
49 -1807 1815 0
49 -1808 1816 0
49 -1809 1817 0
49 -1810 1818 0
49 -1803 -1819 0
49 -1803 -1820 0
49 -1803 -1821 0
49 -1803 -1822 0
49 -1804 -1819 0
49 -1804 -1820 0
49 -1804 -1821 0
49 -1804 -1822 0
49 -1804 -1823 0
49 -1805 -1819 0
49 -1805 -1820 0
49 -1805 -1821 0
49 -1805 -1822 0
49 -1805 -1823 0
49 -1805 -1824 0
49 -1806 -1819 0
49 -1806 -1820 0
49 -1806 -1821 0
49 -1806 -1822 0
49 -1806 -1823 0
49 -1806 -1824 0
49 -1806 -1825 0
49 -1807 -1820 0
49 -1807 -1821 0
49 -1807 -1822 0
49 -1807 -1823 0
49 -1807 -1824 0
49 -1807 -1825 0
49 -1807 -1826 0
49 -1808 -1821 0
49 -1808 -1822 0
49 -1808 -1823 0
49 -1808 -1824 0
49 -1808 -1825 0
49 -1808 -1826 0
49 -1809 -1822 0
49 -1809 -1823 0
49 -1809 -1824 0
49 -1809 -1825 0
49 -1809 -1826 0
49 -1810 -1823 0
49 -1810 -1824 0
49 -1810 -1825 0
49 -1810 -1826 0
49 -1804 -1827 0
49 -1805 -1827 0
49 -1805 -1828 0
49 -1806 -1827 0
49 -1806 -1828 0
49 -1806 -1829 0
49 -1807 -1827 0
49 -1807 -1828 0
49 -1807 -1829 0
49 -1807 -1830 0
49 -1808 -1827 0
49 -1808 -1828 0
49 -1808 -1829 0
49 -1808 -1830 0
49 -1808 -1831 0
49 -1809 -1827 0
49 -1809 -1828 0
49 -1809 -1829 0
49 -1809 -1830 0
49 -1809 -1831 0
49 -1809 -1832 0
49 -1810 -1827 0
49 -1810 -1828 0
49 -1810 -1829 0
49 -1810 -1830 0
49 -1810 -1831 0
49 -1810 -1832 0
49 -1810 -1833 0
49 -1803 -1848 0
49 -1803 -1849 0
49 -1803 -1850 0
49 -1804 -1849 0
49 -1804 -1850 0
49 -1805 -1850 0
49 -1811 -1826 0
49 -1811 -1827 0
49 -1811 -1828 0
49 -1811 -1829 0
49 -1811 -1830 0
49 -1812 -1827 0
49 -1812 -1828 0
49 -1812 -1829 0
49 -1812 -1830 0
49 -1812 -1831 0
49 -1813 -1827 0
49 -1813 -1828 0
49 -1813 -1829 0
49 -1813 -1830 0
49 -1813 -1831 0
49 -1813 -1832 0
49 -1814 -1827 0
49 -1814 -1828 0
49 -1814 -1829 0
49 -1814 -1830 0
49 -1814 -1831 0
49 -1814 -1832 0
49 -1814 -1833 0
49 -1815 -1828 0
49 -1815 -1829 0
49 -1815 -1830 0
49 -1815 -1831 0
49 -1815 -1832 0
49 -1815 -1833 0
49 -1815 -1834 0
49 -1816 -1829 0
49 -1816 -1830 0
49 -1816 -1831 0
49 -1816 -1832 0
49 -1816 -1833 0
49 -1816 -1834 0
49 -1817 -1830 0
49 -1817 -1831 0
49 -1817 -1832 0
49 -1817 -1833 0
49 -1817 -1834 0
49 -1818 -1831 0
49 -1818 -1832 0
49 -1818 -1833 0
49 -1818 -1834 0
49 -1819 1827 0
49 -1820 1828 0
49 -1821 1829 0
49 -1822 1830 0
49 -1823 1831 0
49 -1824 1832 0
49 -1825 1833 0
49 -1826 1834 0
49 -1819 -1845 0
49 -1819 -1846 0
49 -1819 -1847 0
49 -1819 -1848 0
49 -1819 -1849 0
49 -1819 -1850 0
49 -1820 -1846 0
49 -1820 -1847 0
49 -1820 -1848 0
49 -1820 -1849 0
49 -1820 -1850 0
49 -1821 -1847 0
49 -1821 -1848 0
49 -1821 -1849 0
49 -1821 -1850 0
49 -1822 -1848 0
49 -1822 -1849 0
49 -1822 -1850 0
49 -1823 -1850 0
49 -1835 1843 0
49 -1836 1844 0
49 -1837 1845 0
49 -1838 1846 0
49 -1839 1847 0
49 -1840 1848 0
49 -1841 1849 0
49 -1842 1850 0
49 -1851 1870 0
49 -1852 1861 0
49 -1853 1862 0
49 -1854 1863 0
49 -1855 1864 0
49 -1856 1865 0
49 -1857 1866 0
49 -1858 1867 0
49 -1859 1868 0
49 -1860 1869 0
49 -1871 1873 0
49 -1872 1874 0
49 -1871 -1882 0
49 -1873 -1878 0
49 -1875 1879 0
49 -1876 1880 0
49 -1877 1881 0
49 -1878 1882 0
49 -1882 -1888 0
49 -1883 1888 0
49 -1884 1889 0
49 -1885 1890 0
49 -1886 1891 0
49 -1887 1892 0
49 -1893 1904 0
49 -1894 1905 0
49 -1895 1906 0
49 -1896 1907 0
49 -1897 1908 0
49 -1898 1909 0
49 -1899 1910 0
49 -1900 1911 0
49 -1901 1912 0
49 -1902 1913 0
49 -1903 1914 0
49 -1915 1917 0
49 -1916 1918 0
49 -1919 1920 0
49 -1921 1930 0
49 -1922 1931 0
49 -1923 1932 0
49 -1924 1933 0
49 -1925 1934 0
49 -1926 1935 0
49 -1927 1936 0
49 -1928 1937 0
49 -1929 1938 0
49 -1939 1950 0
49 -1940 1951 0
49 -1941 1952 0
49 -1942 1953 0
49 -1943 1954 0
49 -1944 1955 0
49 -1945 1956 0
49 -1946 1957 0
49 -1947 1958 0
49 -1948 1959 0
49 -1949 1960 0
49 -1 4382 0
49 -2 4370 0
49 -3 4355 0
49 -4 4356 0
49 -5 4357 0
49 -6 4358 0
49 -7 4342 0
49 -8 4343 0
49 -9 4344 0
49 -10 4345 0
49 -11 4385 0
49 -12 4374 0
49 -13 4341 0
49 -14 4354 0
49 -15 4341 0
49 -16 4354 0
49 -17 4355 0
49 -18 4356 0
49 -19 4357 0
49 -20 4358 0
49 -21 4359 0
49 -22 4360 0
49 -23 4342 0
49 -24 4343 0
49 -25 4344 0
49 -26 4345 0
49 -27 4346 0
49 -28 4347 0
49 -29 4349 0
49 -30 4362 0
49 -31 4385 0
49 -32 4374 0
49 -33 4341 0
49 -34 4342 0
49 -35 4343 0
49 -36 4344 0
49 -37 4345 0
49 -38 4346 0
49 -39 4347 0
49 -40 4348 0
49 -41 4349 0
49 -42 4350 0
49 -43 4351 0
49 -44 4354 0
49 -45 4355 0
49 -46 4356 0
49 -47 4357 0
49 -48 4358 0
49 -49 4359 0
49 -50 4360 0
49 -51 4361 0
49 -52 4362 0
49 -53 4363 0
49 -54 4364 0
49 -55 4362 0
49 -56 4363 0
49 -57 4364 0
49 -58 4349 0
49 -59 4350 0
49 -60 4351 0
49 -61 4387 0
49 -62 4376 0
49 -63 4366 0
49 -64 4367 0
49 -65 4368 0
49 -66 4378 0
49 -67 4379 0
49 -68 4380 0
49 -69 4341 0
49 -70 4354 0
49 -71 4378 0
49 -72 4366 0
49 -73 4375 0
49 -74 4386 0
49 -75 4357 0
49 -76 4344 0
49 -77 4366 0
49 -78 4368 0
49 -79 4369 0
49 -80 4370 0
49 -81 4372 0
49 -82 4373 0
49 -83 4374 0
49 -84 4375 0
49 -85 4376 0
49 -86 4377 0
49 -87 4378 0
49 -88 4380 0
49 -89 4381 0
49 -90 4382 0
49 -91 4383 0
49 -92 4384 0
49 -93 4385 0
49 -94 4386 0
49 -95 4387 0
49 -96 4388 0
49 -97 4349 0
49 -98 4362 0
49 -99 4341 0
49 -100 4342 0
49 -101 4354 0
49 -102 4355 0
49 -103 4342 0
49 -104 4355 0
49 -105 4382 0
49 -106 4370 0
49 -107 4350 0
49 -108 4351 0
49 -109 4363 0
49 -110 4364 0
49 -111 4378 0
49 -112 4366 0
49 -113 4345 0
49 -114 4346 0
49 -115 4358 0
49 -116 4359 0
49 -117 4361 0
49 -118 4362 0
49 -119 4363 0
49 -120 4364 0
49 -121 4348 0
49 -122 4349 0
49 -123 4350 0
49 -124 4351 0
49 -125 4342 0
49 -126 4355 0
49 -127 4387 0
49 -128 4376 0
49 -129 4345 0
49 -130 4358 0
49 -131 4351 0
49 -132 4364 0
49 -133 4350 0
49 -134 4351 0
49 -135 4363 0
49 -136 4364 0
49 -137 4376 0
49 -138 4387 0
49 -139 4350 0
49 -140 4363 0
49 -141 4364 0
49 -142 4351 0
49 -143 4383 0
49 -144 4372 0
49 -145 4377 0
49 -146 4388 0
49 -147 4357 0
49 -148 4344 0
49 -149 4378 0
49 -150 4366 0
49 -151 4377 0
49 -152 4388 0
49 -153 4377 0
49 -154 4388 0
49 -155 4350 0
49 -156 4363 0
49 -157 4348 0
49 -158 4361 0
49 -159 4350 0
49 -160 4363 0
49 -161 4343 0
49 -162 4356 0
49 -163 4378 0
49 -164 4366 0
49 -165 4354 0
49 -166 4355 0
49 -167 4357 0
49 -168 4373 0
49 -169 4375 0
49 -170 4341 0
49 -171 4342 0
49 -172 4344 0
49 -173 4384 0
49 -174 4386 0
49 -175 4357 0
49 -176 4344 0
49 -177 4351 0
49 -178 4364 0
49 -179 4346 0
49 -180 4359 0
49 -181 4370 0
49 -182 4382 0
49 -183 4356 0
49 -184 4357 0
49 -185 4358 0
49 -186 4359 0
49 -187 4360 0
49 -188 4343 0
49 -189 4344 0
49 -190 4345 0
49 -191 4346 0
49 -192 4347 0
49 -193 4374 0
49 -194 4375 0
49 -195 4385 0
49 -196 4386 0
49 -197 4378 0
49 -198 4366 0
49 -199 4354 0
49 -200 4355 0
49 -201 4357 0
49 -202 4341 0
49 -203 4342 0
49 -204 4344 0
49 -205 4375 0
49 -206 4386 0
49 -207 4370 0
49 -208 4382 0
49 -209 4346 0
49 -210 4359 0
49 -211 4359 0
49 -212 4346 0
49 -213 4380 0
49 -214 4381 0
49 -215 4382 0
49 -216 4383 0
49 -217 4384 0
49 -218 4385 0
49 -219 4386 0
49 -220 4387 0
49 -221 4388 0
49 -222 4368 0
49 -223 4369 0
49 -224 4370 0
49 -225 4372 0
49 -226 4373 0
49 -227 4374 0
49 -228 4375 0
49 -229 4376 0
49 -230 4377 0
49 -231 4355 0
49 -232 4342 0
49 -233 4350 0
49 -234 4363 0
49 -235 4386 0
49 -236 4375 0
49 -237 4341 0
49 -238 4342 0
49 -239 4343 0
49 -240 4344 0
49 -241 4345 0
49 -242 4346 0
49 -243 4347 0
49 -244 4348 0
49 -245 4354 0
49 -246 4355 0
49 -247 4356 0
49 -248 4357 0
49 -249 4358 0
49 -250 4359 0
49 -251 4360 0
49 -252 4361 0
49 -253 4345 0
49 -254 4358 0
49 -255 4381 0
49 -256 4382 0
49 -257 4383 0
49 -258 4384 0
49 -259 4385 0
49 -260 4386 0
49 -261 4387 0
49 -262 4388 0
49 -263 4369 0
49 -264 4370 0
49 -265 4372 0
49 -266 4373 0
49 -267 4374 0
49 -268 4375 0
49 -269 4376 0
49 -270 4377 0
49 -271 4366 0
49 -272 4367 0
49 -273 4378 0
49 -274 4379 0
49 -275 4386 0
49 -276 4375 0
49 -277 4378 0
49 -278 4366 0
49 -279 4342 0
49 -280 4343 0
49 -281 4344 0
49 -282 4355 0
49 -283 4356 0
49 -284 4357 0
49 -285 4358 0
49 -286 4345 0
49 -287 4387 0
49 -288 4388 0
49 -289 4376 0
49 -290 4377 0
49 -291 4345 0
49 -292 4358 0
49 -293 4345 0
49 -294 4358 0
49 -295 4373 0
49 -296 4384 0
49 -297 4388 0
49 -298 4377 0
49 -299 4377 0
49 -300 4388 0
49 -301 4364 0
49 -302 4351 0
49 -303 4384 0
49 -304 4373 0
49 -305 4366 0
49 -306 4367 0
49 -307 4368 0
49 -308 4378 0
49 -309 4379 0
49 -310 4380 0
49 -311 4374 0
49 -312 4385 0
49 -313 4352 0
49 -314 4365 0
49 -315 4377 0
49 -316 4388 0
49 -317 4342 0
49 -318 4355 0
49 -319 4376 0
49 -320 4387 0
49 -321 4363 0
49 -322 4350 0
49 -323 4343 0
49 -324 4356 0
49 -325 4369 0
49 -326 4381 0
49 -327 4388 0
49 -328 4377 0
49 -329 4364 0
49 -330 4351 0
49 -331 4382 0
49 -332 4370 0
49 -333 4370 0
49 -334 4372 0
49 -335 4382 0
49 -336 4383 0
49 -337 4378 0
49 -338 4379 0
49 -339 4366 0
49 -340 4367 0
49 -341 4354 0
49 -342 4355 0
49 -343 4356 0
49 -344 4357 0
49 -345 4358 0
49 -346 4341 0
49 -347 4342 0
49 -348 4343 0
49 -349 4344 0
49 -350 4345 0
49 -351 4364 0
49 -352 4351 0
49 -353 4354 0
49 -354 4341 0
49 -355 4351 0
49 -356 4364 0
49 -357 4351 0
49 -358 4364 0
49 -359 4363 0
49 -360 4350 0
49 -361 4361 0
49 -362 4362 0
49 -363 4348 0
49 -364 4349 0
49 -365 4385 0
49 -366 4374 0
49 -367 4388 0
49 -368 4377 0
49 -369 4374 0
49 -370 4385 0
49 -371 4386 0
49 -372 4387 0
49 -373 4388 0
49 -374 4375 0
49 -375 4376 0
49 -376 4377 0
49 -377 4375 0
49 -378 4376 0
49 -379 4386 0
49 -380 4387 0
49 -381 4376 0
49 -382 4387 0
49 -383 4364 0
49 -384 4351 0
49 -385 4348 0
49 -386 4349 0
49 -387 4350 0
49 -388 4351 0
49 -389 4361 0
49 -390 4362 0
49 -391 4363 0
49 -392 4364 0
49 -393 4369 0
49 -394 4381 0
49 -395 4342 0
49 -396 4343 0
49 -397 4344 0
49 -398 4345 0
49 -399 4355 0
49 -400 4356 0
49 -401 4357 0
49 -402 4358 0
49 -403 4342 0
49 -404 4343 0
49 -405 4355 0
49 -406 4356 0
49 -407 4344 0
49 -408 4357 0
49 -409 4367 0
49 -410 4368 0
49 -411 4369 0
49 -412 4370 0
49 -413 4372 0
49 -414 4373 0
49 -415 4374 0
49 -416 4375 0
49 -417 4376 0
49 -418 4387 0
49 -419 4376 0
49 -420 4379 0
49 -421 4380 0
49 -422 4381 0
49 -423 4382 0
49 -424 4383 0
49 -425 4384 0
49 -426 4385 0
49 -427 4386 0
49 -428 4387 0
49 -429 4356 0
49 -430 4343 0
49 -431 4355 0
49 -432 4356 0
49 -433 4357 0
49 -434 4358 0
49 -435 4359 0
49 -436 4360 0
49 -437 4361 0
49 -438 4362 0
49 -439 4363 0
49 -440 4342 0
49 -441 4343 0
49 -442 4344 0
49 -443 4345 0
49 -444 4346 0
49 -445 4347 0
49 -446 4348 0
49 -447 4349 0
49 -448 4350 0
49 -449 4373 0
49 -450 4384 0
49 -451 4362 0
49 -452 4349 0
49 -453 4367 0
49 -454 4379 0
49 -455 4386 0
49 -456 4375 0
49 -457 4356 0
49 -458 4343 0
49 -459 4385 0
49 -460 4374 0
49 -461 4380 0
49 -462 4381 0
49 -463 4368 0
49 -464 4369 0
49 -465 4387 0
49 -466 4376 0
49 -467 4376 0
49 -468 4387 0
49 -469 4342 0
49 -470 4343 0
49 -471 4355 0
49 -472 4356 0
49 -473 4361 0
49 -474 4362 0
49 -475 4348 0
49 -476 4349 0
49 -477 4360 0
49 -478 4347 0
49 -479 4367 0
49 -480 4379 0
49 -481 4354 0
49 -482 4355 0
49 -483 4356 0
49 -484 4357 0
49 -485 4341 0
49 -486 4342 0
49 -487 4343 0
49 -488 4344 0
49 -489 4381 0
49 -490 4369 0
49 -491 4349 0
49 -492 4362 0
49 -493 4387 0
49 -494 4376 0
49 -495 4362 0
49 -496 4349 0
49 -497 4381 0
49 -498 4382 0
49 -499 4369 0
49 -500 4370 0
49 -501 4368 0
49 -502 4380 0
49 -503 4356 0
49 -504 4343 0
49 -505 4369 0
49 -506 4381 0
49 -507 4355 0
49 -508 4356 0
49 -509 4357 0
49 -510 4358 0
49 -511 4359 0
49 -512 4360 0
49 -513 4361 0
49 -514 4362 0
49 -515 4363 0
49 -516 4342 0
49 -517 4343 0
49 -518 4344 0
49 -519 4345 0
49 -520 4346 0
49 -521 4347 0
49 -522 4348 0
49 -523 4349 0
49 -524 4350 0
49 -525 4370 0
49 -526 4372 0
49 -527 4373 0
49 -528 4374 0
49 -529 4375 0
49 -530 4376 0
49 -531 4382 0
49 -532 4383 0
49 -533 4384 0
49 -534 4385 0
49 -535 4386 0
49 -536 4387 0
49 -537 4361 0
49 -538 4362 0
49 -539 4363 0
49 -540 4348 0
49 -541 4349 0
49 -542 4350 0
49 -543 4368 0
49 -544 4369 0
49 -545 4370 0
49 -546 4372 0
49 -547 4373 0
49 -548 4374 0
49 -549 4375 0
49 -550 4376 0
49 -551 4380 0
49 -552 4381 0
49 -553 4382 0
49 -554 4383 0
49 -555 4384 0
49 -556 4385 0
49 -557 4386 0
49 -558 4387 0
49 -559 4380 0
49 -560 4368 0
49 -561 4360 0
49 -562 4347 0
49 -563 4348 0
49 -564 4361 0
49 -565 4368 0
49 -566 4380 0
49 -567 4385 0
49 -568 4374 0
49 -569 4379 0
49 -570 4367 0
49 -571 4387 0
49 -572 4376 0
49 -573 4351 0
49 -574 4364 0
49 -575 4378 0
49 -576 4366 0
49 -577 4380 0
49 -578 4381 0
49 -579 4382 0
49 -580 4383 0
49 -581 4384 0
49 -582 4385 0
49 -583 4386 0
49 -584 4387 0
49 -585 4368 0
49 -586 4369 0
49 -587 4370 0
49 -588 4372 0
49 -589 4373 0
49 -590 4374 0
49 -591 4375 0
49 -592 4376 0
49 -593 4343 0
49 -594 4356 0
49 -595 4361 0
49 -596 4348 0
49 -597 4373 0
49 -598 4374 0
49 -599 4375 0
49 -600 4376 0
49 -601 4384 0
49 -602 4385 0
49 -603 4386 0
49 -604 4387 0
49 -605 4355 0
49 -606 4356 0
49 -607 4342 0
49 -608 4343 0
49 -609 4349 0
49 -610 4350 0
49 -611 4362 0
49 -612 4363 0
49 -613 4367 0
49 -614 4368 0
49 -615 4369 0
49 -616 4370 0
49 -617 4379 0
49 -618 4380 0
49 -619 4381 0
49 -620 4382 0
49 -621 4354 0
49 -622 4355 0
49 -623 4356 0
49 -624 4357 0
49 -625 4358 0
49 -626 4341 0
49 -627 4342 0
49 -628 4343 0
49 -629 4344 0
49 -630 4345 0
49 -631 4387 0
49 -632 4376 0
49 -633 4369 0
49 -634 4381 0
49 -635 4376 0
49 -636 4387 0
49 -637 4372 0
49 -638 4383 0
49 -639 4376 0
49 -640 4387 0
49 -641 4378 0
49 -642 4379 0
49 -643 4380 0
49 -644 4381 0
49 -645 4382 0
49 -646 4385 0
49 -647 4386 0
49 -648 4387 0
49 -649 4388 0
49 -650 4366 0
49 -651 4367 0
49 -652 4368 0
49 -653 4369 0
49 -654 4370 0
49 -655 4374 0
49 -656 4375 0
49 -657 4376 0
49 -658 4377 0
49 -659 4374 0
49 -660 4375 0
49 -661 4376 0
49 -662 4385 0
49 -663 4386 0
49 -664 4387 0
49 -665 4376 0
49 -666 4387 0
49 -667 4379 0
49 -668 4380 0
49 -669 4367 0
49 -670 4368 0
49 -671 4341 0
49 -672 4342 0
49 -673 4343 0
49 -674 4344 0
49 -675 4345 0
49 -676 4354 0
49 -677 4355 0
49 -678 4356 0
49 -679 4357 0
49 -680 4358 0
49 -681 4363 0
49 -682 4350 0
49 -683 4349 0
49 -684 4362 0
49 -685 4355 0
49 -686 4356 0
49 -687 4357 0
49 -688 4358 0
49 -689 4359 0
49 -690 4360 0
49 -691 4361 0
49 -692 4362 0
49 -693 4363 0
49 -694 4342 0
49 -695 4343 0
49 -696 4344 0
49 -697 4345 0
49 -698 4346 0
49 -699 4347 0
49 -700 4348 0
49 -701 4349 0
49 -702 4350 0
49 -703 4361 0
49 -704 4362 0
49 -705 4363 0
49 -706 4348 0
49 -707 4349 0
49 -708 4350 0
49 -709 4383 0
49 -710 4372 0
49 -711 4357 0
49 -712 4344 0
49 -713 4362 0
49 -714 4349 0
49 -715 4354 0
49 -716 4355 0
49 -717 4356 0
49 -718 4357 0
49 -719 4358 0
49 -720 4359 0
49 -721 4360 0
49 -722 4361 0
49 -723 4362 0
49 -724 4363 0
49 -725 4341 0
49 -726 4342 0
49 -727 4343 0
49 -728 4344 0
49 -729 4345 0
49 -730 4346 0
49 -731 4347 0
49 -732 4348 0
49 -733 4349 0
49 -734 4350 0
49 -735 4366 0
49 -736 4367 0
49 -737 4368 0
49 -738 4369 0
49 -739 4370 0
49 -740 4372 0
49 -741 4373 0
49 -742 4374 0
49 -743 4378 0
49 -744 4379 0
49 -745 4380 0
49 -746 4381 0
49 -747 4382 0
49 -748 4383 0
49 -749 4384 0
49 -750 4385 0
49 -751 4382 0
49 -752 4370 0
49 -753 4387 0
49 -754 4388 0
49 -755 4376 0
49 -756 4377 0
49 -757 4360 0
49 -758 4347 0
49 -759 4366 0
49 -760 4378 0
49 -761 4360 0
49 -762 4347 0
49 -763 4358 0
49 -764 4345 0
49 -765 4341 0
49 -766 4342 0
49 -767 4343 0
49 -768 4344 0
49 -769 4354 0
49 -770 4355 0
49 -771 4356 0
49 -772 4357 0
49 -773 4351 0
49 -774 4364 0
49 -775 4379 0
49 -776 4367 0
49 -777 4363 0
49 -778 4350 0
49 -779 4369 0
49 -780 4381 0
49 -781 4355 0
49 -782 4356 0
49 -783 4357 0
49 -784 4342 0
49 -785 4343 0
49 -786 4344 0
49 -787 4362 0
49 -788 4349 0
49 -789 4350 0
49 -790 4363 0
49 -791 4381 0
49 -792 4369 0
49 -793 4360 0
49 -794 4347 0
49 -795 4385 0
49 -796 4386 0
49 -797 4387 0
49 -798 4374 0
49 -799 4375 0
49 -800 4376 0
49 -801 4342 0
49 -802 4343 0
49 -803 4355 0
49 -804 4356 0
49 -805 4367 0
49 -806 4379 0
49 -807 4383 0
49 -808 4372 0
49 -809 4388 0
49 -810 4377 0
49 -811 4367 0
49 -812 4368 0
49 -813 4379 0
49 -814 4380 0
49 -815 4377 0
49 -816 4388 0
49 -817 4380 0
49 -818 4381 0
49 -819 4368 0
49 -820 4369 0
49 -821 4386 0
49 -822 4375 0
49 -823 4364 0
49 -824 4351 0
49 -825 4378 0
49 -826 4379 0
49 -827 4380 0
49 -828 4381 0
49 -829 4382 0
49 -830 4383 0
49 -831 4384 0
49 -832 4385 0
49 -833 4386 0
49 -834 4387 0
49 -835 4388 0
49 -836 4366 0
49 -837 4367 0
49 -838 4368 0
49 -839 4369 0
49 -840 4370 0
49 -841 4372 0
49 -842 4373 0
49 -843 4374 0
49 -844 4375 0
49 -845 4376 0
49 -846 4377 0
49 -847 4386 0
49 -848 4375 0
49 -849 4349 0
49 -850 4362 0
49 -851 4361 0
49 -852 4362 0
49 -853 4363 0
49 -854 4348 0
49 -855 4349 0
49 -856 4350 0
49 -857 4374 0
49 -858 4375 0
49 -859 4385 0
49 -860 4386 0
49 -861 4376 0
49 -862 4387 0
49 -863 4387 0
49 -864 4376 0
49 -865 4348 0
49 -866 4361 0
49 -867 4380 0
49 -868 4368 0
49 -869 4375 0
49 -870 4376 0
49 -871 4386 0
49 -872 4387 0
49 -873 4370 0
49 -874 4372 0
49 -875 4373 0
49 -876 4374 0
49 -877 4375 0
49 -878 4376 0
49 -879 4377 0
49 -880 4382 0
49 -881 4383 0
49 -882 4384 0
49 -883 4385 0
49 -884 4386 0
49 -885 4387 0
49 -886 4388 0
49 -887 4349 0
49 -888 4350 0
49 -889 4362 0
49 -890 4363 0
49 -891 4376 0
49 -892 4387 0
49 -893 4370 0
49 -894 4372 0
49 -895 4382 0
49 -896 4383 0
49 -897 4342 0
49 -898 4355 0
49 -899 4350 0
49 -900 4363 0
49 -901 4387 0
49 -902 4376 0
49 -903 4369 0
49 -904 4370 0
49 -905 4372 0
49 -906 4373 0
49 -907 4381 0
49 -908 4382 0
49 -909 4383 0
49 -910 4384 0
49 -911 4362 0
49 -912 4349 0
49 -913 4355 0
49 -914 4342 0
49 -915 4379 0
49 -916 4367 0
49 -917 4342 0
49 -918 4343 0
49 -919 4355 0
49 -920 4356 0
49 -921 4367 0
49 -922 4379 0
49 -923 4349 0
49 -924 4362 0
49 -925 4355 0
49 -926 4342 0
49 -927 4358 0
49 -928 4359 0
49 -929 4360 0
49 -930 4361 0
49 -931 4345 0
49 -932 4346 0
49 -933 4347 0
49 -934 4348 0
49 -935 4343 0
49 -936 4356 0
49 -937 4346 0
49 -938 4359 0
49 -939 4354 0
49 -940 4355 0
49 -941 4356 0
49 -942 4357 0
49 -943 4358 0
49 -944 4359 0
49 -945 4360 0
49 -946 4361 0
49 -947 4341 0
49 -948 4342 0
49 -949 4343 0
49 -950 4344 0
49 -951 4345 0
49 -952 4346 0
49 -953 4347 0
49 -954 4348 0
49 -955 4370 0
49 -956 4372 0
49 -957 4373 0
49 -958 4374 0
49 -959 4382 0
49 -960 4383 0
49 -961 4384 0
49 -962 4385 0
49 -963 4368 0
49 -964 4369 0
49 -965 4370 0
49 -966 4380 0
49 -967 4381 0
49 -968 4382 0
49 -969 4341 0
49 -970 4342 0
49 -971 4343 0
49 -972 4344 0
49 -973 4345 0
49 -974 4346 0
49 -975 4347 0
49 -976 4348 0
49 -977 4349 0
49 -978 4350 0
49 -979 4351 0
49 -980 4366 0
49 -981 4367 0
49 -982 4368 0
49 -983 4369 0
49 -984 4370 0
49 -985 4372 0
49 -986 4373 0
49 -987 4374 0
49 -988 4375 0
49 -989 4376 0
49 -990 4377 0
49 -991 4378 0
49 -992 4379 0
49 -993 4380 0
49 -994 4381 0
49 -995 4382 0
49 -996 4383 0
49 -997 4384 0
49 -998 4385 0
49 -999 4386 0
49 -1000 4387 0
49 -1001 4388 0
49 -1002 4354 0
49 -1003 4355 0
49 -1004 4356 0
49 -1005 4357 0
49 -1006 4358 0
49 -1007 4359 0
49 -1008 4360 0
49 -1009 4361 0
49 -1010 4362 0
49 -1011 4363 0
49 -1012 4364 0
49 -1013 4366 0
49 -1014 4367 0
49 -1015 4368 0
49 -1016 4369 0
49 -1017 4370 0
49 -1018 4372 0
49 -1019 4373 0
49 -1020 4374 0
49 -1021 4375 0
49 -1022 4376 0
49 -1023 4377 0
49 -1024 4378 0
49 -1025 4379 0
49 -1026 4380 0
49 -1027 4381 0
49 -1028 4382 0
49 -1029 4383 0
49 -1030 4384 0
49 -1031 4385 0
49 -1032 4386 0
49 -1033 4387 0
49 -1034 4388 0
49 -1035 4360 0
49 -1036 4347 0
49 -1037 4341 0
49 -1038 4354 0
49 -1039 4364 0
49 -1040 4351 0
49 -1041 4362 0
49 -1042 4364 0
49 -1043 4349 0
49 -1044 4351 0
49 -1045 4368 0
49 -1046 4369 0
49 -1047 4370 0
49 -1048 4372 0
49 -1049 4373 0
49 -1050 4374 0
49 -1051 4375 0
49 -1052 4376 0
49 -1053 4380 0
49 -1054 4381 0
49 -1055 4382 0
49 -1056 4383 0
49 -1057 4384 0
49 -1058 4385 0
49 -1059 4386 0
49 -1060 4387 0
49 -1061 4345 0
49 -1062 4358 0
49 -1063 4350 0
49 -1064 4368 0
49 -1065 4369 0
49 -1066 4370 0
49 -1067 4372 0
49 -1068 4373 0
49 -1069 4374 0
49 -1070 4375 0
49 -1071 4376 0
49 -1072 4379 0
49 -1073 4380 0
49 -1074 4381 0
49 -1075 4382 0
49 -1076 4383 0
49 -1077 4384 0
49 -1078 4385 0
49 -1079 4386 0
49 -1080 4387 0
49 -1081 4363 0
49 -1082 4367 0
49 -1083 4368 0
49 -1084 4369 0
49 -1085 4370 0
49 -1086 4372 0
49 -1087 4373 0
49 -1088 4374 0
49 -1089 4375 0
49 -1090 4376 0
49 -1091 4380 0
49 -1092 4381 0
49 -1093 4382 0
49 -1094 4383 0
49 -1095 4384 0
49 -1096 4385 0
49 -1097 4386 0
49 -1098 4387 0
49 -1099 4342 0
49 -1100 4343 0
49 -1101 4344 0
49 -1102 4345 0
49 -1103 4346 0
49 -1104 4347 0
49 -1105 4348 0
49 -1106 4349 0
49 -1107 4355 0
49 -1108 4356 0
49 -1109 4357 0
49 -1110 4358 0
49 -1111 4359 0
49 -1112 4360 0
49 -1113 4361 0
49 -1114 4362 0
49 -1115 4363 0
49 -1116 4367 0
49 -1117 4368 0
49 -1118 4369 0
49 -1119 4370 0
49 -1120 4372 0
49 -1121 4373 0
49 -1122 4374 0
49 -1123 4375 0
49 -1124 4376 0
49 -1125 4342 0
49 -1126 4343 0
49 -1127 4344 0
49 -1128 4345 0
49 -1129 4346 0
49 -1130 4347 0
49 -1131 4348 0
49 -1132 4349 0
49 -1133 4350 0
49 -1134 4355 0
49 -1135 4356 0
49 -1136 4357 0
49 -1137 4358 0
49 -1138 4359 0
49 -1139 4360 0
49 -1140 4361 0
49 -1141 4362 0
49 -1142 4379 0
49 -1143 4380 0
49 -1144 4381 0
49 -1145 4382 0
49 -1146 4383 0
49 -1147 4384 0
49 -1148 4385 0
49 -1149 4386 0
49 -1150 4387 0
49 -1151 4342 0
49 -1152 4343 0
49 -1153 4344 0
49 -1154 4345 0
49 -1155 4346 0
49 -1156 4347 0
49 -1157 4348 0
49 -1158 4349 0
49 -1159 4350 0
49 -1160 4355 0
49 -1161 4356 0
49 -1162 4357 0
49 -1163 4358 0
49 -1164 4359 0
49 -1165 4360 0
49 -1166 4361 0
49 -1167 4362 0
49 -1168 4379 0
49 -1169 4380 0
49 -1170 4342 0
49 -1171 4343 0
49 -1172 4344 0
49 -1173 4345 0
49 -1174 4346 0
49 -1175 4347 0
49 -1176 4348 0
49 -1177 4349 0
49 -1178 4355 0
49 -1179 4356 0
49 -1180 4357 0
49 -1181 4358 0
49 -1182 4359 0
49 -1183 4360 0
49 -1184 4361 0
49 -1185 4362 0
49 -1186 4363 0
49 -1187 4367 0
49 -1188 4368 0
49 -1189 4373 0
49 -1190 4384 0
49 -1191 4342 0
49 -1192 4343 0
49 -1193 4344 0
49 -1194 4345 0
49 -1195 4346 0
49 -1196 4347 0
49 -1197 4348 0
49 -1198 4349 0
49 -1199 4355 0
49 -1200 4356 0
49 -1201 4357 0
49 -1202 4358 0
49 -1203 4359 0
49 -1204 4360 0
49 -1205 4361 0
49 -1206 4362 0
49 -1207 4374 0
49 -1208 4375 0
49 -1209 4376 0
49 -1210 4379 0
49 -1211 4380 0
49 -1212 4381 0
49 -1213 4382 0
49 -1214 4383 0
49 -1215 4384 0
49 -1216 4385 0
49 -1217 4386 0
49 -1218 4387 0
49 -1219 4367 0
49 -1220 4368 0
49 -1221 4369 0
49 -1222 4370 0
49 -1223 4372 0
49 -1224 4373 0
49 -1225 4374 0
49 -1226 4375 0
49 -1227 4376 0
49 -1228 4385 0
49 -1229 4386 0
49 -1230 4387 0
49 -1231 4342 0
49 -1232 4343 0
49 -1233 4344 0
49 -1234 4345 0
49 -1235 4346 0
49 -1236 4347 0
49 -1237 4348 0
49 -1238 4355 0
49 -1239 4356 0
49 -1240 4357 0
49 -1241 4358 0
49 -1242 4359 0
49 -1243 4360 0
49 -1244 4361 0
49 -1245 4373 0
49 -1246 4384 0
49 -1247 4347 0
49 -1248 4360 0
49 -1249 4380 0
49 -1250 4381 0
49 -1251 4382 0
49 -1252 4383 0
49 -1253 4368 0
49 -1254 4369 0
49 -1255 4370 0
49 -1256 4372 0
49 -1257 4343 0
49 -1258 4344 0
49 -1259 4345 0
49 -1260 4356 0
49 -1261 4357 0
49 -1262 4358 0
49 -1263 4351 0
49 -1264 4364 0
49 -1265 4345 0
49 -1266 4358 0
49 -1267 4345 0
49 -1268 4358 0
49 -1269 4382 0
49 -1270 4370 0
49 -1271 4364 0
49 -1272 4351 0
49 -1273 4388 0
49 -1274 4377 0
49 -1275 4384 0
49 -1276 4385 0
49 -1277 4386 0
49 -1278 4387 0
49 -1279 4373 0
49 -1280 4374 0
49 -1281 4375 0
49 -1282 4376 0
49 -1283 4376 0
49 -1284 4387 0
49 -1285 4376 0
49 -1286 4387 0
49 -1287 4383 0
49 -1288 4384 0
49 -1289 4385 0
49 -1290 4386 0
49 -1291 4372 0
49 -1292 4373 0
49 -1293 4374 0
49 -1294 4375 0
49 -1295 4370 0
49 -1296 4372 0
49 -1297 4373 0
49 -1298 4374 0
49 -1299 4375 0
49 -1300 4376 0
49 -1301 4382 0
49 -1302 4383 0
49 -1303 4384 0
49 -1304 4385 0
49 -1305 4386 0
49 -1306 4387 0
49 -1307 4355 0
49 -1308 4356 0
49 -1309 4357 0
49 -1310 4358 0
49 -1311 4342 0
49 -1312 4343 0
49 -1313 4344 0
49 -1314 4345 0
49 -1315 4379 0
49 -1316 4367 0
49 -1317 4388 0
49 -1318 4377 0
49 -1319 4342 0
49 -1320 4343 0
49 -1321 4355 0
49 -1322 4356 0
49 -1323 4342 0
49 -1324 4343 0
49 -1325 4344 0
49 -1326 4345 0
49 -1327 4355 0
49 -1328 4356 0
49 -1329 4357 0
49 -1330 4358 0
49 -1331 4382 0
49 -1332 4383 0
49 -1333 4370 0
49 -1334 4372 0
49 -1335 4355 0
49 -1336 4356 0
49 -1337 4357 0
49 -1338 4342 0
49 -1339 4343 0
49 -1340 4344 0
49 -1341 4348 0
49 -1342 4349 0
49 -1343 4350 0
49 -1344 4361 0
49 -1345 4362 0
49 -1346 4363 0
49 -1347 4372 0
49 -1348 4373 0
49 -1349 4374 0
49 -1350 4375 0
49 -1351 4376 0
49 -1352 4383 0
49 -1353 4384 0
49 -1354 4385 0
49 -1355 4386 0
49 -1356 4387 0
49 -1357 4367 0
49 -1358 4368 0
49 -1359 4379 0
49 -1360 4380 0
49 -1361 4373 0
49 -1362 4374 0
49 -1363 4375 0
49 -1364 4376 0
49 -1365 4384 0
49 -1366 4385 0
49 -1367 4386 0
49 -1368 4387 0
49 -1369 4355 0
49 -1370 4356 0
49 -1371 4357 0
49 -1372 4358 0
49 -1373 4342 0
49 -1374 4343 0
49 -1375 4344 0
49 -1376 4345 0
49 -1377 4342 0
49 -1378 4343 0
49 -1379 4355 0
49 -1380 4356 0
49 -1381 4375 0
49 -1382 4376 0
49 -1383 4386 0
49 -1384 4387 0
49 -1385 4378 0
49 -1386 4379 0
49 -1387 4366 0
49 -1388 4367 0
49 -1389 4359 0
49 -1390 4346 0
49 -1391 4379 0
49 -1392 4380 0
49 -1393 4367 0
49 -1394 4368 0
49 -1395 4364 0
49 -1396 4351 0
49 -1397 4378 0
49 -1398 4379 0
49 -1399 4380 0
49 -1400 4366 0
49 -1401 4367 0
49 -1402 4368 0
49 -1403 4355 0
49 -1404 4356 0
49 -1405 4342 0
49 -1406 4343 0
49 -1407 4355 0
49 -1408 4356 0
49 -1409 4342 0
49 -1410 4343 0
49 -1411 4345 0
49 -1412 4358 0
49 -1413 4342 0
49 -1414 4343 0
49 -1415 4344 0
49 -1416 4355 0
49 -1417 4356 0
49 -1418 4357 0
49 -1419 4383 0
49 -1420 4384 0
49 -1421 4385 0
49 -1422 4386 0
49 -1423 4387 0
49 -1424 4372 0
49 -1425 4373 0
49 -1426 4374 0
49 -1427 4375 0
49 -1428 4376 0
49 -1429 4355 0
49 -1430 4356 0
49 -1431 4357 0
49 -1432 4358 0
49 -1433 4360 0
49 -1434 4361 0
49 -1435 4362 0
49 -1436 4363 0
49 -1437 4342 0
49 -1438 4343 0
49 -1439 4344 0
49 -1440 4345 0
49 -1441 4347 0
49 -1442 4348 0
49 -1443 4349 0
49 -1444 4350 0
49 -1445 4373 0
49 -1446 4374 0
49 -1447 4375 0
49 -1448 4376 0
49 -1449 4384 0
49 -1450 4385 0
49 -1451 4386 0
49 -1452 4387 0
49 -1453 4379 0
49 -1454 4380 0
49 -1455 4381 0
49 -1456 4382 0
49 -1457 4367 0
49 -1458 4368 0
49 -1459 4369 0
49 -1460 4370 0
49 -1461 4355 0
49 -1462 4356 0
49 -1463 4362 0
49 -1464 4363 0
49 -1465 4342 0
49 -1466 4343 0
49 -1467 4349 0
49 -1468 4350 0
49 -1469 4381 0
49 -1470 4382 0
49 -1471 4369 0
49 -1472 4370 0
49 -1473 4386 0
49 -1474 4387 0
49 -1475 4375 0
49 -1476 4376 0
49 -1477 4374 0
49 -1478 4375 0
49 -1479 4376 0
49 -1480 4385 0
49 -1481 4386 0
49 -1482 4387 0
49 -1483 4367 0
49 -1484 4368 0
49 -1485 4369 0
49 -1486 4379 0
49 -1487 4380 0
49 -1488 4381 0
49 -1489 4348 0
49 -1490 4349 0
49 -1491 4350 0
49 -1492 4361 0
49 -1493 4362 0
49 -1494 4363 0
49 -1495 4354 0
49 -1496 4355 0
49 -1497 4356 0
49 -1498 4341 0
49 -1499 4342 0
49 -1500 4343 0
49 -1501 4370 0
49 -1502 4372 0
49 -1503 4373 0
49 -1504 4374 0
49 -1505 4375 0
49 -1506 4376 0
49 -1507 4382 0
49 -1508 4383 0
49 -1509 4384 0
49 -1510 4385 0
49 -1511 4386 0
49 -1512 4387 0
49 -1513 4350 0
49 -1514 4363 0
49 -1515 4370 0
49 -1516 4372 0
49 -1517 4373 0
49 -1518 4374 0
49 -1519 4375 0
49 -1520 4376 0
49 -1521 4382 0
49 -1522 4383 0
49 -1523 4384 0
49 -1524 4385 0
49 -1525 4386 0
49 -1526 4387 0
49 -1527 4359 0
49 -1528 4360 0
49 -1529 4346 0
49 -1530 4347 0
49 -1531 4379 0
49 -1532 4380 0
49 -1533 4367 0
49 -1534 4368 0
49 -1535 4384 0
49 -1536 4385 0
49 -1537 4386 0
49 -1538 4387 0
49 -1539 4373 0
49 -1540 4374 0
49 -1541 4375 0
49 -1542 4376 0
49 -1543 4355 0
49 -1544 4356 0
49 -1545 4357 0
49 -1546 4358 0
49 -1547 4359 0
49 -1548 4342 0
49 -1549 4343 0
49 -1550 4344 0
49 -1551 4345 0
49 -1552 4346 0
49 -1553 4374 0
49 -1554 4385 0
49 -1555 4341 0
49 -1556 4354 0
49 -1557 4354 0
49 -1558 4341 0
49 -1559 4369 0
49 -1560 4370 0
49 -1561 4372 0
49 -1562 4373 0
49 -1563 4374 0
49 -1564 4375 0
49 -1565 4376 0
49 -1566 4377 0
49 -1567 4381 0
49 -1568 4382 0
49 -1569 4383 0
49 -1570 4384 0
49 -1571 4385 0
49 -1572 4386 0
49 -1573 4387 0
49 -1574 4388 0
49 -1575 4348 0
49 -1576 4349 0
49 -1577 4350 0
49 -1578 4361 0
49 -1579 4362 0
49 -1580 4363 0
49 -1581 4368 0
49 -1582 4369 0
49 -1583 4370 0
49 -1584 4372 0
49 -1585 4373 0
49 -1586 4374 0
49 -1587 4375 0
49 -1588 4376 0
49 -1589 4380 0
49 -1590 4381 0
49 -1591 4382 0
49 -1592 4383 0
49 -1593 4384 0
49 -1594 4385 0
49 -1595 4386 0
49 -1596 4387 0
49 -1597 4367 0
49 -1598 4368 0
49 -1599 4369 0
49 -1600 4370 0
49 -1601 4377 0
49 -1602 4379 0
49 -1603 4380 0
49 -1604 4381 0
49 -1605 4382 0
49 -1606 4388 0
49 -1607 4354 0
49 -1608 4355 0
49 -1609 4356 0
49 -1610 4357 0
49 -1611 4361 0
49 -1612 4362 0
49 -1613 4341 0
49 -1614 4342 0
49 -1615 4343 0
49 -1616 4344 0
49 -1617 4348 0
49 -1618 4349 0
49 -1619 4381 0
49 -1620 4382 0
49 -1621 4383 0
49 -1622 4384 0
49 -1623 4385 0
49 -1624 4386 0
49 -1625 4387 0
49 -1626 4388 0
49 -1627 4369 0
49 -1628 4370 0
49 -1629 4372 0
49 -1630 4373 0
49 -1631 4374 0
49 -1632 4375 0
49 -1633 4376 0
49 -1634 4377 0
49 -1635 4354 0
49 -1636 4355 0
49 -1637 4356 0
49 -1638 4357 0
49 -1639 4361 0
49 -1640 4341 0
49 -1641 4342 0
49 -1642 4343 0
49 -1643 4344 0
49 -1644 4348 0
49 -1645 4366 0
49 -1646 4367 0
49 -1647 4368 0
49 -1648 4369 0
49 -1649 4370 0
49 -1650 4372 0
49 -1651 4375 0
49 -1652 4376 0
49 -1653 4377 0
49 -1654 4378 0
49 -1655 4379 0
49 -1656 4380 0
49 -1657 4381 0
49 -1658 4382 0
49 -1659 4383 0
49 -1660 4386 0
49 -1661 4387 0
49 -1662 4388 0
49 -1663 4366 0
49 -1664 4367 0
49 -1665 4368 0
49 -1666 4369 0
49 -1667 4370 0
49 -1668 4372 0
49 -1669 4373 0
49 -1670 4374 0
49 -1671 4375 0
49 -1672 4376 0
49 -1673 4377 0
49 -1674 4378 0
49 -1675 4379 0
49 -1676 4380 0
49 -1677 4381 0
49 -1678 4382 0
49 -1679 4383 0
49 -1680 4384 0
49 -1681 4385 0
49 -1682 4386 0
49 -1683 4387 0
49 -1684 4388 0
49 -1685 4384 0
49 -1686 4385 0
49 -1687 4386 0
49 -1688 4387 0
49 -1689 4373 0
49 -1690 4374 0
49 -1691 4375 0
49 -1692 4376 0
49 -1693 4388 0
49 -1694 4377 0
49 -1695 4366 0
49 -1696 4367 0
49 -1697 4368 0
49 -1698 4378 0
49 -1699 4379 0
49 -1700 4380 0
49 -1701 4360 0
49 -1702 4361 0
49 -1703 4362 0
49 -1704 4363 0
49 -1705 4347 0
49 -1706 4348 0
49 -1707 4349 0
49 -1708 4350 0
49 -1709 4367 0
49 -1710 4368 0
49 -1711 4369 0
49 -1712 4379 0
49 -1713 4380 0
49 -1714 4381 0
49 -1715 4341 0
49 -1716 4348 0
49 -1717 4349 0
49 -1718 4350 0
49 -1719 4351 0
49 -1720 4354 0
49 -1721 4361 0
49 -1722 4362 0
49 -1723 4363 0
49 -1724 4364 0
49 -1725 4377 0
49 -1726 4388 0
49 -1727 4342 0
49 -1728 4343 0
49 -1729 4344 0
49 -1730 4345 0
49 -1731 4346 0
49 -1732 4347 0
49 -1733 4348 0
49 -1734 4349 0
49 -1735 4350 0
49 -1736 4355 0
49 -1737 4356 0
49 -1738 4357 0
49 -1739 4358 0
49 -1740 4359 0
49 -1741 4360 0
49 -1742 4361 0
49 -1743 4362 0
49 -1744 4363 0
49 -1745 4384 0
49 -1746 4385 0
49 -1747 4386 0
49 -1748 4387 0
49 -1749 4373 0
49 -1750 4374 0
49 -1751 4375 0
49 -1752 4376 0
49 -1753 4374 0
49 -1754 4375 0
49 -1755 4376 0
49 -1756 4385 0
49 -1757 4386 0
49 -1758 4387 0
49 -1759 4342 0
49 -1760 4343 0
49 -1761 4344 0
49 -1762 4345 0
49 -1763 4346 0
49 -1764 4347 0
49 -1765 4348 0
49 -1766 4349 0
49 -1767 4355 0
49 -1768 4356 0
49 -1769 4357 0
49 -1770 4358 0
49 -1771 4359 0
49 -1772 4360 0
49 -1773 4361 0
49 -1774 4362 0
49 -1775 4342 0
49 -1776 4343 0
49 -1777 4344 0
49 -1778 4345 0
49 -1779 4346 0
49 -1780 4347 0
49 -1781 4348 0
49 -1782 4349 0
49 -1783 4355 0
49 -1784 4356 0
49 -1785 4357 0
49 -1786 4358 0
49 -1787 4359 0
49 -1788 4360 0
49 -1789 4361 0
49 -1790 4362 0
49 -1791 4355 0
49 -1792 4356 0
49 -1793 4342 0
49 -1794 4343 0
49 -1795 4379 0
49 -1796 4380 0
49 -1797 4381 0
49 -1798 4382 0
49 -1799 4367 0
49 -1800 4368 0
49 -1801 4369 0
49 -1802 4370 0
49 -1803 4367 0
49 -1804 4368 0
49 -1805 4369 0
49 -1806 4370 0
49 -1807 4373 0
49 -1808 4374 0
49 -1809 4375 0
49 -1810 4376 0
49 -1811 4379 0
49 -1812 4380 0
49 -1813 4381 0
49 -1814 4382 0
49 -1815 4384 0
49 -1816 4385 0
49 -1817 4386 0
49 -1818 4387 0
49 -1819 4367 0
49 -1820 4368 0
49 -1821 4369 0
49 -1822 4370 0
49 -1823 4373 0
49 -1824 4374 0
49 -1825 4375 0
49 -1826 4376 0
49 -1827 4379 0
49 -1828 4380 0
49 -1829 4381 0
49 -1830 4382 0
49 -1831 4384 0
49 -1832 4385 0
49 -1833 4386 0
49 -1834 4387 0
49 -1835 4342 0
49 -1836 4343 0
49 -1837 4344 0
49 -1838 4345 0
49 -1839 4346 0
49 -1840 4347 0
49 -1841 4348 0
49 -1842 4349 0
49 -1843 4355 0
49 -1844 4356 0
49 -1845 4357 0
49 -1846 4358 0
49 -1847 4359 0
49 -1848 4360 0
49 -1849 4361 0
49 -1850 4362 0
49 -1851 4342 0
49 -1852 4355 0
49 -1853 4356 0
49 -1854 4357 0
49 -1855 4358 0
49 -1856 4359 0
49 -1857 4360 0
49 -1858 4361 0
49 -1859 4362 0
49 -1860 4363 0
49 -1861 4342 0
49 -1862 4343 0
49 -1863 4344 0
49 -1864 4345 0
49 -1865 4346 0
49 -1866 4347 0
49 -1867 4348 0
49 -1868 4349 0
49 -1869 4350 0
49 -1870 4355 0
49 -1871 4362 0
49 -1872 4363 0
49 -1873 4349 0
49 -1874 4350 0
49 -1875 4342 0
49 -1876 4343 0
49 -1877 4344 0
49 -1878 4345 0
49 -1879 4355 0
49 -1880 4356 0
49 -1881 4357 0
49 -1882 4358 0
49 -1883 4380 0
49 -1884 4381 0
49 -1885 4382 0
49 -1886 4383 0
49 -1887 4384 0
49 -1888 4368 0
49 -1889 4369 0
49 -1890 4370 0
49 -1891 4372 0
49 -1892 4373 0
49 -1893 4341 0
49 -1894 4342 0
49 -1895 4343 0
49 -1896 4344 0
49 -1897 4345 0
49 -1898 4346 0
49 -1899 4347 0
49 -1900 4348 0
49 -1901 4349 0
49 -1902 4350 0
49 -1903 4351 0
49 -1904 4354 0
49 -1905 4355 0
49 -1906 4356 0
49 -1907 4357 0
49 -1908 4358 0
49 -1909 4359 0
49 -1910 4360 0
49 -1911 4361 0
49 -1912 4362 0
49 -1913 4363 0
49 -1914 4364 0
49 -1915 4354 0
49 -1916 4355 0
49 -1917 4341 0
49 -1918 4342 0
49 -1919 4355 0
49 -1920 4342 0
49 -1921 4367 0
49 -1922 4368 0
49 -1923 4369 0
49 -1924 4370 0
49 -1925 4372 0
49 -1926 4373 0
49 -1927 4374 0
49 -1928 4375 0
49 -1929 4376 0
49 -1930 4379 0
49 -1931 4380 0
49 -1932 4381 0
49 -1933 4382 0
49 -1934 4383 0
49 -1935 4384 0
49 -1936 4385 0
49 -1937 4386 0
49 -1938 4387 0
49 -1939 4341 0
49 -1940 4342 0
49 -1941 4343 0
49 -1942 4344 0
49 -1943 4345 0
49 -1944 4346 0
49 -1945 4347 0
49 -1946 4348 0
49 -1947 4349 0
49 -1948 4350 0
49 -1949 4351 0
49 -1950 4354 0
49 -1951 4355 0
49 -1952 4356 0
49 -1953 4357 0
49 -1954 4358 0
49 -1955 4359 0
49 -1956 4360 0
49 -1957 4361 0
49 -1958 4362 0
49 -1959 4363 0
49 -1960 4364 0
