c Dataset: TUD200.4
c Encoding: DSE
c DecisionVars: 624
c OrderVars: 0
c CardinalityAuxVars: 836
c LabelVars: 48
c TotalVars: 1508
c OrderClauses: 0
c CardinalityClauses: 1878
c DistanceClauses: 4675
c LabelLinkClauses: 624
c SoftClauses: 48
c HardClauses: 7177
c TotalClauses: 7225
p wcnf 1508 7225 49
1 -1461 0
1 -1462 0
1 -1463 0
1 -1464 0
1 -1465 0
1 -1466 0
1 -1467 0
1 -1468 0
1 -1469 0
1 -1470 0
1 -1471 0
1 -1472 0
1 -1473 0
1 -1474 0
1 -1475 0
1 -1476 0
1 -1477 0
1 -1478 0
1 -1479 0
1 -1480 0
1 -1481 0
1 -1482 0
1 -1483 0
1 -1484 0
1 -1485 0
1 -1486 0
1 -1487 0
1 -1488 0
1 -1489 0
1 -1490 0
1 -1491 0
1 -1492 0
1 -1493 0
1 -1494 0
1 -1495 0
1 -1496 0
1 -1497 0
1 -1498 0
1 -1499 0
1 -1500 0
1 -1501 0
1 -1502 0
1 -1503 0
1 -1504 0
1 -1505 0
1 -1506 0
1 -1507 0
1 -1508 0
49 1 0
49 2 0
49 3 0
49 4 0
49 5 6 7 8 9 10 11 12 13 14 15 16 17 18 19 20 21 22 23 24 25 26 27 28 29 30 31 32 33 34 35 36 0
49 -627 625 628 0
49 -626 625 628 0
49 -626 -627 628 0
49 -628 0
49 -630 627 631 0
49 -629 627 631 0
49 -629 -630 631 0
49 -631 0
49 -633 630 634 0
49 -632 630 634 0
49 -632 -633 634 0
49 -634 0
49 -636 633 637 0
49 -635 633 637 0
49 -635 -636 637 0
49 -637 0
49 -36 636 638 0
49 -35 636 638 0
49 -35 -36 638 0
49 -638 0
49 -34 635 639 0
49 -33 635 639 0
49 -33 -34 639 0
49 -639 0
49 -641 632 642 0
49 -640 632 642 0
49 -640 -641 642 0
49 -642 0
49 -32 641 643 0
49 -31 641 643 0
49 -31 -32 643 0
49 -643 0
49 -30 640 644 0
49 -29 640 644 0
49 -29 -30 644 0
49 -644 0
49 -646 629 647 0
49 -645 629 647 0
49 -645 -646 647 0
49 -647 0
49 -649 646 650 0
49 -648 646 650 0
49 -648 -649 650 0
49 -650 0
49 -28 649 651 0
49 -27 649 651 0
49 -27 -28 651 0
49 -651 0
49 -26 648 652 0
49 -25 648 652 0
49 -25 -26 652 0
49 -652 0
49 -654 645 655 0
49 -653 645 655 0
49 -653 -654 655 0
49 -655 0
49 -24 654 656 0
49 -23 654 656 0
49 -23 -24 656 0
49 -656 0
49 -22 653 657 0
49 -21 653 657 0
49 -21 -22 657 0
49 -657 0
49 -659 626 660 0
49 -658 626 660 0
49 -658 -659 660 0
49 -660 0
49 -662 659 663 0
49 -661 659 663 0
49 -661 -662 663 0
49 -663 0
49 -665 662 666 0
49 -664 662 666 0
49 -664 -665 666 0
49 -666 0
49 -20 665 667 0
49 -19 665 667 0
49 -19 -20 667 0
49 -667 0
49 -18 664 668 0
49 -17 664 668 0
49 -17 -18 668 0
49 -668 0
49 -670 661 671 0
49 -669 661 671 0
49 -669 -670 671 0
49 -671 0
49 -16 670 672 0
49 -15 670 672 0
49 -15 -16 672 0
49 -672 0
49 -14 669 673 0
49 -13 669 673 0
49 -13 -14 673 0
49 -673 0
49 -675 658 676 0
49 -674 658 676 0
49 -674 -675 676 0
49 -676 0
49 -678 675 679 0
49 -677 675 679 0
49 -677 -678 679 0
49 -679 0
49 -12 678 680 0
49 -11 678 680 0
49 -11 -12 680 0
49 -680 0
49 -10 677 681 0
49 -9 677 681 0
49 -9 -10 681 0
49 -681 0
49 -683 674 684 0
49 -682 674 684 0
49 -682 -683 684 0
49 -684 0
49 -8 683 685 0
49 -7 683 685 0
49 -7 -8 685 0
49 -685 0
49 -6 682 686 0
49 -5 682 686 0
49 -5 -6 686 0
49 -686 0
49 37 38 39 40 41 42 43 44 45 46 47 48 49 50 51 52 53 54 55 56 57 58 59 60 61 62 63 64 65 66 67 68 0
49 -689 687 690 0
49 -688 687 690 0
49 -688 -689 690 0
49 -690 0
49 -692 689 693 0
49 -691 689 693 0
49 -691 -692 693 0
49 -693 0
49 -695 692 696 0
49 -694 692 696 0
49 -694 -695 696 0
49 -696 0
49 -698 695 699 0
49 -697 695 699 0
49 -697 -698 699 0
49 -699 0
49 -68 698 700 0
49 -67 698 700 0
49 -67 -68 700 0
49 -700 0
49 -66 697 701 0
49 -65 697 701 0
49 -65 -66 701 0
49 -701 0
49 -703 694 704 0
49 -702 694 704 0
49 -702 -703 704 0
49 -704 0
49 -64 703 705 0
49 -63 703 705 0
49 -63 -64 705 0
49 -705 0
49 -62 702 706 0
49 -61 702 706 0
49 -61 -62 706 0
49 -706 0
49 -708 691 709 0
49 -707 691 709 0
49 -707 -708 709 0
49 -709 0
49 -711 708 712 0
49 -710 708 712 0
49 -710 -711 712 0
49 -712 0
49 -60 711 713 0
49 -59 711 713 0
49 -59 -60 713 0
49 -713 0
49 -58 710 714 0
49 -57 710 714 0
49 -57 -58 714 0
49 -714 0
49 -716 707 717 0
49 -715 707 717 0
49 -715 -716 717 0
49 -717 0
49 -56 716 718 0
49 -55 716 718 0
49 -55 -56 718 0
49 -718 0
49 -54 715 719 0
49 -53 715 719 0
49 -53 -54 719 0
49 -719 0
49 -721 688 722 0
49 -720 688 722 0
49 -720 -721 722 0
49 -722 0
49 -724 721 725 0
49 -723 721 725 0
49 -723 -724 725 0
49 -725 0
49 -727 724 728 0
49 -726 724 728 0
49 -726 -727 728 0
49 -728 0
49 -52 727 729 0
49 -51 727 729 0
49 -51 -52 729 0
49 -729 0
49 -50 726 730 0
49 -49 726 730 0
49 -49 -50 730 0
49 -730 0
49 -732 723 733 0
49 -731 723 733 0
49 -731 -732 733 0
49 -733 0
49 -48 732 734 0
49 -47 732 734 0
49 -47 -48 734 0
49 -734 0
49 -46 731 735 0
49 -45 731 735 0
49 -45 -46 735 0
49 -735 0
49 -737 720 738 0
49 -736 720 738 0
49 -736 -737 738 0
49 -738 0
49 -740 737 741 0
49 -739 737 741 0
49 -739 -740 741 0
49 -741 0
49 -44 740 742 0
49 -43 740 742 0
49 -43 -44 742 0
49 -742 0
49 -42 739 743 0
49 -41 739 743 0
49 -41 -42 743 0
49 -743 0
49 -745 736 746 0
49 -744 736 746 0
49 -744 -745 746 0
49 -746 0
49 -40 745 747 0
49 -39 745 747 0
49 -39 -40 747 0
49 -747 0
49 -38 744 748 0
49 -37 744 748 0
49 -37 -38 748 0
49 -748 0
49 69 0
49 70 0
49 71 72 73 74 75 76 77 78 79 80 81 82 83 84 85 86 87 88 89 90 91 92 93 94 95 96 97 98 99 100 101 102 103 104 105 106 0
49 -751 749 752 0
49 -750 749 752 0
49 -750 -751 752 0
49 -752 0
49 -754 751 755 0
49 -753 751 755 0
49 -753 -754 755 0
49 -755 0
49 -757 754 758 0
49 -756 754 758 0
49 -756 -757 758 0
49 -758 0
49 -760 757 761 0
49 -759 757 761 0
49 -759 -760 761 0
49 -761 0
49 -106 760 762 0
49 -105 760 762 0
49 -105 -106 762 0
49 -762 0
49 -104 759 763 0
49 -103 759 763 0
49 -103 -104 763 0
49 -763 0
49 -765 756 766 0
49 -764 756 766 0
49 -764 -765 766 0
49 -766 0
49 -102 765 767 0
49 -101 765 767 0
49 -101 -102 767 0
49 -767 0
49 -100 764 769 0
49 -768 764 769 0
49 -768 -100 769 0
49 -769 0
49 -99 768 770 0
49 -98 768 770 0
49 -98 -99 770 0
49 -770 0
49 -772 753 773 0
49 -771 753 773 0
49 -771 -772 773 0
49 -773 0
49 -775 772 776 0
49 -774 772 776 0
49 -774 -775 776 0
49 -776 0
49 -97 775 777 0
49 -96 775 777 0
49 -96 -97 777 0
49 -777 0
49 -95 774 778 0
49 -94 774 778 0
49 -94 -95 778 0
49 -778 0
49 -780 771 781 0
49 -779 771 781 0
49 -779 -780 781 0
49 -781 0
49 -93 780 782 0
49 -92 780 782 0
49 -92 -93 782 0
49 -782 0
49 -91 779 784 0
49 -783 779 784 0
49 -783 -91 784 0
49 -784 0
49 -90 783 785 0
49 -89 783 785 0
49 -89 -90 785 0
49 -785 0
49 -787 750 788 0
49 -786 750 788 0
49 -786 -787 788 0
49 -788 0
49 -790 787 791 0
49 -789 787 791 0
49 -789 -790 791 0
49 -791 0
49 -793 790 794 0
49 -792 790 794 0
49 -792 -793 794 0
49 -794 0
49 -88 793 795 0
49 -87 793 795 0
49 -87 -88 795 0
49 -795 0
49 -86 792 796 0
49 -85 792 796 0
49 -85 -86 796 0
49 -796 0
49 -798 789 799 0
49 -797 789 799 0
49 -797 -798 799 0
49 -799 0
49 -84 798 800 0
49 -83 798 800 0
49 -83 -84 800 0
49 -800 0
49 -82 797 802 0
49 -801 797 802 0
49 -801 -82 802 0
49 -802 0
49 -81 801 803 0
49 -80 801 803 0
49 -80 -81 803 0
49 -803 0
49 -805 786 806 0
49 -804 786 806 0
49 -804 -805 806 0
49 -806 0
49 -808 805 809 0
49 -807 805 809 0
49 -807 -808 809 0
49 -809 0
49 -79 808 810 0
49 -78 808 810 0
49 -78 -79 810 0
49 -810 0
49 -77 807 811 0
49 -76 807 811 0
49 -76 -77 811 0
49 -811 0
49 -813 804 814 0
49 -812 804 814 0
49 -812 -813 814 0
49 -814 0
49 -75 813 815 0
49 -74 813 815 0
49 -74 -75 815 0
49 -815 0
49 -73 812 817 0
49 -816 812 817 0
49 -816 -73 817 0
49 -817 0
49 -72 816 818 0
49 -71 816 818 0
49 -71 -72 818 0
49 -818 0
49 107 108 109 110 111 112 113 114 115 116 117 118 119 120 121 122 123 124 125 126 127 128 129 130 131 132 133 134 135 136 137 138 139 140 141 142 0
49 -821 819 822 0
49 -820 819 822 0
49 -820 -821 822 0
49 -822 0
49 -824 821 825 0
49 -823 821 825 0
49 -823 -824 825 0
49 -825 0
49 -827 824 828 0
49 -826 824 828 0
49 -826 -827 828 0
49 -828 0
49 -830 827 831 0
49 -829 827 831 0
49 -829 -830 831 0
49 -831 0
49 -142 830 832 0
49 -141 830 832 0
49 -141 -142 832 0
49 -832 0
49 -140 829 833 0
49 -139 829 833 0
49 -139 -140 833 0
49 -833 0
49 -835 826 836 0
49 -834 826 836 0
49 -834 -835 836 0
49 -836 0
49 -138 835 837 0
49 -137 835 837 0
49 -137 -138 837 0
49 -837 0
49 -136 834 839 0
49 -838 834 839 0
49 -838 -136 839 0
49 -839 0
49 -135 838 840 0
49 -134 838 840 0
49 -134 -135 840 0
49 -840 0
49 -842 823 843 0
49 -841 823 843 0
49 -841 -842 843 0
49 -843 0
49 -845 842 846 0
49 -844 842 846 0
49 -844 -845 846 0
49 -846 0
49 -133 845 847 0
49 -132 845 847 0
49 -132 -133 847 0
49 -847 0
49 -131 844 848 0
49 -130 844 848 0
49 -130 -131 848 0
49 -848 0
49 -850 841 851 0
49 -849 841 851 0
49 -849 -850 851 0
49 -851 0
49 -129 850 852 0
49 -128 850 852 0
49 -128 -129 852 0
49 -852 0
49 -127 849 854 0
49 -853 849 854 0
49 -853 -127 854 0
49 -854 0
49 -126 853 855 0
49 -125 853 855 0
49 -125 -126 855 0
49 -855 0
49 -857 820 858 0
49 -856 820 858 0
49 -856 -857 858 0
49 -858 0
49 -860 857 861 0
49 -859 857 861 0
49 -859 -860 861 0
49 -861 0
49 -863 860 864 0
49 -862 860 864 0
49 -862 -863 864 0
49 -864 0
49 -124 863 865 0
49 -123 863 865 0
49 -123 -124 865 0
49 -865 0
49 -122 862 866 0
49 -121 862 866 0
49 -121 -122 866 0
49 -866 0
49 -868 859 869 0
49 -867 859 869 0
49 -867 -868 869 0
49 -869 0
49 -120 868 870 0
49 -119 868 870 0
49 -119 -120 870 0
49 -870 0
49 -118 867 872 0
49 -871 867 872 0
49 -871 -118 872 0
49 -872 0
49 -117 871 873 0
49 -116 871 873 0
49 -116 -117 873 0
49 -873 0
49 -875 856 876 0
49 -874 856 876 0
49 -874 -875 876 0
49 -876 0
49 -878 875 879 0
49 -877 875 879 0
49 -877 -878 879 0
49 -879 0
49 -115 878 880 0
49 -114 878 880 0
49 -114 -115 880 0
49 -880 0
49 -113 877 881 0
49 -112 877 881 0
49 -112 -113 881 0
49 -881 0
49 -883 874 884 0
49 -882 874 884 0
49 -882 -883 884 0
49 -884 0
49 -111 883 885 0
49 -110 883 885 0
49 -110 -111 885 0
49 -885 0
49 -109 882 887 0
49 -886 882 887 0
49 -886 -109 887 0
49 -887 0
49 -108 886 888 0
49 -107 886 888 0
49 -107 -108 888 0
49 -888 0
49 143 144 145 146 147 148 149 150 151 152 153 0
49 -891 889 892 0
49 -890 889 892 0
49 -890 -891 892 0
49 -892 0
49 -894 891 895 0
49 -893 891 895 0
49 -893 -894 895 0
49 -895 0
49 -153 894 896 0
49 -152 894 896 0
49 -152 -153 896 0
49 -896 0
49 -151 893 898 0
49 -897 893 898 0
49 -897 -151 898 0
49 -898 0
49 -150 897 899 0
49 -149 897 899 0
49 -149 -150 899 0
49 -899 0
49 -901 890 902 0
49 -900 890 902 0
49 -900 -901 902 0
49 -902 0
49 -148 901 904 0
49 -903 901 904 0
49 -903 -148 904 0
49 -904 0
49 -147 903 905 0
49 -146 903 905 0
49 -146 -147 905 0
49 -905 0
49 -145 900 907 0
49 -906 900 907 0
49 -906 -145 907 0
49 -907 0
49 -144 906 908 0
49 -143 906 908 0
49 -143 -144 908 0
49 -908 0
49 154 155 156 157 158 159 160 161 162 163 164 0
49 -911 909 912 0
49 -910 909 912 0
49 -910 -911 912 0
49 -912 0
49 -914 911 915 0
49 -913 911 915 0
49 -913 -914 915 0
49 -915 0
49 -164 914 916 0
49 -163 914 916 0
49 -163 -164 916 0
49 -916 0
49 -162 913 918 0
49 -917 913 918 0
49 -917 -162 918 0
49 -918 0
49 -161 917 919 0
49 -160 917 919 0
49 -160 -161 919 0
49 -919 0
49 -921 910 922 0
49 -920 910 922 0
49 -920 -921 922 0
49 -922 0
49 -159 921 924 0
49 -923 921 924 0
49 -923 -159 924 0
49 -924 0
49 -158 923 925 0
49 -157 923 925 0
49 -157 -158 925 0
49 -925 0
49 -156 920 927 0
49 -926 920 927 0
49 -926 -156 927 0
49 -927 0
49 -155 926 928 0
49 -154 926 928 0
49 -154 -155 928 0
49 -928 0
49 165 0
49 166 0
49 167 168 0
49 -167 -168 0
49 169 170 0
49 -169 -170 0
49 171 0
49 172 0
49 173 0
49 174 0
49 175 0
49 176 0
49 177 0
49 178 0
49 179 0
49 180 0
49 181 182 183 0
49 -183 929 931 0
49 -930 929 931 0
49 -930 -183 931 0
49 -931 0
49 -182 930 932 0
49 -181 930 932 0
49 -181 -182 932 0
49 -932 0
49 184 185 186 0
49 -186 933 935 0
49 -934 933 935 0
49 -934 -186 935 0
49 -935 0
49 -185 934 936 0
49 -184 934 936 0
49 -184 -185 936 0
49 -936 0
49 187 0
49 188 0
49 189 0
49 190 0
49 191 0
49 192 0
49 193 0
49 194 0
49 195 0
49 196 0
49 197 0
49 198 0
49 199 200 201 202 203 204 205 206 207 208 209 210 211 212 213 214 215 216 217 218 219 220 221 222 223 224 225 226 227 228 0
49 -939 937 940 0
49 -938 937 940 0
49 -938 -939 940 0
49 -940 0
49 -942 939 943 0
49 -941 939 943 0
49 -941 -942 943 0
49 -943 0
49 -945 942 946 0
49 -944 942 946 0
49 -944 -945 946 0
49 -946 0
49 -228 945 948 0
49 -947 945 948 0
49 -947 -228 948 0
49 -948 0
49 -227 947 949 0
49 -226 947 949 0
49 -226 -227 949 0
49 -949 0
49 -951 944 952 0
49 -950 944 952 0
49 -950 -951 952 0
49 -952 0
49 -225 951 953 0
49 -224 951 953 0
49 -224 -225 953 0
49 -953 0
49 -223 950 954 0
49 -222 950 954 0
49 -222 -223 954 0
49 -954 0
49 -956 941 957 0
49 -955 941 957 0
49 -955 -956 957 0
49 -957 0
49 -959 956 960 0
49 -958 956 960 0
49 -958 -959 960 0
49 -960 0
49 -221 959 961 0
49 -220 959 961 0
49 -220 -221 961 0
49 -961 0
49 -219 958 962 0
49 -218 958 962 0
49 -218 -219 962 0
49 -962 0
49 -964 955 965 0
49 -963 955 965 0
49 -963 -964 965 0
49 -965 0
49 -217 964 966 0
49 -216 964 966 0
49 -216 -217 966 0
49 -966 0
49 -215 963 967 0
49 -214 963 967 0
49 -214 -215 967 0
49 -967 0
49 -969 938 970 0
49 -968 938 970 0
49 -968 -969 970 0
49 -970 0
49 -972 969 973 0
49 -971 969 973 0
49 -971 -972 973 0
49 -973 0
49 -213 972 975 0
49 -974 972 975 0
49 -974 -213 975 0
49 -975 0
49 -212 974 976 0
49 -211 974 976 0
49 -211 -212 976 0
49 -976 0
49 -978 971 979 0
49 -977 971 979 0
49 -977 -978 979 0
49 -979 0
49 -210 978 980 0
49 -209 978 980 0
49 -209 -210 980 0
49 -980 0
49 -208 977 981 0
49 -207 977 981 0
49 -207 -208 981 0
49 -981 0
49 -983 968 984 0
49 -982 968 984 0
49 -982 -983 984 0
49 -984 0
49 -986 983 987 0
49 -985 983 987 0
49 -985 -986 987 0
49 -987 0
49 -206 986 988 0
49 -205 986 988 0
49 -205 -206 988 0
49 -988 0
49 -204 985 989 0
49 -203 985 989 0
49 -203 -204 989 0
49 -989 0
49 -991 982 992 0
49 -990 982 992 0
49 -990 -991 992 0
49 -992 0
49 -202 991 993 0
49 -201 991 993 0
49 -201 -202 993 0
49 -993 0
49 -200 990 994 0
49 -199 990 994 0
49 -199 -200 994 0
49 -994 0
49 229 230 231 232 233 234 235 236 237 238 239 240 241 242 243 244 245 246 247 248 249 250 251 252 253 254 255 256 257 258 0
49 -997 995 998 0
49 -996 995 998 0
49 -996 -997 998 0
49 -998 0
49 -1000 997 1001 0
49 -999 997 1001 0
49 -999 -1000 1001 0
49 -1001 0
49 -1003 1000 1004 0
49 -1002 1000 1004 0
49 -1002 -1003 1004 0
49 -1004 0
49 -258 1003 1006 0
49 -1005 1003 1006 0
49 -1005 -258 1006 0
49 -1006 0
49 -257 1005 1007 0
49 -256 1005 1007 0
49 -256 -257 1007 0
49 -1007 0
49 -1009 1002 1010 0
49 -1008 1002 1010 0
49 -1008 -1009 1010 0
49 -1010 0
49 -255 1009 1011 0
49 -254 1009 1011 0
49 -254 -255 1011 0
49 -1011 0
49 -253 1008 1012 0
49 -252 1008 1012 0
49 -252 -253 1012 0
49 -1012 0
49 -1014 999 1015 0
49 -1013 999 1015 0
49 -1013 -1014 1015 0
49 -1015 0
49 -1017 1014 1018 0
49 -1016 1014 1018 0
49 -1016 -1017 1018 0
49 -1018 0
49 -251 1017 1019 0
49 -250 1017 1019 0
49 -250 -251 1019 0
49 -1019 0
49 -249 1016 1020 0
49 -248 1016 1020 0
49 -248 -249 1020 0
49 -1020 0
49 -1022 1013 1023 0
49 -1021 1013 1023 0
49 -1021 -1022 1023 0
49 -1023 0
49 -247 1022 1024 0
49 -246 1022 1024 0
49 -246 -247 1024 0
49 -1024 0
49 -245 1021 1025 0
49 -244 1021 1025 0
49 -244 -245 1025 0
49 -1025 0
49 -1027 996 1028 0
49 -1026 996 1028 0
49 -1026 -1027 1028 0
49 -1028 0
49 -1030 1027 1031 0
49 -1029 1027 1031 0
49 -1029 -1030 1031 0
49 -1031 0
49 -243 1030 1033 0
49 -1032 1030 1033 0
49 -1032 -243 1033 0
49 -1033 0
49 -242 1032 1034 0
49 -241 1032 1034 0
49 -241 -242 1034 0
49 -1034 0
49 -1036 1029 1037 0
49 -1035 1029 1037 0
49 -1035 -1036 1037 0
49 -1037 0
49 -240 1036 1038 0
49 -239 1036 1038 0
49 -239 -240 1038 0
49 -1038 0
49 -238 1035 1039 0
49 -237 1035 1039 0
49 -237 -238 1039 0
49 -1039 0
49 -1041 1026 1042 0
49 -1040 1026 1042 0
49 -1040 -1041 1042 0
49 -1042 0
49 -1044 1041 1045 0
49 -1043 1041 1045 0
49 -1043 -1044 1045 0
49 -1045 0
49 -236 1044 1046 0
49 -235 1044 1046 0
49 -235 -236 1046 0
49 -1046 0
49 -234 1043 1047 0
49 -233 1043 1047 0
49 -233 -234 1047 0
49 -1047 0
49 -1049 1040 1050 0
49 -1048 1040 1050 0
49 -1048 -1049 1050 0
49 -1050 0
49 -232 1049 1051 0
49 -231 1049 1051 0
49 -231 -232 1051 0
49 -1051 0
49 -230 1048 1052 0
49 -229 1048 1052 0
49 -229 -230 1052 0
49 -1052 0
49 259 260 261 0
49 -261 1053 1055 0
49 -1054 1053 1055 0
49 -1054 -261 1055 0
49 -1055 0
49 -260 1054 1056 0
49 -259 1054 1056 0
49 -259 -260 1056 0
49 -1056 0
49 262 263 264 0
49 -264 1057 1059 0
49 -1058 1057 1059 0
49 -1058 -264 1059 0
49 -1059 0
49 -263 1058 1060 0
49 -262 1058 1060 0
49 -262 -263 1060 0
49 -1060 0
49 265 0
49 266 0
49 267 0
49 268 0
49 269 270 271 272 273 274 275 276 277 278 279 0
49 -1063 1061 1064 0
49 -1062 1061 1064 0
49 -1062 -1063 1064 0
49 -1064 0
49 -1066 1063 1067 0
49 -1065 1063 1067 0
49 -1065 -1066 1067 0
49 -1067 0
49 -279 1066 1068 0
49 -278 1066 1068 0
49 -278 -279 1068 0
49 -1068 0
49 -277 1065 1070 0
49 -1069 1065 1070 0
49 -1069 -277 1070 0
49 -1070 0
49 -276 1069 1071 0
49 -275 1069 1071 0
49 -275 -276 1071 0
49 -1071 0
49 -1073 1062 1074 0
49 -1072 1062 1074 0
49 -1072 -1073 1074 0
49 -1074 0
49 -274 1073 1076 0
49 -1075 1073 1076 0
49 -1075 -274 1076 0
49 -1076 0
49 -273 1075 1077 0
49 -272 1075 1077 0
49 -272 -273 1077 0
49 -1077 0
49 -271 1072 1079 0
49 -1078 1072 1079 0
49 -1078 -271 1079 0
49 -1079 0
49 -270 1078 1080 0
49 -269 1078 1080 0
49 -269 -270 1080 0
49 -1080 0
49 280 281 282 283 284 285 286 287 288 289 290 0
49 -1083 1081 1084 0
49 -1082 1081 1084 0
49 -1082 -1083 1084 0
49 -1084 0
49 -1086 1083 1087 0
49 -1085 1083 1087 0
49 -1085 -1086 1087 0
49 -1087 0
49 -290 1086 1088 0
49 -289 1086 1088 0
49 -289 -290 1088 0
49 -1088 0
49 -288 1085 1090 0
49 -1089 1085 1090 0
49 -1089 -288 1090 0
49 -1090 0
49 -287 1089 1091 0
49 -286 1089 1091 0
49 -286 -287 1091 0
49 -1091 0
49 -1093 1082 1094 0
49 -1092 1082 1094 0
49 -1092 -1093 1094 0
49 -1094 0
49 -285 1093 1096 0
49 -1095 1093 1096 0
49 -1095 -285 1096 0
49 -1096 0
49 -284 1095 1097 0
49 -283 1095 1097 0
49 -283 -284 1097 0
49 -1097 0
49 -282 1092 1099 0
49 -1098 1092 1099 0
49 -1098 -282 1099 0
49 -1099 0
49 -281 1098 1100 0
49 -280 1098 1100 0
49 -280 -281 1100 0
49 -1100 0
49 291 0
49 292 0
49 293 0
49 294 0
49 295 0
49 296 0
49 297 0
49 298 0
49 299 0
49 300 0
49 301 0
49 302 0
49 303 304 305 0
49 -305 1101 1103 0
49 -1102 1101 1103 0
49 -1102 -305 1103 0
49 -1103 0
49 -304 1102 1104 0
49 -303 1102 1104 0
49 -303 -304 1104 0
49 -1104 0
49 306 307 308 0
49 -308 1105 1107 0
49 -1106 1105 1107 0
49 -1106 -308 1107 0
49 -1107 0
49 -307 1106 1108 0
49 -306 1106 1108 0
49 -306 -307 1108 0
49 -1108 0
49 309 0
49 310 0
49 311 0
49 312 0
49 313 314 315 316 0
49 -1111 1109 1112 0
49 -1110 1109 1112 0
49 -1110 -1111 1112 0
49 -1112 0
49 -316 1111 1113 0
49 -315 1111 1113 0
49 -315 -316 1113 0
49 -1113 0
49 -314 1110 1114 0
49 -313 1110 1114 0
49 -313 -314 1114 0
49 -1114 0
49 317 318 319 320 0
49 -1117 1115 1118 0
49 -1116 1115 1118 0
49 -1116 -1117 1118 0
49 -1118 0
49 -320 1117 1119 0
49 -319 1117 1119 0
49 -319 -320 1119 0
49 -1119 0
49 -318 1116 1120 0
49 -317 1116 1120 0
49 -317 -318 1120 0
49 -1120 0
49 321 322 323 0
49 -323 1121 1123 0
49 -1122 1121 1123 0
49 -1122 -323 1123 0
49 -1123 0
49 -322 1122 1124 0
49 -321 1122 1124 0
49 -321 -322 1124 0
49 -1124 0
49 324 325 326 0
49 -326 1125 1127 0
49 -1126 1125 1127 0
49 -1126 -326 1127 0
49 -1127 0
49 -325 1126 1128 0
49 -324 1126 1128 0
49 -324 -325 1128 0
49 -1128 0
49 327 0
49 328 0
49 329 0
49 330 0
49 331 0
49 332 0
49 333 0
49 334 0
49 335 0
49 336 0
49 337 0
49 338 0
49 339 0
49 340 0
49 341 0
49 342 0
49 343 344 345 346 347 348 349 350 351 352 353 0
49 -1131 1129 1132 0
49 -1130 1129 1132 0
49 -1130 -1131 1132 0
49 -1132 0
49 -1134 1131 1135 0
49 -1133 1131 1135 0
49 -1133 -1134 1135 0
49 -1135 0
49 -353 1134 1136 0
49 -352 1134 1136 0
49 -352 -353 1136 0
49 -1136 0
49 -351 1133 1138 0
49 -1137 1133 1138 0
49 -1137 -351 1138 0
49 -1138 0
49 -350 1137 1139 0
49 -349 1137 1139 0
49 -349 -350 1139 0
49 -1139 0
49 -1141 1130 1142 0
49 -1140 1130 1142 0
49 -1140 -1141 1142 0
49 -1142 0
49 -348 1141 1144 0
49 -1143 1141 1144 0
49 -1143 -348 1144 0
49 -1144 0
49 -347 1143 1145 0
49 -346 1143 1145 0
49 -346 -347 1145 0
49 -1145 0
49 -345 1140 1147 0
49 -1146 1140 1147 0
49 -1146 -345 1147 0
49 -1147 0
49 -344 1146 1148 0
49 -343 1146 1148 0
49 -343 -344 1148 0
49 -1148 0
49 354 355 356 357 358 359 360 361 362 363 364 0
49 -1151 1149 1152 0
49 -1150 1149 1152 0
49 -1150 -1151 1152 0
49 -1152 0
49 -1154 1151 1155 0
49 -1153 1151 1155 0
49 -1153 -1154 1155 0
49 -1155 0
49 -364 1154 1156 0
49 -363 1154 1156 0
49 -363 -364 1156 0
49 -1156 0
49 -362 1153 1158 0
49 -1157 1153 1158 0
49 -1157 -362 1158 0
49 -1158 0
49 -361 1157 1159 0
49 -360 1157 1159 0
49 -360 -361 1159 0
49 -1159 0
49 -1161 1150 1162 0
49 -1160 1150 1162 0
49 -1160 -1161 1162 0
49 -1162 0
49 -359 1161 1164 0
49 -1163 1161 1164 0
49 -1163 -359 1164 0
49 -1164 0
49 -358 1163 1165 0
49 -357 1163 1165 0
49 -357 -358 1165 0
49 -1165 0
49 -356 1160 1167 0
49 -1166 1160 1167 0
49 -1166 -356 1167 0
49 -1167 0
49 -355 1166 1168 0
49 -354 1166 1168 0
49 -354 -355 1168 0
49 -1168 0
49 365 0
49 366 0
49 367 0
49 368 0
49 369 0
49 370 0
49 371 372 373 374 375 376 377 378 379 380 381 0
49 -1171 1169 1172 0
49 -1170 1169 1172 0
49 -1170 -1171 1172 0
49 -1172 0
49 -1174 1171 1175 0
49 -1173 1171 1175 0
49 -1173 -1174 1175 0
49 -1175 0
49 -381 1174 1176 0
49 -380 1174 1176 0
49 -380 -381 1176 0
49 -1176 0
49 -379 1173 1178 0
49 -1177 1173 1178 0
49 -1177 -379 1178 0
49 -1178 0
49 -378 1177 1179 0
49 -377 1177 1179 0
49 -377 -378 1179 0
49 -1179 0
49 -1181 1170 1182 0
49 -1180 1170 1182 0
49 -1180 -1181 1182 0
49 -1182 0
49 -376 1181 1184 0
49 -1183 1181 1184 0
49 -1183 -376 1184 0
49 -1184 0
49 -375 1183 1185 0
49 -374 1183 1185 0
49 -374 -375 1185 0
49 -1185 0
49 -373 1180 1187 0
49 -1186 1180 1187 0
49 -1186 -373 1187 0
49 -1187 0
49 -372 1186 1188 0
49 -371 1186 1188 0
49 -371 -372 1188 0
49 -1188 0
49 382 383 384 385 386 387 388 389 390 391 392 0
49 -1191 1189 1192 0
49 -1190 1189 1192 0
49 -1190 -1191 1192 0
49 -1192 0
49 -1194 1191 1195 0
49 -1193 1191 1195 0
49 -1193 -1194 1195 0
49 -1195 0
49 -392 1194 1196 0
49 -391 1194 1196 0
49 -391 -392 1196 0
49 -1196 0
49 -390 1193 1198 0
49 -1197 1193 1198 0
49 -1197 -390 1198 0
49 -1198 0
49 -389 1197 1199 0
49 -388 1197 1199 0
49 -388 -389 1199 0
49 -1199 0
49 -1201 1190 1202 0
49 -1200 1190 1202 0
49 -1200 -1201 1202 0
49 -1202 0
49 -387 1201 1204 0
49 -1203 1201 1204 0
49 -1203 -387 1204 0
49 -1204 0
49 -386 1203 1205 0
49 -385 1203 1205 0
49 -385 -386 1205 0
49 -1205 0
49 -384 1200 1207 0
49 -1206 1200 1207 0
49 -1206 -384 1207 0
49 -1207 0
49 -383 1206 1208 0
49 -382 1206 1208 0
49 -382 -383 1208 0
49 -1208 0
49 393 0
49 394 0
49 395 0
49 396 0
49 397 398 399 0
49 -399 1209 1211 0
49 -1210 1209 1211 0
49 -1210 -399 1211 0
49 -1211 0
49 -398 1210 1212 0
49 -397 1210 1212 0
49 -397 -398 1212 0
49 -1212 0
49 400 401 402 0
49 -402 1213 1215 0
49 -1214 1213 1215 0
49 -1214 -402 1215 0
49 -1215 0
49 -401 1214 1216 0
49 -400 1214 1216 0
49 -400 -401 1216 0
49 -1216 0
49 403 0
49 404 0
49 405 0
49 406 0
49 407 408 0
49 -407 -408 0
49 409 410 0
49 -409 -410 0
49 411 0
49 412 0
49 413 0
49 414 0
49 415 0
49 416 0
49 417 0
49 418 0
49 419 0
49 420 0
49 421 0
49 422 0
49 423 0
49 424 0
49 425 0
49 426 0
49 427 0
49 428 0
49 429 0
49 430 0
49 431 432 433 434 435 436 437 438 439 440 441 0
49 -1219 1217 1220 0
49 -1218 1217 1220 0
49 -1218 -1219 1220 0
49 -1220 0
49 -1222 1219 1223 0
49 -1221 1219 1223 0
49 -1221 -1222 1223 0
49 -1223 0
49 -441 1222 1224 0
49 -440 1222 1224 0
49 -440 -441 1224 0
49 -1224 0
49 -439 1221 1226 0
49 -1225 1221 1226 0
49 -1225 -439 1226 0
49 -1226 0
49 -438 1225 1227 0
49 -437 1225 1227 0
49 -437 -438 1227 0
49 -1227 0
49 -1229 1218 1230 0
49 -1228 1218 1230 0
49 -1228 -1229 1230 0
49 -1230 0
49 -436 1229 1232 0
49 -1231 1229 1232 0
49 -1231 -436 1232 0
49 -1232 0
49 -435 1231 1233 0
49 -434 1231 1233 0
49 -434 -435 1233 0
49 -1233 0
49 -433 1228 1235 0
49 -1234 1228 1235 0
49 -1234 -433 1235 0
49 -1235 0
49 -432 1234 1236 0
49 -431 1234 1236 0
49 -431 -432 1236 0
49 -1236 0
49 442 443 444 445 446 447 448 449 450 451 452 0
49 -1239 1237 1240 0
49 -1238 1237 1240 0
49 -1238 -1239 1240 0
49 -1240 0
49 -1242 1239 1243 0
49 -1241 1239 1243 0
49 -1241 -1242 1243 0
49 -1243 0
49 -452 1242 1244 0
49 -451 1242 1244 0
49 -451 -452 1244 0
49 -1244 0
49 -450 1241 1246 0
49 -1245 1241 1246 0
49 -1245 -450 1246 0
49 -1246 0
49 -449 1245 1247 0
49 -448 1245 1247 0
49 -448 -449 1247 0
49 -1247 0
49 -1249 1238 1250 0
49 -1248 1238 1250 0
49 -1248 -1249 1250 0
49 -1250 0
49 -447 1249 1252 0
49 -1251 1249 1252 0
49 -1251 -447 1252 0
49 -1252 0
49 -446 1251 1253 0
49 -445 1251 1253 0
49 -445 -446 1253 0
49 -1253 0
49 -444 1248 1255 0
49 -1254 1248 1255 0
49 -1254 -444 1255 0
49 -1255 0
49 -443 1254 1256 0
49 -442 1254 1256 0
49 -442 -443 1256 0
49 -1256 0
49 453 454 455 456 457 458 459 460 461 462 463 0
49 -1259 1257 1260 0
49 -1258 1257 1260 0
49 -1258 -1259 1260 0
49 -1260 0
49 -1262 1259 1263 0
49 -1261 1259 1263 0
49 -1261 -1262 1263 0
49 -1263 0
49 -463 1262 1264 0
49 -462 1262 1264 0
49 -462 -463 1264 0
49 -1264 0
49 -461 1261 1266 0
49 -1265 1261 1266 0
49 -1265 -461 1266 0
49 -1266 0
49 -460 1265 1267 0
49 -459 1265 1267 0
49 -459 -460 1267 0
49 -1267 0
49 -1269 1258 1270 0
49 -1268 1258 1270 0
49 -1268 -1269 1270 0
49 -1270 0
49 -458 1269 1272 0
49 -1271 1269 1272 0
49 -1271 -458 1272 0
49 -1272 0
49 -457 1271 1273 0
49 -456 1271 1273 0
49 -456 -457 1273 0
49 -1273 0
49 -455 1268 1275 0
49 -1274 1268 1275 0
49 -1274 -455 1275 0
49 -1275 0
49 -454 1274 1276 0
49 -453 1274 1276 0
49 -453 -454 1276 0
49 -1276 0
49 464 465 466 467 468 469 470 471 472 473 474 0
49 -1279 1277 1280 0
49 -1278 1277 1280 0
49 -1278 -1279 1280 0
49 -1280 0
49 -1282 1279 1283 0
49 -1281 1279 1283 0
49 -1281 -1282 1283 0
49 -1283 0
49 -474 1282 1284 0
49 -473 1282 1284 0
49 -473 -474 1284 0
49 -1284 0
49 -472 1281 1286 0
49 -1285 1281 1286 0
49 -1285 -472 1286 0
49 -1286 0
49 -471 1285 1287 0
49 -470 1285 1287 0
49 -470 -471 1287 0
49 -1287 0
49 -1289 1278 1290 0
49 -1288 1278 1290 0
49 -1288 -1289 1290 0
49 -1290 0
49 -469 1289 1292 0
49 -1291 1289 1292 0
49 -1291 -469 1292 0
49 -1292 0
49 -468 1291 1293 0
49 -467 1291 1293 0
49 -467 -468 1293 0
49 -1293 0
49 -466 1288 1295 0
49 -1294 1288 1295 0
49 -1294 -466 1295 0
49 -1295 0
49 -465 1294 1296 0
49 -464 1294 1296 0
49 -464 -465 1296 0
49 -1296 0
49 475 0
49 476 0
49 477 0
49 478 0
49 479 0
49 480 0
49 481 0
49 482 0
49 483 484 485 486 487 488 489 490 491 492 493 0
49 -1299 1297 1300 0
49 -1298 1297 1300 0
49 -1298 -1299 1300 0
49 -1300 0
49 -1302 1299 1303 0
49 -1301 1299 1303 0
49 -1301 -1302 1303 0
49 -1303 0
49 -493 1302 1304 0
49 -492 1302 1304 0
49 -492 -493 1304 0
49 -1304 0
49 -491 1301 1306 0
49 -1305 1301 1306 0
49 -1305 -491 1306 0
49 -1306 0
49 -490 1305 1307 0
49 -489 1305 1307 0
49 -489 -490 1307 0
49 -1307 0
49 -1309 1298 1310 0
49 -1308 1298 1310 0
49 -1308 -1309 1310 0
49 -1310 0
49 -488 1309 1312 0
49 -1311 1309 1312 0
49 -1311 -488 1312 0
49 -1312 0
49 -487 1311 1313 0
49 -486 1311 1313 0
49 -486 -487 1313 0
49 -1313 0
49 -485 1308 1315 0
49 -1314 1308 1315 0
49 -1314 -485 1315 0
49 -1315 0
49 -484 1314 1316 0
49 -483 1314 1316 0
49 -483 -484 1316 0
49 -1316 0
49 494 495 496 497 498 499 500 501 502 503 504 0
49 -1319 1317 1320 0
49 -1318 1317 1320 0
49 -1318 -1319 1320 0
49 -1320 0
49 -1322 1319 1323 0
49 -1321 1319 1323 0
49 -1321 -1322 1323 0
49 -1323 0
49 -504 1322 1324 0
49 -503 1322 1324 0
49 -503 -504 1324 0
49 -1324 0
49 -502 1321 1326 0
49 -1325 1321 1326 0
49 -1325 -502 1326 0
49 -1326 0
49 -501 1325 1327 0
49 -500 1325 1327 0
49 -500 -501 1327 0
49 -1327 0
49 -1329 1318 1330 0
49 -1328 1318 1330 0
49 -1328 -1329 1330 0
49 -1330 0
49 -499 1329 1332 0
49 -1331 1329 1332 0
49 -1331 -499 1332 0
49 -1332 0
49 -498 1331 1333 0
49 -497 1331 1333 0
49 -497 -498 1333 0
49 -1333 0
49 -496 1328 1335 0
49 -1334 1328 1335 0
49 -1334 -496 1335 0
49 -1335 0
49 -495 1334 1336 0
49 -494 1334 1336 0
49 -494 -495 1336 0
49 -1336 0
49 505 0
49 506 0
49 507 0
49 508 0
49 509 0
49 510 0
49 511 512 0
49 -511 -512 0
49 513 514 0
49 -513 -514 0
49 515 516 517 518 519 0
49 -1339 1337 1340 0
49 -1338 1337 1340 0
49 -1338 -1339 1340 0
49 -1340 0
49 -519 1339 1341 0
49 -518 1339 1341 0
49 -518 -519 1341 0
49 -1341 0
49 -517 1338 1343 0
49 -1342 1338 1343 0
49 -1342 -517 1343 0
49 -1343 0
49 -516 1342 1344 0
49 -515 1342 1344 0
49 -515 -516 1344 0
49 -1344 0
49 520 521 522 523 524 0
49 -1347 1345 1348 0
49 -1346 1345 1348 0
49 -1346 -1347 1348 0
49 -1348 0
49 -524 1347 1349 0
49 -523 1347 1349 0
49 -523 -524 1349 0
49 -1349 0
49 -522 1346 1351 0
49 -1350 1346 1351 0
49 -1350 -522 1351 0
49 -1351 0
49 -521 1350 1352 0
49 -520 1350 1352 0
49 -520 -521 1352 0
49 -1352 0
49 525 0
49 526 0
49 527 0
49 528 0
49 529 530 531 532 0
49 -1355 1353 1356 0
49 -1354 1353 1356 0
49 -1354 -1355 1356 0
49 -1356 0
49 -532 1355 1357 0
49 -531 1355 1357 0
49 -531 -532 1357 0
49 -1357 0
49 -530 1354 1358 0
49 -529 1354 1358 0
49 -529 -530 1358 0
49 -1358 0
49 533 534 535 536 0
49 -1361 1359 1362 0
49 -1360 1359 1362 0
49 -1360 -1361 1362 0
49 -1362 0
49 -536 1361 1363 0
49 -535 1361 1363 0
49 -535 -536 1363 0
49 -1363 0
49 -534 1360 1364 0
49 -533 1360 1364 0
49 -533 -534 1364 0
49 -1364 0
49 537 0
49 538 0
49 539 0
49 540 0
49 541 542 543 544 545 546 547 548 549 550 551 0
49 -1367 1365 1368 0
49 -1366 1365 1368 0
49 -1366 -1367 1368 0
49 -1368 0
49 -1370 1367 1371 0
49 -1369 1367 1371 0
49 -1369 -1370 1371 0
49 -1371 0
49 -551 1370 1372 0
49 -550 1370 1372 0
49 -550 -551 1372 0
49 -1372 0
49 -549 1369 1374 0
49 -1373 1369 1374 0
49 -1373 -549 1374 0
49 -1374 0
49 -548 1373 1375 0
49 -547 1373 1375 0
49 -547 -548 1375 0
49 -1375 0
49 -1377 1366 1378 0
49 -1376 1366 1378 0
49 -1376 -1377 1378 0
49 -1378 0
49 -546 1377 1380 0
49 -1379 1377 1380 0
49 -1379 -546 1380 0
49 -1380 0
49 -545 1379 1381 0
49 -544 1379 1381 0
49 -544 -545 1381 0
49 -1381 0
49 -543 1376 1383 0
49 -1382 1376 1383 0
49 -1382 -543 1383 0
49 -1383 0
49 -542 1382 1384 0
49 -541 1382 1384 0
49 -541 -542 1384 0
49 -1384 0
49 552 553 554 555 556 557 558 559 560 561 562 0
49 -1387 1385 1388 0
49 -1386 1385 1388 0
49 -1386 -1387 1388 0
49 -1388 0
49 -1390 1387 1391 0
49 -1389 1387 1391 0
49 -1389 -1390 1391 0
49 -1391 0
49 -562 1390 1392 0
49 -561 1390 1392 0
49 -561 -562 1392 0
49 -1392 0
49 -560 1389 1394 0
49 -1393 1389 1394 0
49 -1393 -560 1394 0
49 -1394 0
49 -559 1393 1395 0
49 -558 1393 1395 0
49 -558 -559 1395 0
49 -1395 0
49 -1397 1386 1398 0
49 -1396 1386 1398 0
49 -1396 -1397 1398 0
49 -1398 0
49 -557 1397 1400 0
49 -1399 1397 1400 0
49 -1399 -557 1400 0
49 -1400 0
49 -556 1399 1401 0
49 -555 1399 1401 0
49 -555 -556 1401 0
49 -1401 0
49 -554 1396 1403 0
49 -1402 1396 1403 0
49 -1402 -554 1403 0
49 -1403 0
49 -553 1402 1404 0
49 -552 1402 1404 0
49 -552 -553 1404 0
49 -1404 0
49 563 564 565 0
49 -565 1405 1407 0
49 -1406 1405 1407 0
49 -1406 -565 1407 0
49 -1407 0
49 -564 1406 1408 0
49 -563 1406 1408 0
49 -563 -564 1408 0
49 -1408 0
49 566 567 568 0
49 -568 1409 1411 0
49 -1410 1409 1411 0
49 -1410 -568 1411 0
49 -1411 0
49 -567 1410 1412 0
49 -566 1410 1412 0
49 -566 -567 1412 0
49 -1412 0
49 569 0
49 570 0
49 571 0
49 572 0
49 573 0
49 574 0
49 575 0
49 576 0
49 577 0
49 578 0
49 579 0
49 580 0
49 581 0
49 582 0
49 583 0
49 584 0
49 585 0
49 586 0
49 587 0
49 588 0
49 589 0
49 590 0
49 591 592 593 594 595 596 597 598 0
49 -1415 1413 1416 0
49 -1414 1413 1416 0
49 -1414 -1415 1416 0
49 -1416 0
49 -1418 1415 1419 0
49 -1417 1415 1419 0
49 -1417 -1418 1419 0
49 -1419 0
49 -598 1418 1420 0
49 -597 1418 1420 0
49 -597 -598 1420 0
49 -1420 0
49 -596 1417 1421 0
49 -595 1417 1421 0
49 -595 -596 1421 0
49 -1421 0
49 -1423 1414 1424 0
49 -1422 1414 1424 0
49 -1422 -1423 1424 0
49 -1424 0
49 -594 1423 1425 0
49 -593 1423 1425 0
49 -593 -594 1425 0
49 -1425 0
49 -592 1422 1426 0
49 -591 1422 1426 0
49 -591 -592 1426 0
49 -1426 0
49 599 600 601 602 603 604 605 606 0
49 -1429 1427 1430 0
49 -1428 1427 1430 0
49 -1428 -1429 1430 0
49 -1430 0
49 -1432 1429 1433 0
49 -1431 1429 1433 0
49 -1431 -1432 1433 0
49 -1433 0
49 -606 1432 1434 0
49 -605 1432 1434 0
49 -605 -606 1434 0
49 -1434 0
49 -604 1431 1435 0
49 -603 1431 1435 0
49 -603 -604 1435 0
49 -1435 0
49 -1437 1428 1438 0
49 -1436 1428 1438 0
49 -1436 -1437 1438 0
49 -1438 0
49 -602 1437 1439 0
49 -601 1437 1439 0
49 -601 -602 1439 0
49 -1439 0
49 -600 1436 1440 0
49 -599 1436 1440 0
49 -599 -600 1440 0
49 -1440 0
49 607 0
49 608 0
49 609 0
49 610 0
49 611 0
49 612 0
49 613 614 615 616 617 618 0
49 -1443 1441 1444 0
49 -1442 1441 1444 0
49 -1442 -1443 1444 0
49 -1444 0
49 -618 1443 1446 0
49 -1445 1443 1446 0
49 -1445 -618 1446 0
49 -1446 0
49 -617 1445 1447 0
49 -616 1445 1447 0
49 -616 -617 1447 0
49 -1447 0
49 -615 1442 1449 0
49 -1448 1442 1449 0
49 -1448 -615 1449 0
49 -1449 0
49 -614 1448 1450 0
49 -613 1448 1450 0
49 -613 -614 1450 0
49 -1450 0
49 619 620 621 622 623 624 0
49 -1453 1451 1454 0
49 -1452 1451 1454 0
49 -1452 -1453 1454 0
49 -1454 0
49 -624 1453 1456 0
49 -1455 1453 1456 0
49 -1455 -624 1456 0
49 -1456 0
49 -623 1455 1457 0
49 -622 1455 1457 0
49 -622 -623 1457 0
49 -1457 0
49 -621 1452 1459 0
49 -1458 1452 1459 0
49 -1458 -621 1459 0
49 -1459 0
49 -620 1458 1460 0
49 -619 1458 1460 0
49 -619 -620 1460 0
49 -1460 0
49 -1 2 0
49 -3 4 0
49 -5 42 0
49 -6 43 0
49 -7 44 0
49 -8 45 0
49 -9 46 0
49 -10 47 0
49 -11 48 0
49 -12 49 0
49 -13 50 0
49 -14 51 0
49 -15 52 0
49 -16 37 0
49 -17 38 0
49 -18 39 0
49 -19 40 0
49 -20 41 0
49 -21 64 0
49 -22 65 0
49 -23 66 0
49 -24 67 0
49 -25 68 0
49 -26 53 0
49 -27 54 0
49 -28 55 0
49 -29 56 0
49 -30 57 0
49 -31 58 0
49 -32 59 0
49 -33 60 0
49 -34 61 0
49 -35 62 0
49 -36 63 0
49 -5 -71 0
49 -5 -72 0
49 -6 -71 0
49 -6 -72 0
49 -6 -73 0
49 -7 -71 0
49 -7 -72 0
49 -7 -73 0
49 -7 -74 0
49 -8 -71 0
49 -8 -72 0
49 -8 -73 0
49 -8 -74 0
49 -8 -75 0
49 -9 -72 0
49 -9 -73 0
49 -9 -74 0
49 -9 -75 0
49 -9 -76 0
49 -10 -73 0
49 -10 -74 0
49 -10 -75 0
49 -10 -76 0
49 -10 -77 0
49 -11 -74 0
49 -11 -75 0
49 -11 -76 0
49 -11 -77 0
49 -11 -78 0
49 -12 -75 0
49 -12 -76 0
49 -12 -77 0
49 -12 -78 0
49 -12 -79 0
49 -13 -76 0
49 -13 -77 0
49 -13 -78 0
49 -13 -79 0
49 -13 -80 0
49 -14 -77 0
49 -14 -78 0
49 -14 -79 0
49 -14 -80 0
49 -15 -78 0
49 -15 -79 0
49 -15 -80 0
49 -16 -81 0
49 -16 -82 0
49 -17 -81 0
49 -17 -82 0
49 -17 -83 0
49 -18 -81 0
49 -18 -82 0
49 -18 -83 0
49 -18 -84 0
49 -19 -81 0
49 -19 -82 0
49 -19 -83 0
49 -19 -84 0
49 -19 -85 0
49 -20 -82 0
49 -20 -83 0
49 -20 -84 0
49 -20 -85 0
49 -20 -86 0
49 -21 -89 0
49 -21 -90 0
49 -21 -91 0
49 -21 -92 0
49 -21 -93 0
49 -22 -90 0
49 -22 -91 0
49 -22 -92 0
49 -22 -93 0
49 -22 -94 0
49 -23 -91 0
49 -23 -92 0
49 -23 -93 0
49 -23 -94 0
49 -23 -95 0
49 -24 -92 0
49 -24 -93 0
49 -24 -94 0
49 -24 -95 0
49 -25 -93 0
49 -25 -94 0
49 -25 -95 0
49 -26 -96 0
49 -26 -97 0
49 -26 -98 0
49 -27 -96 0
49 -27 -97 0
49 -27 -98 0
49 -27 -99 0
49 -28 -96 0
49 -28 -97 0
49 -28 -98 0
49 -28 -99 0
49 -28 -100 0
49 -29 -97 0
49 -29 -98 0
49 -29 -99 0
49 -29 -100 0
49 -29 -101 0
49 -30 -98 0
49 -30 -99 0
49 -30 -100 0
49 -30 -101 0
49 -30 -102 0
49 -31 -99 0
49 -31 -100 0
49 -31 -101 0
49 -31 -102 0
49 -31 -103 0
49 -32 -100 0
49 -32 -101 0
49 -32 -102 0
49 -32 -103 0
49 -32 -104 0
49 -33 -101 0
49 -33 -102 0
49 -33 -103 0
49 -33 -104 0
49 -33 -105 0
49 -34 -102 0
49 -34 -103 0
49 -34 -104 0
49 -34 -105 0
49 -34 -106 0
49 -35 -103 0
49 -35 -104 0
49 -35 -105 0
49 -35 -106 0
49 -36 -104 0
49 -36 -105 0
49 -36 -106 0
49 -5 -107 0
49 -5 -108 0
49 -5 -109 0
49 -5 -110 0
49 -5 -111 0
49 -5 -112 0
49 -5 -113 0
49 -5 -114 0
49 -5 -115 0
49 -6 -107 0
49 -6 -108 0
49 -6 -109 0
49 -6 -110 0
49 -6 -111 0
49 -6 -112 0
49 -6 -113 0
49 -6 -114 0
49 -6 -115 0
49 -6 -116 0
49 -7 -107 0
49 -7 -108 0
49 -7 -109 0
49 -7 -110 0
49 -7 -111 0
49 -7 -112 0
49 -7 -113 0
49 -7 -114 0
49 -7 -115 0
49 -7 -116 0
49 -7 -117 0
49 -8 -107 0
49 -8 -108 0
49 -8 -109 0
49 -8 -110 0
49 -8 -111 0
49 -8 -112 0
49 -8 -113 0
49 -8 -114 0
49 -8 -115 0
49 -8 -116 0
49 -8 -117 0
49 -8 -118 0
49 -9 -107 0
49 -9 -108 0
49 -9 -109 0
49 -9 -110 0
49 -9 -111 0
49 -9 -112 0
49 -9 -113 0
49 -9 -114 0
49 -9 -115 0
49 -9 -116 0
49 -9 -117 0
49 -9 -118 0
49 -9 -119 0
49 -10 -107 0
49 -10 -108 0
49 -10 -109 0
49 -10 -110 0
49 -10 -111 0
49 -10 -112 0
49 -10 -113 0
49 -10 -114 0
49 -10 -115 0
49 -10 -116 0
49 -10 -117 0
49 -10 -118 0
49 -10 -119 0
49 -10 -120 0
49 -11 -107 0
49 -11 -108 0
49 -11 -109 0
49 -11 -110 0
49 -11 -111 0
49 -11 -112 0
49 -11 -113 0
49 -11 -114 0
49 -11 -115 0
49 -11 -116 0
49 -11 -117 0
49 -11 -118 0
49 -11 -119 0
49 -11 -120 0
49 -11 -121 0
49 -12 -107 0
49 -12 -108 0
49 -12 -109 0
49 -12 -110 0
49 -12 -111 0
49 -12 -112 0
49 -12 -113 0
49 -12 -114 0
49 -12 -115 0
49 -12 -116 0
49 -12 -117 0
49 -12 -118 0
49 -12 -119 0
49 -12 -120 0
49 -12 -121 0
49 -12 -122 0
49 -13 -107 0
49 -13 -108 0
49 -13 -109 0
49 -13 -110 0
49 -13 -111 0
49 -13 -112 0
49 -13 -113 0
49 -13 -114 0
49 -13 -115 0
49 -13 -116 0
49 -13 -117 0
49 -13 -118 0
49 -13 -119 0
49 -13 -120 0
49 -13 -121 0
49 -13 -122 0
49 -13 -123 0
49 -14 -107 0
49 -14 -108 0
49 -14 -109 0
49 -14 -110 0
49 -14 -111 0
49 -14 -112 0
49 -14 -113 0
49 -14 -114 0
49 -14 -115 0
49 -14 -116 0
49 -14 -117 0
49 -14 -118 0
49 -14 -119 0
49 -14 -120 0
49 -14 -121 0
49 -14 -122 0
49 -14 -123 0
49 -14 -124 0
49 -15 -107 0
49 -15 -108 0
49 -15 -109 0
49 -15 -110 0
49 -15 -111 0
49 -15 -112 0
49 -15 -113 0
49 -15 -114 0
49 -15 -115 0
49 -15 -116 0
49 -15 -117 0
49 -15 -118 0
49 -15 -119 0
49 -15 -120 0
49 -15 -121 0
49 -15 -122 0
49 -15 -123 0
49 -15 -124 0
49 -15 -125 0
49 -16 -107 0
49 -16 -108 0
49 -16 -109 0
49 -16 -110 0
49 -16 -111 0
49 -16 -112 0
49 -16 -113 0
49 -16 -114 0
49 -16 -115 0
49 -16 -116 0
49 -16 -117 0
49 -16 -118 0
49 -16 -119 0
49 -16 -120 0
49 -16 -121 0
49 -16 -122 0
49 -16 -123 0
49 -16 -124 0
49 -16 -125 0
49 -16 -126 0
49 -16 -127 0
49 -16 -128 0
49 -16 -129 0
49 -16 -130 0
49 -16 -131 0
49 -16 -132 0
49 -17 -107 0
49 -17 -108 0
49 -17 -109 0
49 -17 -110 0
49 -17 -111 0
49 -17 -112 0
49 -17 -113 0
49 -17 -114 0
49 -17 -115 0
49 -17 -116 0
49 -17 -117 0
49 -17 -118 0
49 -17 -119 0
49 -17 -120 0
49 -17 -121 0
49 -17 -122 0
49 -17 -123 0
49 -17 -124 0
49 -17 -125 0
49 -17 -126 0
49 -17 -127 0
49 -17 -128 0
49 -17 -129 0
49 -17 -130 0
49 -17 -131 0
49 -17 -132 0
49 -17 -133 0
49 -18 -107 0
49 -18 -108 0
49 -18 -109 0
49 -18 -110 0
49 -18 -111 0
49 -18 -112 0
49 -18 -113 0
49 -18 -114 0
49 -18 -115 0
49 -18 -116 0
49 -18 -117 0
49 -18 -118 0
49 -18 -119 0
49 -18 -120 0
49 -18 -121 0
49 -18 -122 0
49 -18 -123 0
49 -18 -124 0
49 -18 -125 0
49 -18 -126 0
49 -18 -127 0
49 -18 -128 0
49 -18 -129 0
49 -18 -130 0
49 -18 -131 0
49 -18 -132 0
49 -18 -133 0
49 -18 -134 0
49 -19 -107 0
49 -19 -108 0
49 -19 -109 0
49 -19 -110 0
49 -19 -111 0
49 -19 -112 0
49 -19 -113 0
49 -19 -114 0
49 -19 -115 0
49 -19 -116 0
49 -19 -117 0
49 -19 -118 0
49 -19 -119 0
49 -19 -120 0
49 -19 -121 0
49 -19 -122 0
49 -19 -123 0
49 -19 -124 0
49 -19 -125 0
49 -19 -126 0
49 -19 -127 0
49 -19 -128 0
49 -19 -129 0
49 -19 -130 0
49 -19 -131 0
49 -19 -132 0
49 -19 -133 0
49 -19 -134 0
49 -20 -108 0
49 -20 -109 0
49 -20 -110 0
49 -20 -111 0
49 -20 -112 0
49 -20 -113 0
49 -20 -114 0
49 -20 -115 0
49 -20 -116 0
49 -20 -117 0
49 -20 -118 0
49 -20 -119 0
49 -20 -120 0
49 -20 -121 0
49 -20 -122 0
49 -20 -123 0
49 -20 -124 0
49 -20 -125 0
49 -20 -126 0
49 -20 -127 0
49 -20 -128 0
49 -20 -129 0
49 -20 -130 0
49 -20 -131 0
49 -20 -132 0
49 -20 -133 0
49 -20 -134 0
49 -21 -114 0
49 -21 -115 0
49 -21 -116 0
49 -21 -117 0
49 -21 -118 0
49 -21 -119 0
49 -21 -120 0
49 -21 -121 0
49 -21 -122 0
49 -21 -123 0
49 -21 -124 0
49 -21 -125 0
49 -21 -126 0
49 -21 -127 0
49 -21 -128 0
49 -21 -129 0
49 -21 -130 0
49 -21 -131 0
49 -21 -132 0
49 -21 -133 0
49 -21 -134 0
49 -21 -135 0
49 -21 -136 0
49 -21 -137 0
49 -21 -138 0
49 -21 -139 0
49 -21 -140 0
49 -22 -114 0
49 -22 -115 0
49 -22 -116 0
49 -22 -117 0
49 -22 -118 0
49 -22 -119 0
49 -22 -120 0
49 -22 -121 0
49 -22 -122 0
49 -22 -123 0
49 -22 -124 0
49 -22 -125 0
49 -22 -126 0
49 -22 -127 0
49 -22 -128 0
49 -22 -129 0
49 -22 -130 0
49 -22 -131 0
49 -22 -132 0
49 -22 -133 0
49 -22 -134 0
49 -22 -135 0
49 -22 -136 0
49 -22 -137 0
49 -22 -138 0
49 -22 -139 0
49 -22 -140 0
49 -22 -141 0
49 -23 -114 0
49 -23 -115 0
49 -23 -116 0
49 -23 -117 0
49 -23 -118 0
49 -23 -119 0
49 -23 -120 0
49 -23 -121 0
49 -23 -122 0
49 -23 -123 0
49 -23 -124 0
49 -23 -125 0
49 -23 -126 0
49 -23 -127 0
49 -23 -128 0
49 -23 -129 0
49 -23 -130 0
49 -23 -131 0
49 -23 -132 0
49 -23 -133 0
49 -23 -134 0
49 -23 -135 0
49 -23 -136 0
49 -23 -137 0
49 -23 -138 0
49 -23 -139 0
49 -23 -140 0
49 -23 -141 0
49 -23 -142 0
49 -24 -114 0
49 -24 -115 0
49 -24 -116 0
49 -24 -117 0
49 -24 -118 0
49 -24 -119 0
49 -24 -120 0
49 -24 -121 0
49 -24 -122 0
49 -24 -123 0
49 -24 -124 0
49 -24 -125 0
49 -24 -126 0
49 -24 -127 0
49 -24 -128 0
49 -24 -129 0
49 -24 -130 0
49 -24 -131 0
49 -24 -132 0
49 -24 -133 0
49 -24 -134 0
49 -24 -135 0
49 -24 -136 0
49 -24 -137 0
49 -24 -138 0
49 -24 -139 0
49 -24 -140 0
49 -24 -141 0
49 -24 -142 0
49 -25 -115 0
49 -25 -116 0
49 -25 -117 0
49 -25 -118 0
49 -25 -119 0
49 -25 -120 0
49 -25 -121 0
49 -25 -122 0
49 -25 -123 0
49 -25 -124 0
49 -25 -125 0
49 -25 -126 0
49 -25 -127 0
49 -25 -128 0
49 -25 -129 0
49 -25 -130 0
49 -25 -131 0
49 -25 -132 0
49 -25 -133 0
49 -25 -134 0
49 -25 -135 0
49 -25 -136 0
49 -25 -137 0
49 -25 -138 0
49 -25 -139 0
49 -25 -140 0
49 -25 -141 0
49 -25 -142 0
49 -26 -122 0
49 -26 -123 0
49 -26 -124 0
49 -26 -125 0
49 -26 -126 0
49 -26 -127 0
49 -26 -128 0
49 -26 -129 0
49 -26 -130 0
49 -26 -131 0
49 -26 -132 0
49 -26 -133 0
49 -26 -134 0
49 -26 -135 0
49 -26 -136 0
49 -26 -137 0
49 -26 -138 0
49 -26 -139 0
49 -26 -140 0
49 -26 -141 0
49 -26 -142 0
49 -27 -123 0
49 -27 -124 0
49 -27 -125 0
49 -27 -126 0
49 -27 -127 0
49 -27 -128 0
49 -27 -129 0
49 -27 -130 0
49 -27 -131 0
49 -27 -132 0
49 -27 -133 0
49 -27 -134 0
49 -27 -135 0
49 -27 -136 0
49 -27 -137 0
49 -27 -138 0
49 -27 -139 0
49 -27 -140 0
49 -27 -141 0
49 -27 -142 0
49 -28 -124 0
49 -28 -125 0
49 -28 -126 0
49 -28 -127 0
49 -28 -128 0
49 -28 -129 0
49 -28 -130 0
49 -28 -131 0
49 -28 -132 0
49 -28 -133 0
49 -28 -134 0
49 -28 -135 0
49 -28 -136 0
49 -28 -137 0
49 -28 -138 0
49 -28 -139 0
49 -28 -140 0
49 -28 -141 0
49 -28 -142 0
49 -29 -125 0
49 -29 -126 0
49 -29 -127 0
49 -29 -128 0
49 -29 -129 0
49 -29 -130 0
49 -29 -131 0
49 -29 -132 0
49 -29 -133 0
49 -29 -134 0
49 -29 -135 0
49 -29 -136 0
49 -29 -137 0
49 -29 -138 0
49 -29 -139 0
49 -29 -140 0
49 -29 -141 0
49 -29 -142 0
49 -30 -126 0
49 -30 -127 0
49 -30 -128 0
49 -30 -129 0
49 -30 -130 0
49 -30 -131 0
49 -30 -132 0
49 -30 -133 0
49 -30 -134 0
49 -30 -135 0
49 -30 -136 0
49 -30 -137 0
49 -30 -138 0
49 -30 -139 0
49 -30 -140 0
49 -30 -141 0
49 -30 -142 0
49 -31 -127 0
49 -31 -128 0
49 -31 -129 0
49 -31 -130 0
49 -31 -131 0
49 -31 -132 0
49 -31 -133 0
49 -31 -134 0
49 -31 -135 0
49 -31 -136 0
49 -31 -137 0
49 -31 -138 0
49 -31 -139 0
49 -31 -140 0
49 -31 -141 0
49 -31 -142 0
49 -32 -128 0
49 -32 -129 0
49 -32 -130 0
49 -32 -131 0
49 -32 -132 0
49 -32 -133 0
49 -32 -134 0
49 -32 -135 0
49 -32 -136 0
49 -32 -137 0
49 -32 -138 0
49 -32 -139 0
49 -32 -140 0
49 -32 -141 0
49 -32 -142 0
49 -33 -129 0
49 -33 -130 0
49 -33 -131 0
49 -33 -132 0
49 -33 -133 0
49 -33 -134 0
49 -33 -135 0
49 -33 -136 0
49 -33 -137 0
49 -33 -138 0
49 -33 -139 0
49 -33 -140 0
49 -33 -141 0
49 -33 -142 0
49 -34 -130 0
49 -34 -131 0
49 -34 -132 0
49 -34 -133 0
49 -34 -134 0
49 -34 -135 0
49 -34 -136 0
49 -34 -137 0
49 -34 -138 0
49 -34 -139 0
49 -34 -140 0
49 -34 -141 0
49 -34 -142 0
49 -35 -131 0
49 -35 -132 0
49 -35 -133 0
49 -35 -134 0
49 -35 -135 0
49 -35 -136 0
49 -35 -137 0
49 -35 -138 0
49 -35 -139 0
49 -35 -140 0
49 -35 -141 0
49 -35 -142 0
49 -36 -132 0
49 -36 -133 0
49 -36 -134 0
49 -36 -135 0
49 -36 -136 0
49 -36 -137 0
49 -36 -138 0
49 -36 -139 0
49 -36 -140 0
49 -36 -141 0
49 -36 -142 0
49 -5 -199 0
49 -6 -199 0
49 -6 -200 0
49 -7 -199 0
49 -7 -200 0
49 -7 -201 0
49 -8 -200 0
49 -8 -201 0
49 -8 -202 0
49 -9 -201 0
49 -9 -202 0
49 -9 -203 0
49 -10 -202 0
49 -10 -203 0
49 -10 -204 0
49 -11 -203 0
49 -11 -204 0
49 -11 -205 0
49 -12 -204 0
49 -12 -205 0
49 -12 -206 0
49 -13 -205 0
49 -13 -206 0
49 -13 -207 0
49 -14 -206 0
49 -14 -207 0
49 -15 -207 0
49 -16 -208 0
49 -17 -208 0
49 -17 -209 0
49 -18 -208 0
49 -18 -209 0
49 -18 -210 0
49 -19 -209 0
49 -19 -210 0
49 -19 -211 0
49 -20 -210 0
49 -20 -211 0
49 -20 -212 0
49 -21 -215 0
49 -21 -216 0
49 -21 -217 0
49 -22 -216 0
49 -22 -217 0
49 -22 -218 0
49 -23 -217 0
49 -23 -218 0
49 -23 -219 0
49 -24 -218 0
49 -24 -219 0
49 -25 -219 0
49 -26 -220 0
49 -27 -220 0
49 -27 -221 0
49 -28 -220 0
49 -28 -221 0
49 -28 -222 0
49 -29 -221 0
49 -29 -222 0
49 -29 -223 0
49 -30 -222 0
49 -30 -223 0
49 -30 -224 0
49 -31 -223 0
49 -31 -224 0
49 -31 -225 0
49 -32 -224 0
49 -32 -225 0
49 -32 -226 0
49 -33 -225 0
49 -33 -226 0
49 -33 -227 0
49 -34 -226 0
49 -34 -227 0
49 -34 -228 0
49 -35 -227 0
49 -35 -228 0
49 -36 -228 0
49 -5 -229 0
49 -5 -230 0
49 -5 -231 0
49 -5 -232 0
49 -5 -233 0
49 -5 -234 0
49 -5 -235 0
49 -6 -229 0
49 -6 -230 0
49 -6 -231 0
49 -6 -232 0
49 -6 -233 0
49 -6 -234 0
49 -6 -235 0
49 -6 -236 0
49 -7 -229 0
49 -7 -230 0
49 -7 -231 0
49 -7 -232 0
49 -7 -233 0
49 -7 -234 0
49 -7 -235 0
49 -7 -236 0
49 -7 -237 0
49 -8 -229 0
49 -8 -230 0
49 -8 -231 0
49 -8 -232 0
49 -8 -233 0
49 -8 -234 0
49 -8 -235 0
49 -8 -236 0
49 -8 -237 0
49 -8 -238 0
49 -9 -229 0
49 -9 -230 0
49 -9 -231 0
49 -9 -232 0
49 -9 -233 0
49 -9 -234 0
49 -9 -235 0
49 -9 -236 0
49 -9 -237 0
49 -9 -238 0
49 -9 -239 0
49 -10 -229 0
49 -10 -230 0
49 -10 -231 0
49 -10 -232 0
49 -10 -233 0
49 -10 -234 0
49 -10 -235 0
49 -10 -236 0
49 -10 -237 0
49 -10 -238 0
49 -10 -239 0
49 -10 -240 0
49 -11 -229 0
49 -11 -230 0
49 -11 -231 0
49 -11 -232 0
49 -11 -233 0
49 -11 -234 0
49 -11 -235 0
49 -11 -236 0
49 -11 -237 0
49 -11 -238 0
49 -11 -239 0
49 -11 -240 0
49 -11 -241 0
49 -12 -229 0
49 -12 -230 0
49 -12 -231 0
49 -12 -232 0
49 -12 -233 0
49 -12 -234 0
49 -12 -235 0
49 -12 -236 0
49 -12 -237 0
49 -12 -238 0
49 -12 -239 0
49 -12 -240 0
49 -12 -241 0
49 -12 -242 0
49 -13 -229 0
49 -13 -230 0
49 -13 -231 0
49 -13 -232 0
49 -13 -233 0
49 -13 -234 0
49 -13 -235 0
49 -13 -236 0
49 -13 -237 0
49 -13 -238 0
49 -13 -239 0
49 -13 -240 0
49 -13 -241 0
49 -13 -242 0
49 -13 -243 0
49 -14 -229 0
49 -14 -230 0
49 -14 -231 0
49 -14 -232 0
49 -14 -233 0
49 -14 -234 0
49 -14 -235 0
49 -14 -236 0
49 -14 -237 0
49 -14 -238 0
49 -14 -239 0
49 -14 -240 0
49 -14 -241 0
49 -14 -242 0
49 -14 -243 0
49 -15 -229 0
49 -15 -230 0
49 -15 -231 0
49 -15 -232 0
49 -15 -233 0
49 -15 -234 0
49 -15 -235 0
49 -15 -236 0
49 -15 -237 0
49 -15 -238 0
49 -15 -239 0
49 -15 -240 0
49 -15 -241 0
49 -15 -242 0
49 -15 -243 0
49 -16 -229 0
49 -16 -230 0
49 -16 -231 0
49 -16 -232 0
49 -16 -233 0
49 -16 -234 0
49 -16 -235 0
49 -16 -236 0
49 -16 -237 0
49 -16 -238 0
49 -16 -239 0
49 -16 -240 0
49 -16 -241 0
49 -16 -242 0
49 -16 -243 0
49 -16 -244 0
49 -16 -245 0
49 -16 -246 0
49 -16 -247 0
49 -16 -248 0
49 -16 -249 0
49 -16 -250 0
49 -17 -229 0
49 -17 -230 0
49 -17 -231 0
49 -17 -232 0
49 -17 -233 0
49 -17 -234 0
49 -17 -235 0
49 -17 -236 0
49 -17 -237 0
49 -17 -238 0
49 -17 -239 0
49 -17 -240 0
49 -17 -241 0
49 -17 -242 0
49 -17 -243 0
49 -17 -244 0
49 -17 -245 0
49 -17 -246 0
49 -17 -247 0
49 -17 -248 0
49 -17 -249 0
49 -17 -250 0
49 -17 -251 0
49 -18 -229 0
49 -18 -230 0
49 -18 -231 0
49 -18 -232 0
49 -18 -233 0
49 -18 -234 0
49 -18 -235 0
49 -18 -236 0
49 -18 -237 0
49 -18 -238 0
49 -18 -239 0
49 -18 -240 0
49 -18 -241 0
49 -18 -242 0
49 -18 -243 0
49 -18 -244 0
49 -18 -245 0
49 -18 -246 0
49 -18 -247 0
49 -18 -248 0
49 -18 -249 0
49 -18 -250 0
49 -18 -251 0
49 -18 -252 0
49 -19 -230 0
49 -19 -231 0
49 -19 -232 0
49 -19 -233 0
49 -19 -234 0
49 -19 -235 0
49 -19 -236 0
49 -19 -237 0
49 -19 -238 0
49 -19 -239 0
49 -19 -240 0
49 -19 -241 0
49 -19 -242 0
49 -19 -243 0
49 -19 -244 0
49 -19 -245 0
49 -19 -246 0
49 -19 -247 0
49 -19 -248 0
49 -19 -249 0
49 -19 -250 0
49 -19 -251 0
49 -19 -252 0
49 -20 -231 0
49 -20 -232 0
49 -20 -233 0
49 -20 -234 0
49 -20 -235 0
49 -20 -236 0
49 -20 -237 0
49 -20 -238 0
49 -20 -239 0
49 -20 -240 0
49 -20 -241 0
49 -20 -242 0
49 -20 -243 0
49 -20 -244 0
49 -20 -245 0
49 -20 -246 0
49 -20 -247 0
49 -20 -248 0
49 -20 -249 0
49 -20 -250 0
49 -20 -251 0
49 -20 -252 0
49 -21 -235 0
49 -21 -236 0
49 -21 -237 0
49 -21 -238 0
49 -21 -239 0
49 -21 -240 0
49 -21 -241 0
49 -21 -242 0
49 -21 -243 0
49 -21 -244 0
49 -21 -245 0
49 -21 -246 0
49 -21 -247 0
49 -21 -248 0
49 -21 -249 0
49 -21 -250 0
49 -21 -251 0
49 -21 -252 0
49 -21 -253 0
49 -21 -254 0
49 -21 -255 0
49 -21 -256 0
49 -22 -235 0
49 -22 -236 0
49 -22 -237 0
49 -22 -238 0
49 -22 -239 0
49 -22 -240 0
49 -22 -241 0
49 -22 -242 0
49 -22 -243 0
49 -22 -244 0
49 -22 -245 0
49 -22 -246 0
49 -22 -247 0
49 -22 -248 0
49 -22 -249 0
49 -22 -250 0
49 -22 -251 0
49 -22 -252 0
49 -22 -253 0
49 -22 -254 0
49 -22 -255 0
49 -22 -256 0
49 -22 -257 0
49 -23 -235 0
49 -23 -236 0
49 -23 -237 0
49 -23 -238 0
49 -23 -239 0
49 -23 -240 0
49 -23 -241 0
49 -23 -242 0
49 -23 -243 0
49 -23 -244 0
49 -23 -245 0
49 -23 -246 0
49 -23 -247 0
49 -23 -248 0
49 -23 -249 0
49 -23 -250 0
49 -23 -251 0
49 -23 -252 0
49 -23 -253 0
49 -23 -254 0
49 -23 -255 0
49 -23 -256 0
49 -23 -257 0
49 -23 -258 0
49 -24 -236 0
49 -24 -237 0
49 -24 -238 0
49 -24 -239 0
49 -24 -240 0
49 -24 -241 0
49 -24 -242 0
49 -24 -243 0
49 -24 -244 0
49 -24 -245 0
49 -24 -246 0
49 -24 -247 0
49 -24 -248 0
49 -24 -249 0
49 -24 -250 0
49 -24 -251 0
49 -24 -252 0
49 -24 -253 0
49 -24 -254 0
49 -24 -255 0
49 -24 -256 0
49 -24 -257 0
49 -24 -258 0
49 -25 -237 0
49 -25 -238 0
49 -25 -239 0
49 -25 -240 0
49 -25 -241 0
49 -25 -242 0
49 -25 -243 0
49 -25 -244 0
49 -25 -245 0
49 -25 -246 0
49 -25 -247 0
49 -25 -248 0
49 -25 -249 0
49 -25 -250 0
49 -25 -251 0
49 -25 -252 0
49 -25 -253 0
49 -25 -254 0
49 -25 -255 0
49 -25 -256 0
49 -25 -257 0
49 -25 -258 0
49 -26 -244 0
49 -26 -245 0
49 -26 -246 0
49 -26 -247 0
49 -26 -248 0
49 -26 -249 0
49 -26 -250 0
49 -26 -251 0
49 -26 -252 0
49 -26 -253 0
49 -26 -254 0
49 -26 -255 0
49 -26 -256 0
49 -26 -257 0
49 -26 -258 0
49 -27 -244 0
49 -27 -245 0
49 -27 -246 0
49 -27 -247 0
49 -27 -248 0
49 -27 -249 0
49 -27 -250 0
49 -27 -251 0
49 -27 -252 0
49 -27 -253 0
49 -27 -254 0
49 -27 -255 0
49 -27 -256 0
49 -27 -257 0
49 -27 -258 0
49 -28 -244 0
49 -28 -245 0
49 -28 -246 0
49 -28 -247 0
49 -28 -248 0
49 -28 -249 0
49 -28 -250 0
49 -28 -251 0
49 -28 -252 0
49 -28 -253 0
49 -28 -254 0
49 -28 -255 0
49 -28 -256 0
49 -28 -257 0
49 -28 -258 0
49 -29 -245 0
49 -29 -246 0
49 -29 -247 0
49 -29 -248 0
49 -29 -249 0
49 -29 -250 0
49 -29 -251 0
49 -29 -252 0
49 -29 -253 0
49 -29 -254 0
49 -29 -255 0
49 -29 -256 0
49 -29 -257 0
49 -29 -258 0
49 -30 -246 0
49 -30 -247 0
49 -30 -248 0
49 -30 -249 0
49 -30 -250 0
49 -30 -251 0
49 -30 -252 0
49 -30 -253 0
49 -30 -254 0
49 -30 -255 0
49 -30 -256 0
49 -30 -257 0
49 -30 -258 0
49 -31 -247 0
49 -31 -248 0
49 -31 -249 0
49 -31 -250 0
49 -31 -251 0
49 -31 -252 0
49 -31 -253 0
49 -31 -254 0
49 -31 -255 0
49 -31 -256 0
49 -31 -257 0
49 -31 -258 0
49 -32 -248 0
49 -32 -249 0
49 -32 -250 0
49 -32 -251 0
49 -32 -252 0
49 -32 -253 0
49 -32 -254 0
49 -32 -255 0
49 -32 -256 0
49 -32 -257 0
49 -32 -258 0
49 -33 -249 0
49 -33 -250 0
49 -33 -251 0
49 -33 -252 0
49 -33 -253 0
49 -33 -254 0
49 -33 -255 0
49 -33 -256 0
49 -33 -257 0
49 -33 -258 0
49 -34 -250 0
49 -34 -251 0
49 -34 -252 0
49 -34 -253 0
49 -34 -254 0
49 -34 -255 0
49 -34 -256 0
49 -34 -257 0
49 -34 -258 0
49 -35 -251 0
49 -35 -252 0
49 -35 -253 0
49 -35 -254 0
49 -35 -255 0
49 -35 -256 0
49 -35 -257 0
49 -35 -258 0
49 -36 -252 0
49 -36 -253 0
49 -36 -254 0
49 -36 -255 0
49 -36 -256 0
49 -36 -257 0
49 -36 -258 0
49 -6 -613 0
49 -7 -614 0
49 -8 -615 0
49 -9 -616 0
49 -34 -617 0
49 -35 -618 0
49 -8 -619 0
49 -9 -619 0
49 -9 -620 0
49 -10 -619 0
49 -10 -620 0
49 -10 -621 0
49 -11 -619 0
49 -11 -620 0
49 -11 -621 0
49 -11 -622 0
49 -12 -619 0
49 -12 -620 0
49 -12 -621 0
49 -12 -622 0
49 -13 -619 0
49 -13 -620 0
49 -13 -621 0
49 -13 -622 0
49 -14 -619 0
49 -14 -620 0
49 -14 -621 0
49 -14 -622 0
49 -15 -619 0
49 -15 -620 0
49 -15 -621 0
49 -15 -622 0
49 -16 -619 0
49 -16 -620 0
49 -16 -621 0
49 -16 -622 0
49 -17 -619 0
49 -17 -620 0
49 -17 -621 0
49 -17 -622 0
49 -18 -619 0
49 -18 -620 0
49 -18 -621 0
49 -18 -622 0
49 -19 -619 0
49 -19 -620 0
49 -19 -621 0
49 -19 -622 0
49 -20 -619 0
49 -20 -620 0
49 -20 -621 0
49 -20 -622 0
49 -20 -623 0
49 -21 -620 0
49 -21 -621 0
49 -21 -622 0
49 -21 -623 0
49 -21 -624 0
49 -22 -621 0
49 -22 -622 0
49 -22 -623 0
49 -22 -624 0
49 -23 -622 0
49 -23 -623 0
49 -23 -624 0
49 -24 -623 0
49 -24 -624 0
49 -25 -623 0
49 -25 -624 0
49 -26 -623 0
49 -26 -624 0
49 -27 -623 0
49 -27 -624 0
49 -28 -623 0
49 -28 -624 0
49 -29 -623 0
49 -29 -624 0
49 -30 -623 0
49 -30 -624 0
49 -31 -623 0
49 -31 -624 0
49 -32 -623 0
49 -32 -624 0
49 -33 -624 0
49 -37 -71 0
49 -37 -72 0
49 -37 -73 0
49 -37 -74 0
49 -37 -75 0
49 -37 -76 0
49 -37 -77 0
49 -37 -78 0
49 -37 -79 0
49 -37 -80 0
49 -38 -71 0
49 -38 -72 0
49 -38 -73 0
49 -38 -74 0
49 -38 -75 0
49 -38 -76 0
49 -38 -77 0
49 -38 -78 0
49 -38 -79 0
49 -38 -80 0
49 -39 -71 0
49 -39 -72 0
49 -39 -73 0
49 -39 -74 0
49 -39 -75 0
49 -39 -76 0
49 -39 -77 0
49 -39 -78 0
49 -39 -79 0
49 -39 -80 0
49 -40 -71 0
49 -40 -72 0
49 -40 -73 0
49 -40 -74 0
49 -40 -75 0
49 -40 -76 0
49 -40 -77 0
49 -40 -78 0
49 -40 -79 0
49 -40 -80 0
49 -41 -71 0
49 -41 -72 0
49 -41 -73 0
49 -41 -74 0
49 -41 -75 0
49 -41 -76 0
49 -41 -77 0
49 -41 -78 0
49 -41 -79 0
49 -41 -80 0
49 -42 -74 0
49 -42 -75 0
49 -42 -76 0
49 -42 -77 0
49 -42 -78 0
49 -42 -79 0
49 -42 -80 0
49 -42 -81 0
49 -42 -82 0
49 -42 -83 0
49 -42 -84 0
49 -42 -85 0
49 -42 -86 0
49 -42 -87 0
49 -43 -75 0
49 -43 -76 0
49 -43 -77 0
49 -43 -78 0
49 -43 -79 0
49 -43 -80 0
49 -43 -81 0
49 -43 -82 0
49 -43 -83 0
49 -43 -84 0
49 -43 -85 0
49 -43 -86 0
49 -43 -87 0
49 -43 -88 0
49 -44 -76 0
49 -44 -77 0
49 -44 -78 0
49 -44 -79 0
49 -44 -80 0
49 -44 -81 0
49 -44 -82 0
49 -44 -83 0
49 -44 -84 0
49 -44 -85 0
49 -44 -86 0
49 -44 -87 0
49 -44 -88 0
49 -44 -89 0
49 -45 -77 0
49 -45 -78 0
49 -45 -79 0
49 -45 -80 0
49 -45 -81 0
49 -45 -82 0
49 -45 -83 0
49 -45 -84 0
49 -45 -85 0
49 -45 -86 0
49 -45 -87 0
49 -45 -88 0
49 -45 -89 0
49 -45 -90 0
49 -46 -78 0
49 -46 -79 0
49 -46 -80 0
49 -46 -81 0
49 -46 -82 0
49 -46 -83 0
49 -46 -84 0
49 -46 -85 0
49 -46 -86 0
49 -46 -87 0
49 -46 -88 0
49 -46 -89 0
49 -46 -90 0
49 -46 -91 0
49 -47 -79 0
49 -47 -80 0
49 -47 -81 0
49 -47 -82 0
49 -47 -83 0
49 -47 -84 0
49 -47 -85 0
49 -47 -86 0
49 -47 -87 0
49 -47 -88 0
49 -47 -89 0
49 -47 -90 0
49 -47 -91 0
49 -47 -92 0
49 -48 -80 0
49 -48 -81 0
49 -48 -82 0
49 -48 -83 0
49 -48 -84 0
49 -48 -85 0
49 -48 -86 0
49 -48 -87 0
49 -48 -88 0
49 -48 -89 0
49 -48 -90 0
49 -48 -91 0
49 -48 -92 0
49 -48 -93 0
49 -49 -81 0
49 -49 -82 0
49 -49 -83 0
49 -49 -84 0
49 -49 -85 0
49 -49 -86 0
49 -49 -87 0
49 -49 -88 0
49 -49 -89 0
49 -49 -90 0
49 -49 -91 0
49 -49 -92 0
49 -49 -93 0
49 -49 -94 0
49 -50 -81 0
49 -50 -82 0
49 -50 -83 0
49 -50 -84 0
49 -50 -85 0
49 -50 -86 0
49 -50 -87 0
49 -50 -88 0
49 -50 -89 0
49 -50 -90 0
49 -50 -91 0
49 -50 -92 0
49 -50 -93 0
49 -50 -94 0
49 -50 -95 0
49 -51 -81 0
49 -51 -82 0
49 -51 -83 0
49 -51 -84 0
49 -51 -85 0
49 -51 -86 0
49 -51 -87 0
49 -51 -88 0
49 -51 -89 0
49 -51 -90 0
49 -51 -91 0
49 -51 -92 0
49 -51 -93 0
49 -51 -94 0
49 -51 -95 0
49 -52 -81 0
49 -52 -82 0
49 -52 -83 0
49 -52 -84 0
49 -52 -85 0
49 -52 -86 0
49 -52 -87 0
49 -52 -88 0
49 -52 -89 0
49 -52 -90 0
49 -52 -91 0
49 -52 -92 0
49 -52 -93 0
49 -52 -94 0
49 -52 -95 0
49 -53 -81 0
49 -53 -82 0
49 -53 -83 0
49 -53 -84 0
49 -53 -85 0
49 -53 -86 0
49 -53 -87 0
49 -53 -88 0
49 -53 -89 0
49 -53 -90 0
49 -53 -91 0
49 -53 -92 0
49 -53 -93 0
49 -53 -94 0
49 -53 -95 0
49 -54 -81 0
49 -54 -82 0
49 -54 -83 0
49 -54 -84 0
49 -54 -85 0
49 -54 -86 0
49 -54 -87 0
49 -54 -88 0
49 -54 -89 0
49 -54 -90 0
49 -54 -91 0
49 -54 -92 0
49 -54 -93 0
49 -54 -94 0
49 -54 -95 0
49 -55 -81 0
49 -55 -82 0
49 -55 -83 0
49 -55 -84 0
49 -55 -85 0
49 -55 -86 0
49 -55 -87 0
49 -55 -88 0
49 -55 -89 0
49 -55 -90 0
49 -55 -91 0
49 -55 -92 0
49 -55 -93 0
49 -55 -94 0
49 -55 -95 0
49 -56 -81 0
49 -56 -82 0
49 -56 -83 0
49 -56 -84 0
49 -56 -85 0
49 -56 -86 0
49 -56 -87 0
49 -56 -88 0
49 -56 -89 0
49 -56 -90 0
49 -56 -91 0
49 -56 -92 0
49 -56 -93 0
49 -56 -94 0
49 -56 -95 0
49 -57 -82 0
49 -57 -83 0
49 -57 -84 0
49 -57 -85 0
49 -57 -86 0
49 -57 -87 0
49 -57 -88 0
49 -57 -89 0
49 -57 -90 0
49 -57 -91 0
49 -57 -92 0
49 -57 -93 0
49 -57 -94 0
49 -57 -95 0
49 -57 -96 0
49 -58 -83 0
49 -58 -84 0
49 -58 -85 0
49 -58 -86 0
49 -58 -87 0
49 -58 -88 0
49 -58 -89 0
49 -58 -90 0
49 -58 -91 0
49 -58 -92 0
49 -58 -93 0
49 -58 -94 0
49 -58 -95 0
49 -58 -96 0
49 -58 -97 0
49 -59 -84 0
49 -59 -85 0
49 -59 -86 0
49 -59 -87 0
49 -59 -88 0
49 -59 -89 0
49 -59 -90 0
49 -59 -91 0
49 -59 -92 0
49 -59 -93 0
49 -59 -94 0
49 -59 -95 0
49 -59 -96 0
49 -59 -97 0
49 -59 -98 0
49 -60 -85 0
49 -60 -86 0
49 -60 -87 0
49 -60 -88 0
49 -60 -89 0
49 -60 -90 0
49 -60 -91 0
49 -60 -92 0
49 -60 -93 0
49 -60 -94 0
49 -60 -95 0
49 -60 -96 0
49 -60 -97 0
49 -60 -98 0
49 -60 -99 0
49 -61 -86 0
49 -61 -87 0
49 -61 -88 0
49 -61 -89 0
49 -61 -90 0
49 -61 -91 0
49 -61 -92 0
49 -61 -93 0
49 -61 -94 0
49 -61 -95 0
49 -61 -96 0
49 -61 -97 0
49 -61 -98 0
49 -61 -99 0
49 -61 -100 0
49 -62 -87 0
49 -62 -88 0
49 -62 -89 0
49 -62 -90 0
49 -62 -91 0
49 -62 -92 0
49 -62 -93 0
49 -62 -94 0
49 -62 -95 0
49 -62 -96 0
49 -62 -97 0
49 -62 -98 0
49 -62 -99 0
49 -62 -100 0
49 -62 -101 0
49 -63 -88 0
49 -63 -89 0
49 -63 -90 0
49 -63 -91 0
49 -63 -92 0
49 -63 -93 0
49 -63 -94 0
49 -63 -95 0
49 -63 -96 0
49 -63 -97 0
49 -63 -98 0
49 -63 -99 0
49 -63 -100 0
49 -63 -101 0
49 -63 -102 0
49 -64 -95 0
49 -64 -96 0
49 -64 -97 0
49 -64 -98 0
49 -64 -99 0
49 -64 -100 0
49 -64 -101 0
49 -64 -102 0
49 -64 -103 0
49 -64 -104 0
49 -64 -105 0
49 -64 -106 0
49 -65 -96 0
49 -65 -97 0
49 -65 -98 0
49 -65 -99 0
49 -65 -100 0
49 -65 -101 0
49 -65 -102 0
49 -65 -103 0
49 -65 -104 0
49 -65 -105 0
49 -65 -106 0
49 -66 -96 0
49 -66 -97 0
49 -66 -98 0
49 -66 -99 0
49 -66 -100 0
49 -66 -101 0
49 -66 -102 0
49 -66 -103 0
49 -66 -104 0
49 -66 -105 0
49 -66 -106 0
49 -67 -96 0
49 -67 -97 0
49 -67 -98 0
49 -67 -99 0
49 -67 -100 0
49 -67 -101 0
49 -67 -102 0
49 -67 -103 0
49 -67 -104 0
49 -67 -105 0
49 -67 -106 0
49 -68 -96 0
49 -68 -97 0
49 -68 -98 0
49 -68 -99 0
49 -68 -100 0
49 -68 -101 0
49 -68 -102 0
49 -68 -103 0
49 -68 -104 0
49 -68 -105 0
49 -68 -106 0
49 -37 -107 0
49 -37 -108 0
49 -38 -107 0
49 -38 -108 0
49 -38 -109 0
49 -39 -107 0
49 -39 -108 0
49 -39 -109 0
49 -39 -110 0
49 -40 -107 0
49 -40 -108 0
49 -40 -109 0
49 -40 -110 0
49 -40 -111 0
49 -41 -108 0
49 -41 -109 0
49 -41 -110 0
49 -41 -111 0
49 -41 -112 0
49 -42 -114 0
49 -42 -115 0
49 -43 -114 0
49 -43 -115 0
49 -43 -116 0
49 -44 -114 0
49 -44 -115 0
49 -44 -116 0
49 -44 -117 0
49 -45 -114 0
49 -45 -115 0
49 -45 -116 0
49 -45 -117 0
49 -45 -118 0
49 -46 -115 0
49 -46 -116 0
49 -46 -117 0
49 -46 -118 0
49 -46 -119 0
49 -47 -116 0
49 -47 -117 0
49 -47 -118 0
49 -47 -119 0
49 -47 -120 0
49 -48 -117 0
49 -48 -118 0
49 -48 -119 0
49 -48 -120 0
49 -48 -121 0
49 -49 -118 0
49 -49 -119 0
49 -49 -120 0
49 -49 -121 0
49 -49 -122 0
49 -50 -119 0
49 -50 -120 0
49 -50 -121 0
49 -50 -122 0
49 -50 -123 0
49 -51 -120 0
49 -51 -121 0
49 -51 -122 0
49 -51 -123 0
49 -51 -124 0
49 -52 -121 0
49 -52 -122 0
49 -52 -123 0
49 -52 -124 0
49 -52 -125 0
49 -53 -122 0
49 -53 -123 0
49 -53 -124 0
49 -53 -125 0
49 -53 -126 0
49 -54 -123 0
49 -54 -124 0
49 -54 -125 0
49 -54 -126 0
49 -54 -127 0
49 -55 -124 0
49 -55 -125 0
49 -55 -126 0
49 -55 -127 0
49 -55 -128 0
49 -56 -125 0
49 -56 -126 0
49 -56 -127 0
49 -56 -128 0
49 -56 -129 0
49 -57 -126 0
49 -57 -127 0
49 -57 -128 0
49 -57 -129 0
49 -57 -130 0
49 -58 -127 0
49 -58 -128 0
49 -58 -129 0
49 -58 -130 0
49 -58 -131 0
49 -59 -128 0
49 -59 -129 0
49 -59 -130 0
49 -59 -131 0
49 -59 -132 0
49 -60 -129 0
49 -60 -130 0
49 -60 -131 0
49 -60 -132 0
49 -60 -133 0
49 -61 -130 0
49 -61 -131 0
49 -61 -132 0
49 -61 -133 0
49 -61 -134 0
49 -62 -131 0
49 -62 -132 0
49 -62 -133 0
49 -62 -134 0
49 -63 -132 0
49 -63 -133 0
49 -63 -134 0
49 -64 -136 0
49 -64 -137 0
49 -64 -138 0
49 -64 -139 0
49 -64 -140 0
49 -65 -137 0
49 -65 -138 0
49 -65 -139 0
49 -65 -140 0
49 -65 -141 0
49 -66 -138 0
49 -66 -139 0
49 -66 -140 0
49 -66 -141 0
49 -66 -142 0
49 -67 -139 0
49 -67 -140 0
49 -67 -141 0
49 -67 -142 0
49 -68 -140 0
49 -68 -141 0
49 -68 -142 0
49 -37 -199 0
49 -37 -200 0
49 -37 -201 0
49 -37 -202 0
49 -37 -203 0
49 -37 -204 0
49 -37 -205 0
49 -37 -206 0
49 -37 -207 0
49 -38 -199 0
49 -38 -200 0
49 -38 -201 0
49 -38 -202 0
49 -38 -203 0
49 -38 -204 0
49 -38 -205 0
49 -38 -206 0
49 -38 -207 0
49 -39 -199 0
49 -39 -200 0
49 -39 -201 0
49 -39 -202 0
49 -39 -203 0
49 -39 -204 0
49 -39 -205 0
49 -39 -206 0
49 -39 -207 0
49 -40 -199 0
49 -40 -200 0
49 -40 -201 0
49 -40 -202 0
49 -40 -203 0
49 -40 -204 0
49 -40 -205 0
49 -40 -206 0
49 -40 -207 0
49 -41 -199 0
49 -41 -200 0
49 -41 -201 0
49 -41 -202 0
49 -41 -203 0
49 -41 -204 0
49 -41 -205 0
49 -41 -206 0
49 -41 -207 0
49 -41 -208 0
49 -42 -201 0
49 -42 -202 0
49 -42 -203 0
49 -42 -204 0
49 -42 -205 0
49 -42 -206 0
49 -42 -207 0
49 -42 -208 0
49 -42 -209 0
49 -42 -210 0
49 -42 -211 0
49 -42 -212 0
49 -42 -213 0
49 -43 -202 0
49 -43 -203 0
49 -43 -204 0
49 -43 -205 0
49 -43 -206 0
49 -43 -207 0
49 -43 -208 0
49 -43 -209 0
49 -43 -210 0
49 -43 -211 0
49 -43 -212 0
49 -43 -213 0
49 -43 -214 0
49 -44 -203 0
49 -44 -204 0
49 -44 -205 0
49 -44 -206 0
49 -44 -207 0
49 -44 -208 0
49 -44 -209 0
49 -44 -210 0
49 -44 -211 0
49 -44 -212 0
49 -44 -213 0
49 -44 -214 0
49 -44 -215 0
49 -45 -204 0
49 -45 -205 0
49 -45 -206 0
49 -45 -207 0
49 -45 -208 0
49 -45 -209 0
49 -45 -210 0
49 -45 -211 0
49 -45 -212 0
49 -45 -213 0
49 -45 -214 0
49 -45 -215 0
49 -45 -216 0
49 -46 -205 0
49 -46 -206 0
49 -46 -207 0
49 -46 -208 0
49 -46 -209 0
49 -46 -210 0
49 -46 -211 0
49 -46 -212 0
49 -46 -213 0
49 -46 -214 0
49 -46 -215 0
49 -46 -216 0
49 -46 -217 0
49 -47 -206 0
49 -47 -207 0
49 -47 -208 0
49 -47 -209 0
49 -47 -210 0
49 -47 -211 0
49 -47 -212 0
49 -47 -213 0
49 -47 -214 0
49 -47 -215 0
49 -47 -216 0
49 -47 -217 0
49 -47 -218 0
49 -48 -207 0
49 -48 -208 0
49 -48 -209 0
49 -48 -210 0
49 -48 -211 0
49 -48 -212 0
49 -48 -213 0
49 -48 -214 0
49 -48 -215 0
49 -48 -216 0
49 -48 -217 0
49 -48 -218 0
49 -48 -219 0
49 -49 -208 0
49 -49 -209 0
49 -49 -210 0
49 -49 -211 0
49 -49 -212 0
49 -49 -213 0
49 -49 -214 0
49 -49 -215 0
49 -49 -216 0
49 -49 -217 0
49 -49 -218 0
49 -49 -219 0
49 -50 -208 0
49 -50 -209 0
49 -50 -210 0
49 -50 -211 0
49 -50 -212 0
49 -50 -213 0
49 -50 -214 0
49 -50 -215 0
49 -50 -216 0
49 -50 -217 0
49 -50 -218 0
49 -50 -219 0
49 -51 -208 0
49 -51 -209 0
49 -51 -210 0
49 -51 -211 0
49 -51 -212 0
49 -51 -213 0
49 -51 -214 0
49 -51 -215 0
49 -51 -216 0
49 -51 -217 0
49 -51 -218 0
49 -51 -219 0
49 -52 -208 0
49 -52 -209 0
49 -52 -210 0
49 -52 -211 0
49 -52 -212 0
49 -52 -213 0
49 -52 -214 0
49 -52 -215 0
49 -52 -216 0
49 -52 -217 0
49 -52 -218 0
49 -52 -219 0
49 -53 -208 0
49 -53 -209 0
49 -53 -210 0
49 -53 -211 0
49 -53 -212 0
49 -53 -213 0
49 -53 -214 0
49 -53 -215 0
49 -53 -216 0
49 -53 -217 0
49 -53 -218 0
49 -53 -219 0
49 -54 -208 0
49 -54 -209 0
49 -54 -210 0
49 -54 -211 0
49 -54 -212 0
49 -54 -213 0
49 -54 -214 0
49 -54 -215 0
49 -54 -216 0
49 -54 -217 0
49 -54 -218 0
49 -54 -219 0
49 -55 -208 0
49 -55 -209 0
49 -55 -210 0
49 -55 -211 0
49 -55 -212 0
49 -55 -213 0
49 -55 -214 0
49 -55 -215 0
49 -55 -216 0
49 -55 -217 0
49 -55 -218 0
49 -55 -219 0
49 -56 -208 0
49 -56 -209 0
49 -56 -210 0
49 -56 -211 0
49 -56 -212 0
49 -56 -213 0
49 -56 -214 0
49 -56 -215 0
49 -56 -216 0
49 -56 -217 0
49 -56 -218 0
49 -56 -219 0
49 -57 -208 0
49 -57 -209 0
49 -57 -210 0
49 -57 -211 0
49 -57 -212 0
49 -57 -213 0
49 -57 -214 0
49 -57 -215 0
49 -57 -216 0
49 -57 -217 0
49 -57 -218 0
49 -57 -219 0
49 -57 -220 0
49 -58 -209 0
49 -58 -210 0
49 -58 -211 0
49 -58 -212 0
49 -58 -213 0
49 -58 -214 0
49 -58 -215 0
49 -58 -216 0
49 -58 -217 0
49 -58 -218 0
49 -58 -219 0
49 -58 -220 0
49 -58 -221 0
49 -59 -210 0
49 -59 -211 0
49 -59 -212 0
49 -59 -213 0
49 -59 -214 0
49 -59 -215 0
49 -59 -216 0
49 -59 -217 0
49 -59 -218 0
49 -59 -219 0
49 -59 -220 0
49 -59 -221 0
49 -59 -222 0
49 -60 -211 0
49 -60 -212 0
49 -60 -213 0
49 -60 -214 0
49 -60 -215 0
49 -60 -216 0
49 -60 -217 0
49 -60 -218 0
49 -60 -219 0
49 -60 -220 0
49 -60 -221 0
49 -60 -222 0
49 -60 -223 0
49 -61 -212 0
49 -61 -213 0
49 -61 -214 0
49 -61 -215 0
49 -61 -216 0
49 -61 -217 0
49 -61 -218 0
49 -61 -219 0
49 -61 -220 0
49 -61 -221 0
49 -61 -222 0
49 -61 -223 0
49 -61 -224 0
49 -62 -213 0
49 -62 -214 0
49 -62 -215 0
49 -62 -216 0
49 -62 -217 0
49 -62 -218 0
49 -62 -219 0
49 -62 -220 0
49 -62 -221 0
49 -62 -222 0
49 -62 -223 0
49 -62 -224 0
49 -62 -225 0
49 -63 -214 0
49 -63 -215 0
49 -63 -216 0
49 -63 -217 0
49 -63 -218 0
49 -63 -219 0
49 -63 -220 0
49 -63 -221 0
49 -63 -222 0
49 -63 -223 0
49 -63 -224 0
49 -63 -225 0
49 -63 -226 0
49 -64 -219 0
49 -64 -220 0
49 -64 -221 0
49 -64 -222 0
49 -64 -223 0
49 -64 -224 0
49 -64 -225 0
49 -64 -226 0
49 -64 -227 0
49 -64 -228 0
49 -65 -220 0
49 -65 -221 0
49 -65 -222 0
49 -65 -223 0
49 -65 -224 0
49 -65 -225 0
49 -65 -226 0
49 -65 -227 0
49 -65 -228 0
49 -66 -220 0
49 -66 -221 0
49 -66 -222 0
49 -66 -223 0
49 -66 -224 0
49 -66 -225 0
49 -66 -226 0
49 -66 -227 0
49 -66 -228 0
49 -67 -220 0
49 -67 -221 0
49 -67 -222 0
49 -67 -223 0
49 -67 -224 0
49 -67 -225 0
49 -67 -226 0
49 -67 -227 0
49 -67 -228 0
49 -68 -220 0
49 -68 -221 0
49 -68 -222 0
49 -68 -223 0
49 -68 -224 0
49 -68 -225 0
49 -68 -226 0
49 -68 -227 0
49 -68 -228 0
49 -37 -229 0
49 -38 -229 0
49 -38 -230 0
49 -39 -229 0
49 -39 -230 0
49 -39 -231 0
49 -40 -230 0
49 -40 -231 0
49 -40 -232 0
49 -41 -231 0
49 -41 -232 0
49 -41 -233 0
49 -42 -235 0
49 -43 -235 0
49 -43 -236 0
49 -44 -235 0
49 -44 -236 0
49 -44 -237 0
49 -45 -236 0
49 -45 -237 0
49 -45 -238 0
49 -46 -237 0
49 -46 -238 0
49 -46 -239 0
49 -47 -238 0
49 -47 -239 0
49 -47 -240 0
49 -48 -239 0
49 -48 -240 0
49 -48 -241 0
49 -49 -240 0
49 -49 -241 0
49 -49 -242 0
49 -50 -241 0
49 -50 -242 0
49 -50 -243 0
49 -51 -242 0
49 -51 -243 0
49 -52 -243 0
49 -53 -244 0
49 -54 -244 0
49 -54 -245 0
49 -55 -244 0
49 -55 -245 0
49 -55 -246 0
49 -56 -245 0
49 -56 -246 0
49 -56 -247 0
49 -57 -246 0
49 -57 -247 0
49 -57 -248 0
49 -58 -247 0
49 -58 -248 0
49 -58 -249 0
49 -59 -248 0
49 -59 -249 0
49 -59 -250 0
49 -60 -249 0
49 -60 -250 0
49 -60 -251 0
49 -61 -250 0
49 -61 -251 0
49 -61 -252 0
49 -62 -251 0
49 -62 -252 0
49 -63 -252 0
49 -64 -254 0
49 -64 -255 0
49 -64 -256 0
49 -65 -255 0
49 -65 -256 0
49 -65 -257 0
49 -66 -256 0
49 -66 -257 0
49 -66 -258 0
49 -67 -257 0
49 -67 -258 0
49 -68 -258 0
49 -37 -613 0
49 -37 -614 0
49 -37 -615 0
49 -37 -616 0
49 -38 -613 0
49 -38 -614 0
49 -38 -615 0
49 -38 -616 0
49 -39 -613 0
49 -39 -614 0
49 -39 -615 0
49 -39 -616 0
49 -40 -613 0
49 -40 -614 0
49 -40 -615 0
49 -40 -616 0
49 -41 -613 0
49 -41 -614 0
49 -41 -615 0
49 -41 -616 0
49 -42 -613 0
49 -42 -614 0
49 -42 -615 0
49 -42 -616 0
49 -43 -613 0
49 -43 -614 0
49 -43 -615 0
49 -43 -616 0
49 -44 -614 0
49 -44 -615 0
49 -44 -616 0
49 -45 -615 0
49 -45 -616 0
49 -46 -616 0
49 -61 -617 0
49 -62 -617 0
49 -62 -618 0
49 -63 -617 0
49 -63 -618 0
49 -64 -617 0
49 -64 -618 0
49 -65 -617 0
49 -65 -618 0
49 -66 -617 0
49 -66 -618 0
49 -67 -617 0
49 -67 -618 0
49 -68 -617 0
49 -68 -618 0
49 -43 -619 0
49 -44 -620 0
49 -45 -621 0
49 -46 -622 0
49 -61 -623 0
49 -62 -624 0
49 -69 70 0
49 -71 114 0
49 -72 115 0
49 -73 116 0
49 -74 117 0
49 -75 118 0
49 -76 119 0
49 -77 120 0
49 -78 121 0
49 -79 122 0
49 -80 123 0
49 -81 107 0
49 -82 108 0
49 -83 109 0
49 -84 110 0
49 -85 111 0
49 -86 112 0
49 -87 113 0
49 -88 135 0
49 -89 136 0
49 -90 137 0
49 -91 138 0
49 -92 139 0
49 -93 140 0
49 -94 141 0
49 -95 142 0
49 -96 124 0
49 -97 125 0
49 -98 126 0
49 -99 127 0
49 -100 128 0
49 -101 129 0
49 -102 130 0
49 -103 131 0
49 -104 132 0
49 -105 133 0
49 -106 134 0
49 -71 -199 0
49 -72 -200 0
49 -73 -201 0
49 -74 -202 0
49 -75 -203 0
49 -76 -204 0
49 -77 -205 0
49 -78 -206 0
49 -79 -207 0
49 -81 -208 0
49 -82 -209 0
49 -83 -210 0
49 -84 -211 0
49 -85 -212 0
49 -86 -213 0
49 -89 -214 0
49 -90 -215 0
49 -91 -216 0
49 -92 -217 0
49 -93 -218 0
49 -94 -219 0
49 -97 -220 0
49 -98 -221 0
49 -99 -222 0
49 -100 -223 0
49 -101 -224 0
49 -102 -225 0
49 -103 -226 0
49 -104 -227 0
49 -105 -228 0
49 -71 -229 0
49 -71 -230 0
49 -71 -231 0
49 -71 -232 0
49 -71 -233 0
49 -71 -234 0
49 -72 -229 0
49 -72 -230 0
49 -72 -231 0
49 -72 -232 0
49 -72 -233 0
49 -72 -234 0
49 -73 -229 0
49 -73 -230 0
49 -73 -231 0
49 -73 -232 0
49 -73 -233 0
49 -73 -234 0
49 -73 -235 0
49 -74 -229 0
49 -74 -230 0
49 -74 -231 0
49 -74 -232 0
49 -74 -233 0
49 -74 -234 0
49 -74 -235 0
49 -74 -236 0
49 -75 -229 0
49 -75 -230 0
49 -75 -231 0
49 -75 -232 0
49 -75 -233 0
49 -75 -234 0
49 -75 -235 0
49 -75 -236 0
49 -75 -237 0
49 -76 -229 0
49 -76 -230 0
49 -76 -231 0
49 -76 -232 0
49 -76 -233 0
49 -76 -234 0
49 -76 -235 0
49 -76 -236 0
49 -76 -237 0
49 -76 -238 0
49 -77 -229 0
49 -77 -230 0
49 -77 -231 0
49 -77 -232 0
49 -77 -233 0
49 -77 -234 0
49 -77 -235 0
49 -77 -236 0
49 -77 -237 0
49 -77 -238 0
49 -77 -239 0
49 -78 -229 0
49 -78 -230 0
49 -78 -231 0
49 -78 -232 0
49 -78 -233 0
49 -78 -234 0
49 -78 -235 0
49 -78 -236 0
49 -78 -237 0
49 -78 -238 0
49 -78 -239 0
49 -78 -240 0
49 -79 -229 0
49 -79 -230 0
49 -79 -231 0
49 -79 -232 0
49 -79 -233 0
49 -79 -234 0
49 -79 -235 0
49 -79 -236 0
49 -79 -237 0
49 -79 -238 0
49 -79 -239 0
49 -79 -240 0
49 -79 -241 0
49 -80 -229 0
49 -80 -230 0
49 -80 -231 0
49 -80 -232 0
49 -80 -233 0
49 -80 -234 0
49 -80 -235 0
49 -80 -236 0
49 -80 -237 0
49 -80 -238 0
49 -80 -239 0
49 -80 -240 0
49 -80 -241 0
49 -80 -242 0
49 -81 -231 0
49 -81 -232 0
49 -81 -233 0
49 -81 -234 0
49 -81 -235 0
49 -81 -236 0
49 -81 -237 0
49 -81 -238 0
49 -81 -239 0
49 -81 -240 0
49 -81 -241 0
49 -81 -242 0
49 -81 -243 0
49 -81 -244 0
49 -81 -245 0
49 -81 -246 0
49 -81 -247 0
49 -81 -248 0
49 -82 -232 0
49 -82 -233 0
49 -82 -234 0
49 -82 -235 0
49 -82 -236 0
49 -82 -237 0
49 -82 -238 0
49 -82 -239 0
49 -82 -240 0
49 -82 -241 0
49 -82 -242 0
49 -82 -243 0
49 -82 -244 0
49 -82 -245 0
49 -82 -246 0
49 -82 -247 0
49 -82 -248 0
49 -82 -249 0
49 -83 -233 0
49 -83 -234 0
49 -83 -235 0
49 -83 -236 0
49 -83 -237 0
49 -83 -238 0
49 -83 -239 0
49 -83 -240 0
49 -83 -241 0
49 -83 -242 0
49 -83 -243 0
49 -83 -244 0
49 -83 -245 0
49 -83 -246 0
49 -83 -247 0
49 -83 -248 0
49 -83 -249 0
49 -83 -250 0
49 -84 -234 0
49 -84 -235 0
49 -84 -236 0
49 -84 -237 0
49 -84 -238 0
49 -84 -239 0
49 -84 -240 0
49 -84 -241 0
49 -84 -242 0
49 -84 -243 0
49 -84 -244 0
49 -84 -245 0
49 -84 -246 0
49 -84 -247 0
49 -84 -248 0
49 -84 -249 0
49 -84 -250 0
49 -84 -251 0
49 -85 -235 0
49 -85 -236 0
49 -85 -237 0
49 -85 -238 0
49 -85 -239 0
49 -85 -240 0
49 -85 -241 0
49 -85 -242 0
49 -85 -243 0
49 -85 -244 0
49 -85 -245 0
49 -85 -246 0
49 -85 -247 0
49 -85 -248 0
49 -85 -249 0
49 -85 -250 0
49 -85 -251 0
49 -85 -252 0
49 -86 -235 0
49 -86 -236 0
49 -86 -237 0
49 -86 -238 0
49 -86 -239 0
49 -86 -240 0
49 -86 -241 0
49 -86 -242 0
49 -86 -243 0
49 -86 -244 0
49 -86 -245 0
49 -86 -246 0
49 -86 -247 0
49 -86 -248 0
49 -86 -249 0
49 -86 -250 0
49 -86 -251 0
49 -86 -252 0
49 -87 -235 0
49 -87 -236 0
49 -87 -237 0
49 -87 -238 0
49 -87 -239 0
49 -87 -240 0
49 -87 -241 0
49 -87 -242 0
49 -87 -243 0
49 -87 -244 0
49 -87 -245 0
49 -87 -246 0
49 -87 -247 0
49 -87 -248 0
49 -87 -249 0
49 -87 -250 0
49 -87 -251 0
49 -87 -252 0
49 -88 -235 0
49 -88 -236 0
49 -88 -237 0
49 -88 -238 0
49 -88 -239 0
49 -88 -240 0
49 -88 -241 0
49 -88 -242 0
49 -88 -243 0
49 -88 -244 0
49 -88 -245 0
49 -88 -246 0
49 -88 -247 0
49 -88 -248 0
49 -88 -249 0
49 -88 -250 0
49 -88 -251 0
49 -88 -252 0
49 -89 -235 0
49 -89 -236 0
49 -89 -237 0
49 -89 -238 0
49 -89 -239 0
49 -89 -240 0
49 -89 -241 0
49 -89 -242 0
49 -89 -243 0
49 -89 -244 0
49 -89 -245 0
49 -89 -246 0
49 -89 -247 0
49 -89 -248 0
49 -89 -249 0
49 -89 -250 0
49 -89 -251 0
49 -89 -252 0
49 -90 -235 0
49 -90 -236 0
49 -90 -237 0
49 -90 -238 0
49 -90 -239 0
49 -90 -240 0
49 -90 -241 0
49 -90 -242 0
49 -90 -243 0
49 -90 -244 0
49 -90 -245 0
49 -90 -246 0
49 -90 -247 0
49 -90 -248 0
49 -90 -249 0
49 -90 -250 0
49 -90 -251 0
49 -90 -252 0
49 -91 -236 0
49 -91 -237 0
49 -91 -238 0
49 -91 -239 0
49 -91 -240 0
49 -91 -241 0
49 -91 -242 0
49 -91 -243 0
49 -91 -244 0
49 -91 -245 0
49 -91 -246 0
49 -91 -247 0
49 -91 -248 0
49 -91 -249 0
49 -91 -250 0
49 -91 -251 0
49 -91 -252 0
49 -91 -253 0
49 -92 -237 0
49 -92 -238 0
49 -92 -239 0
49 -92 -240 0
49 -92 -241 0
49 -92 -242 0
49 -92 -243 0
49 -92 -244 0
49 -92 -245 0
49 -92 -246 0
49 -92 -247 0
49 -92 -248 0
49 -92 -249 0
49 -92 -250 0
49 -92 -251 0
49 -92 -252 0
49 -92 -253 0
49 -92 -254 0
49 -93 -238 0
49 -93 -239 0
49 -93 -240 0
49 -93 -241 0
49 -93 -242 0
49 -93 -243 0
49 -93 -244 0
49 -93 -245 0
49 -93 -246 0
49 -93 -247 0
49 -93 -248 0
49 -93 -249 0
49 -93 -250 0
49 -93 -251 0
49 -93 -252 0
49 -93 -253 0
49 -93 -254 0
49 -93 -255 0
49 -94 -239 0
49 -94 -240 0
49 -94 -241 0
49 -94 -242 0
49 -94 -243 0
49 -94 -244 0
49 -94 -245 0
49 -94 -246 0
49 -94 -247 0
49 -94 -248 0
49 -94 -249 0
49 -94 -250 0
49 -94 -251 0
49 -94 -252 0
49 -94 -253 0
49 -94 -254 0
49 -94 -255 0
49 -94 -256 0
49 -95 -240 0
49 -95 -241 0
49 -95 -242 0
49 -95 -243 0
49 -95 -244 0
49 -95 -245 0
49 -95 -246 0
49 -95 -247 0
49 -95 -248 0
49 -95 -249 0
49 -95 -250 0
49 -95 -251 0
49 -95 -252 0
49 -95 -253 0
49 -95 -254 0
49 -95 -255 0
49 -95 -256 0
49 -95 -257 0
49 -96 -245 0
49 -96 -246 0
49 -96 -247 0
49 -96 -248 0
49 -96 -249 0
49 -96 -250 0
49 -96 -251 0
49 -96 -252 0
49 -96 -253 0
49 -96 -254 0
49 -96 -255 0
49 -96 -256 0
49 -96 -257 0
49 -96 -258 0
49 -97 -246 0
49 -97 -247 0
49 -97 -248 0
49 -97 -249 0
49 -97 -250 0
49 -97 -251 0
49 -97 -252 0
49 -97 -253 0
49 -97 -254 0
49 -97 -255 0
49 -97 -256 0
49 -97 -257 0
49 -97 -258 0
49 -98 -247 0
49 -98 -248 0
49 -98 -249 0
49 -98 -250 0
49 -98 -251 0
49 -98 -252 0
49 -98 -253 0
49 -98 -254 0
49 -98 -255 0
49 -98 -256 0
49 -98 -257 0
49 -98 -258 0
49 -99 -248 0
49 -99 -249 0
49 -99 -250 0
49 -99 -251 0
49 -99 -252 0
49 -99 -253 0
49 -99 -254 0
49 -99 -255 0
49 -99 -256 0
49 -99 -257 0
49 -99 -258 0
49 -100 -249 0
49 -100 -250 0
49 -100 -251 0
49 -100 -252 0
49 -100 -253 0
49 -100 -254 0
49 -100 -255 0
49 -100 -256 0
49 -100 -257 0
49 -100 -258 0
49 -101 -250 0
49 -101 -251 0
49 -101 -252 0
49 -101 -253 0
49 -101 -254 0
49 -101 -255 0
49 -101 -256 0
49 -101 -257 0
49 -101 -258 0
49 -102 -251 0
49 -102 -252 0
49 -102 -253 0
49 -102 -254 0
49 -102 -255 0
49 -102 -256 0
49 -102 -257 0
49 -102 -258 0
49 -103 -252 0
49 -103 -253 0
49 -103 -254 0
49 -103 -255 0
49 -103 -256 0
49 -103 -257 0
49 -103 -258 0
49 -104 -253 0
49 -104 -254 0
49 -104 -255 0
49 -104 -256 0
49 -104 -257 0
49 -104 -258 0
49 -105 -253 0
49 -105 -254 0
49 -105 -255 0
49 -105 -256 0
49 -105 -257 0
49 -105 -258 0
49 -106 -253 0
49 -106 -254 0
49 -106 -255 0
49 -106 -256 0
49 -106 -257 0
49 -106 -258 0
49 -71 -613 0
49 -71 -614 0
49 -71 -615 0
49 -71 -616 0
49 -72 -613 0
49 -72 -614 0
49 -72 -615 0
49 -72 -616 0
49 -73 -613 0
49 -73 -614 0
49 -73 -615 0
49 -73 -616 0
49 -74 -613 0
49 -74 -614 0
49 -74 -615 0
49 -74 -616 0
49 -75 -614 0
49 -75 -615 0
49 -75 -616 0
49 -76 -615 0
49 -76 -616 0
49 -77 -616 0
49 -101 -617 0
49 -102 -617 0
49 -102 -618 0
49 -103 -617 0
49 -103 -618 0
49 -104 -617 0
49 -104 -618 0
49 -105 -617 0
49 -105 -618 0
49 -106 -617 0
49 -106 -618 0
49 -76 -619 0
49 -77 -619 0
49 -77 -620 0
49 -78 -619 0
49 -78 -620 0
49 -78 -621 0
49 -79 -619 0
49 -79 -620 0
49 -79 -621 0
49 -79 -622 0
49 -80 -619 0
49 -80 -620 0
49 -80 -621 0
49 -80 -622 0
49 -81 -619 0
49 -81 -620 0
49 -81 -621 0
49 -81 -622 0
49 -82 -619 0
49 -82 -620 0
49 -82 -621 0
49 -82 -622 0
49 -83 -619 0
49 -83 -620 0
49 -83 -621 0
49 -83 -622 0
49 -84 -619 0
49 -84 -620 0
49 -84 -621 0
49 -84 -622 0
49 -85 -619 0
49 -85 -620 0
49 -85 -621 0
49 -85 -622 0
49 -86 -619 0
49 -86 -620 0
49 -86 -621 0
49 -86 -622 0
49 -87 -619 0
49 -87 -620 0
49 -87 -621 0
49 -87 -622 0
49 -87 -623 0
49 -88 -620 0
49 -88 -621 0
49 -88 -622 0
49 -88 -623 0
49 -88 -624 0
49 -89 -621 0
49 -89 -622 0
49 -89 -623 0
49 -89 -624 0
49 -90 -622 0
49 -90 -623 0
49 -90 -624 0
49 -91 -623 0
49 -91 -624 0
49 -92 -623 0
49 -92 -624 0
49 -93 -623 0
49 -93 -624 0
49 -94 -623 0
49 -94 -624 0
49 -95 -623 0
49 -95 -624 0
49 -96 -623 0
49 -96 -624 0
49 -97 -623 0
49 -97 -624 0
49 -98 -623 0
49 -98 -624 0
49 -99 -623 0
49 -99 -624 0
49 -100 -624 0
49 -107 -199 0
49 -107 -200 0
49 -107 -201 0
49 -107 -202 0
49 -107 -203 0
49 -107 -204 0
49 -107 -205 0
49 -107 -206 0
49 -107 -207 0
49 -107 -208 0
49 -108 -199 0
49 -108 -200 0
49 -108 -201 0
49 -108 -202 0
49 -108 -203 0
49 -108 -204 0
49 -108 -205 0
49 -108 -206 0
49 -108 -207 0
49 -108 -208 0
49 -108 -209 0
49 -109 -199 0
49 -109 -200 0
49 -109 -201 0
49 -109 -202 0
49 -109 -203 0
49 -109 -204 0
49 -109 -205 0
49 -109 -206 0
49 -109 -207 0
49 -109 -208 0
49 -109 -209 0
49 -109 -210 0
49 -110 -199 0
49 -110 -200 0
49 -110 -201 0
49 -110 -202 0
49 -110 -203 0
49 -110 -204 0
49 -110 -205 0
49 -110 -206 0
49 -110 -207 0
49 -110 -208 0
49 -110 -209 0
49 -110 -210 0
49 -110 -211 0
49 -111 -199 0
49 -111 -200 0
49 -111 -201 0
49 -111 -202 0
49 -111 -203 0
49 -111 -204 0
49 -111 -205 0
49 -111 -206 0
49 -111 -207 0
49 -111 -208 0
49 -111 -209 0
49 -111 -210 0
49 -111 -211 0
49 -111 -212 0
49 -112 -199 0
49 -112 -200 0
49 -112 -201 0
49 -112 -202 0
49 -112 -203 0
49 -112 -204 0
49 -112 -205 0
49 -112 -206 0
49 -112 -207 0
49 -112 -208 0
49 -112 -209 0
49 -112 -210 0
49 -112 -211 0
49 -112 -212 0
49 -112 -213 0
49 -113 -199 0
49 -113 -200 0
49 -113 -201 0
49 -113 -202 0
49 -113 -203 0
49 -113 -204 0
49 -113 -205 0
49 -113 -206 0
49 -113 -207 0
49 -113 -208 0
49 -113 -209 0
49 -113 -210 0
49 -113 -211 0
49 -113 -212 0
49 -113 -213 0
49 -114 -199 0
49 -114 -200 0
49 -114 -201 0
49 -114 -202 0
49 -114 -203 0
49 -114 -204 0
49 -114 -205 0
49 -114 -206 0
49 -114 -207 0
49 -114 -208 0
49 -114 -209 0
49 -114 -210 0
49 -114 -211 0
49 -114 -212 0
49 -114 -213 0
49 -114 -214 0
49 -114 -215 0
49 -114 -216 0
49 -114 -217 0
49 -115 -200 0
49 -115 -201 0
49 -115 -202 0
49 -115 -203 0
49 -115 -204 0
49 -115 -205 0
49 -115 -206 0
49 -115 -207 0
49 -115 -208 0
49 -115 -209 0
49 -115 -210 0
49 -115 -211 0
49 -115 -212 0
49 -115 -213 0
49 -115 -214 0
49 -115 -215 0
49 -115 -216 0
49 -115 -217 0
49 -115 -218 0
49 -116 -201 0
49 -116 -202 0
49 -116 -203 0
49 -116 -204 0
49 -116 -205 0
49 -116 -206 0
49 -116 -207 0
49 -116 -208 0
49 -116 -209 0
49 -116 -210 0
49 -116 -211 0
49 -116 -212 0
49 -116 -213 0
49 -116 -214 0
49 -116 -215 0
49 -116 -216 0
49 -116 -217 0
49 -116 -218 0
49 -116 -219 0
49 -117 -202 0
49 -117 -203 0
49 -117 -204 0
49 -117 -205 0
49 -117 -206 0
49 -117 -207 0
49 -117 -208 0
49 -117 -209 0
49 -117 -210 0
49 -117 -211 0
49 -117 -212 0
49 -117 -213 0
49 -117 -214 0
49 -117 -215 0
49 -117 -216 0
49 -117 -217 0
49 -117 -218 0
49 -117 -219 0
49 -118 -203 0
49 -118 -204 0
49 -118 -205 0
49 -118 -206 0
49 -118 -207 0
49 -118 -208 0
49 -118 -209 0
49 -118 -210 0
49 -118 -211 0
49 -118 -212 0
49 -118 -213 0
49 -118 -214 0
49 -118 -215 0
49 -118 -216 0
49 -118 -217 0
49 -118 -218 0
49 -118 -219 0
49 -119 -204 0
49 -119 -205 0
49 -119 -206 0
49 -119 -207 0
49 -119 -208 0
49 -119 -209 0
49 -119 -210 0
49 -119 -211 0
49 -119 -212 0
49 -119 -213 0
49 -119 -214 0
49 -119 -215 0
49 -119 -216 0
49 -119 -217 0
49 -119 -218 0
49 -119 -219 0
49 -120 -205 0
49 -120 -206 0
49 -120 -207 0
49 -120 -208 0
49 -120 -209 0
49 -120 -210 0
49 -120 -211 0
49 -120 -212 0
49 -120 -213 0
49 -120 -214 0
49 -120 -215 0
49 -120 -216 0
49 -120 -217 0
49 -120 -218 0
49 -120 -219 0
49 -121 -206 0
49 -121 -207 0
49 -121 -208 0
49 -121 -209 0
49 -121 -210 0
49 -121 -211 0
49 -121 -212 0
49 -121 -213 0
49 -121 -214 0
49 -121 -215 0
49 -121 -216 0
49 -121 -217 0
49 -121 -218 0
49 -121 -219 0
49 -122 -207 0
49 -122 -208 0
49 -122 -209 0
49 -122 -210 0
49 -122 -211 0
49 -122 -212 0
49 -122 -213 0
49 -122 -214 0
49 -122 -215 0
49 -122 -216 0
49 -122 -217 0
49 -122 -218 0
49 -122 -219 0
49 -123 -208 0
49 -123 -209 0
49 -123 -210 0
49 -123 -211 0
49 -123 -212 0
49 -123 -213 0
49 -123 -214 0
49 -123 -215 0
49 -123 -216 0
49 -123 -217 0
49 -123 -218 0
49 -123 -219 0
49 -124 -208 0
49 -124 -209 0
49 -124 -210 0
49 -124 -211 0
49 -124 -212 0
49 -124 -213 0
49 -124 -214 0
49 -124 -215 0
49 -124 -216 0
49 -124 -217 0
49 -124 -218 0
49 -124 -219 0
49 -125 -208 0
49 -125 -209 0
49 -125 -210 0
49 -125 -211 0
49 -125 -212 0
49 -125 -213 0
49 -125 -214 0
49 -125 -215 0
49 -125 -216 0
49 -125 -217 0
49 -125 -218 0
49 -125 -219 0
49 -125 -220 0
49 -126 -208 0
49 -126 -209 0
49 -126 -210 0
49 -126 -211 0
49 -126 -212 0
49 -126 -213 0
49 -126 -214 0
49 -126 -215 0
49 -126 -216 0
49 -126 -217 0
49 -126 -218 0
49 -126 -219 0
49 -126 -220 0
49 -126 -221 0
49 -127 -208 0
49 -127 -209 0
49 -127 -210 0
49 -127 -211 0
49 -127 -212 0
49 -127 -213 0
49 -127 -214 0
49 -127 -215 0
49 -127 -216 0
49 -127 -217 0
49 -127 -218 0
49 -127 -219 0
49 -127 -220 0
49 -127 -221 0
49 -127 -222 0
49 -128 -208 0
49 -128 -209 0
49 -128 -210 0
49 -128 -211 0
49 -128 -212 0
49 -128 -213 0
49 -128 -214 0
49 -128 -215 0
49 -128 -216 0
49 -128 -217 0
49 -128 -218 0
49 -128 -219 0
49 -128 -220 0
49 -128 -221 0
49 -128 -222 0
49 -128 -223 0
49 -129 -208 0
49 -129 -209 0
49 -129 -210 0
49 -129 -211 0
49 -129 -212 0
49 -129 -213 0
49 -129 -214 0
49 -129 -215 0
49 -129 -216 0
49 -129 -217 0
49 -129 -218 0
49 -129 -219 0
49 -129 -220 0
49 -129 -221 0
49 -129 -222 0
49 -129 -223 0
49 -129 -224 0
49 -130 -208 0
49 -130 -209 0
49 -130 -210 0
49 -130 -211 0
49 -130 -212 0
49 -130 -213 0
49 -130 -214 0
49 -130 -215 0
49 -130 -216 0
49 -130 -217 0
49 -130 -218 0
49 -130 -219 0
49 -130 -220 0
49 -130 -221 0
49 -130 -222 0
49 -130 -223 0
49 -130 -224 0
49 -130 -225 0
49 -131 -208 0
49 -131 -209 0
49 -131 -210 0
49 -131 -211 0
49 -131 -212 0
49 -131 -213 0
49 -131 -214 0
49 -131 -215 0
49 -131 -216 0
49 -131 -217 0
49 -131 -218 0
49 -131 -219 0
49 -131 -220 0
49 -131 -221 0
49 -131 -222 0
49 -131 -223 0
49 -131 -224 0
49 -131 -225 0
49 -131 -226 0
49 -132 -209 0
49 -132 -210 0
49 -132 -211 0
49 -132 -212 0
49 -132 -213 0
49 -132 -214 0
49 -132 -215 0
49 -132 -216 0
49 -132 -217 0
49 -132 -218 0
49 -132 -219 0
49 -132 -220 0
49 -132 -221 0
49 -132 -222 0
49 -132 -223 0
49 -132 -224 0
49 -132 -225 0
49 -132 -226 0
49 -132 -227 0
49 -133 -210 0
49 -133 -211 0
49 -133 -212 0
49 -133 -213 0
49 -133 -214 0
49 -133 -215 0
49 -133 -216 0
49 -133 -217 0
49 -133 -218 0
49 -133 -219 0
49 -133 -220 0
49 -133 -221 0
49 -133 -222 0
49 -133 -223 0
49 -133 -224 0
49 -133 -225 0
49 -133 -226 0
49 -133 -227 0
49 -133 -228 0
49 -134 -211 0
49 -134 -212 0
49 -134 -213 0
49 -134 -214 0
49 -134 -215 0
49 -134 -216 0
49 -134 -217 0
49 -134 -218 0
49 -134 -219 0
49 -134 -220 0
49 -134 -221 0
49 -134 -222 0
49 -134 -223 0
49 -134 -224 0
49 -134 -225 0
49 -134 -226 0
49 -134 -227 0
49 -134 -228 0
49 -135 -214 0
49 -135 -215 0
49 -135 -216 0
49 -135 -217 0
49 -135 -218 0
49 -135 -219 0
49 -135 -220 0
49 -135 -221 0
49 -135 -222 0
49 -135 -223 0
49 -135 -224 0
49 -135 -225 0
49 -135 -226 0
49 -135 -227 0
49 -135 -228 0
49 -136 -214 0
49 -136 -215 0
49 -136 -216 0
49 -136 -217 0
49 -136 -218 0
49 -136 -219 0
49 -136 -220 0
49 -136 -221 0
49 -136 -222 0
49 -136 -223 0
49 -136 -224 0
49 -136 -225 0
49 -136 -226 0
49 -136 -227 0
49 -136 -228 0
49 -137 -215 0
49 -137 -216 0
49 -137 -217 0
49 -137 -218 0
49 -137 -219 0
49 -137 -220 0
49 -137 -221 0
49 -137 -222 0
49 -137 -223 0
49 -137 -224 0
49 -137 -225 0
49 -137 -226 0
49 -137 -227 0
49 -137 -228 0
49 -138 -216 0
49 -138 -217 0
49 -138 -218 0
49 -138 -219 0
49 -138 -220 0
49 -138 -221 0
49 -138 -222 0
49 -138 -223 0
49 -138 -224 0
49 -138 -225 0
49 -138 -226 0
49 -138 -227 0
49 -138 -228 0
49 -139 -217 0
49 -139 -218 0
49 -139 -219 0
49 -139 -220 0
49 -139 -221 0
49 -139 -222 0
49 -139 -223 0
49 -139 -224 0
49 -139 -225 0
49 -139 -226 0
49 -139 -227 0
49 -139 -228 0
49 -140 -218 0
49 -140 -219 0
49 -140 -220 0
49 -140 -221 0
49 -140 -222 0
49 -140 -223 0
49 -140 -224 0
49 -140 -225 0
49 -140 -226 0
49 -140 -227 0
49 -140 -228 0
49 -141 -219 0
49 -141 -220 0
49 -141 -221 0
49 -141 -222 0
49 -141 -223 0
49 -141 -224 0
49 -141 -225 0
49 -141 -226 0
49 -141 -227 0
49 -141 -228 0
49 -142 -220 0
49 -142 -221 0
49 -142 -222 0
49 -142 -223 0
49 -142 -224 0
49 -142 -225 0
49 -142 -226 0
49 -142 -227 0
49 -142 -228 0
49 -107 -229 0
49 -108 -230 0
49 -109 -231 0
49 -110 -232 0
49 -111 -233 0
49 -112 -234 0
49 -114 -235 0
49 -115 -236 0
49 -116 -237 0
49 -117 -238 0
49 -118 -239 0
49 -119 -240 0
49 -120 -241 0
49 -121 -242 0
49 -122 -243 0
49 -125 -244 0
49 -126 -245 0
49 -127 -246 0
49 -128 -247 0
49 -129 -248 0
49 -130 -249 0
49 -131 -250 0
49 -132 -251 0
49 -133 -252 0
49 -136 -253 0
49 -137 -254 0
49 -138 -255 0
49 -139 -256 0
49 -140 -257 0
49 -141 -258 0
49 -107 -613 0
49 -107 -614 0
49 -107 -615 0
49 -107 -616 0
49 -108 -613 0
49 -108 -614 0
49 -108 -615 0
49 -108 -616 0
49 -109 -613 0
49 -109 -614 0
49 -109 -615 0
49 -109 -616 0
49 -110 -613 0
49 -110 -614 0
49 -110 -615 0
49 -110 -616 0
49 -111 -613 0
49 -111 -614 0
49 -111 -615 0
49 -111 -616 0
49 -112 -613 0
49 -112 -614 0
49 -112 -615 0
49 -112 -616 0
49 -113 -613 0
49 -113 -614 0
49 -113 -615 0
49 -113 -616 0
49 -114 -613 0
49 -114 -614 0
49 -114 -615 0
49 -114 -616 0
49 -115 -613 0
49 -115 -614 0
49 -115 -615 0
49 -115 -616 0
49 -116 -613 0
49 -116 -614 0
49 -116 -615 0
49 -116 -616 0
49 -117 -613 0
49 -117 -614 0
49 -117 -615 0
49 -117 -616 0
49 -118 -614 0
49 -118 -615 0
49 -118 -616 0
49 -119 -615 0
49 -119 -616 0
49 -120 -616 0
49 -129 -617 0
49 -130 -617 0
49 -130 -618 0
49 -131 -617 0
49 -131 -618 0
49 -132 -617 0
49 -132 -618 0
49 -133 -617 0
49 -133 -618 0
49 -134 -617 0
49 -134 -618 0
49 -135 -617 0
49 -135 -618 0
49 -136 -617 0
49 -136 -618 0
49 -137 -617 0
49 -137 -618 0
49 -138 -617 0
49 -138 -618 0
49 -139 -617 0
49 -139 -618 0
49 -140 -617 0
49 -140 -618 0
49 -141 -617 0
49 -141 -618 0
49 -142 -617 0
49 -142 -618 0
49 -114 -619 0
49 -114 -620 0
49 -114 -621 0
49 -114 -622 0
49 -115 -619 0
49 -115 -620 0
49 -115 -621 0
49 -115 -622 0
49 -116 -619 0
49 -116 -620 0
49 -116 -621 0
49 -116 -622 0
49 -117 -619 0
49 -117 -620 0
49 -117 -621 0
49 -117 -622 0
49 -118 -620 0
49 -118 -621 0
49 -118 -622 0
49 -119 -621 0
49 -119 -622 0
49 -120 -622 0
49 -129 -623 0
49 -130 -623 0
49 -130 -624 0
49 -131 -623 0
49 -131 -624 0
49 -132 -623 0
49 -132 -624 0
49 -133 -623 0
49 -133 -624 0
49 -134 -623 0
49 -134 -624 0
49 -143 154 0
49 -144 155 0
49 -145 156 0
49 -146 157 0
49 -147 158 0
49 -148 159 0
49 -149 160 0
49 -150 161 0
49 -151 162 0
49 -152 163 0
49 -153 164 0
49 -147 -168 0
49 -148 -168 0
49 -149 -168 0
49 -143 -170 0
49 -144 -170 0
49 -145 -170 0
49 -146 -170 0
49 -147 -170 0
49 -148 -170 0
49 -149 -170 0
49 -150 -170 0
49 -151 -170 0
49 -152 -170 0
49 -165 166 0
49 -167 169 0
49 -168 170 0
49 -168 -443 0
49 -168 -444 0
49 -168 -445 0
49 -168 -446 0
49 -168 -447 0
49 -168 -448 0
49 -168 -449 0
49 -168 -450 0
49 -168 -451 0
49 -168 -452 0
49 -170 -443 0
49 -170 -444 0
49 -170 -445 0
49 -170 -446 0
49 -170 -447 0
49 -170 -448 0
49 -170 -449 0
49 -170 -450 0
49 -170 -451 0
49 -171 172 0
49 -173 174 0
49 -175 176 0
49 -177 178 0
49 -179 180 0
49 -181 184 0
49 -182 185 0
49 -183 186 0
49 -187 188 0
49 -189 190 0
49 -191 192 0
49 -193 194 0
49 -195 196 0
49 -197 198 0
49 -199 235 0
49 -200 236 0
49 -201 237 0
49 -202 238 0
49 -203 239 0
49 -204 240 0
49 -205 241 0
49 -206 242 0
49 -207 243 0
49 -208 229 0
49 -209 230 0
49 -210 231 0
49 -211 232 0
49 -212 233 0
49 -213 234 0
49 -214 253 0
49 -215 254 0
49 -216 255 0
49 -217 256 0
49 -218 257 0
49 -219 258 0
49 -220 244 0
49 -221 245 0
49 -222 246 0
49 -223 247 0
49 -224 248 0
49 -225 249 0
49 -226 250 0
49 -227 251 0
49 -228 252 0
49 -199 -613 0
49 -199 -614 0
49 -199 -615 0
49 -200 -613 0
49 -200 -614 0
49 -200 -615 0
49 -200 -616 0
49 -201 -613 0
49 -201 -614 0
49 -201 -615 0
49 -201 -616 0
49 -202 -614 0
49 -202 -615 0
49 -202 -616 0
49 -203 -615 0
49 -203 -616 0
49 -204 -616 0
49 -225 -617 0
49 -226 -617 0
49 -226 -618 0
49 -227 -617 0
49 -227 -618 0
49 -228 -617 0
49 -228 -618 0
49 -203 -619 0
49 -204 -619 0
49 -204 -620 0
49 -205 -619 0
49 -205 -620 0
49 -205 -621 0
49 -206 -619 0
49 -206 -620 0
49 -206 -621 0
49 -206 -622 0
49 -207 -619 0
49 -207 -620 0
49 -207 -621 0
49 -207 -622 0
49 -208 -619 0
49 -208 -620 0
49 -208 -621 0
49 -208 -622 0
49 -209 -619 0
49 -209 -620 0
49 -209 -621 0
49 -209 -622 0
49 -210 -619 0
49 -210 -620 0
49 -210 -621 0
49 -210 -622 0
49 -211 -619 0
49 -211 -620 0
49 -211 -621 0
49 -211 -622 0
49 -212 -619 0
49 -212 -620 0
49 -212 -621 0
49 -212 -622 0
49 -213 -619 0
49 -213 -620 0
49 -213 -621 0
49 -213 -622 0
49 -213 -623 0
49 -214 -620 0
49 -214 -621 0
49 -214 -622 0
49 -214 -623 0
49 -214 -624 0
49 -215 -621 0
49 -215 -622 0
49 -215 -623 0
49 -215 -624 0
49 -216 -622 0
49 -216 -623 0
49 -216 -624 0
49 -217 -623 0
49 -217 -624 0
49 -218 -623 0
49 -218 -624 0
49 -219 -623 0
49 -219 -624 0
49 -220 -623 0
49 -220 -624 0
49 -221 -623 0
49 -221 -624 0
49 -222 -623 0
49 -222 -624 0
49 -223 -623 0
49 -223 -624 0
49 -224 -624 0
49 -229 -613 0
49 -229 -614 0
49 -229 -615 0
49 -229 -616 0
49 -230 -613 0
49 -230 -614 0
49 -230 -615 0
49 -230 -616 0
49 -231 -613 0
49 -231 -614 0
49 -231 -615 0
49 -231 -616 0
49 -232 -613 0
49 -232 -614 0
49 -232 -615 0
49 -232 -616 0
49 -233 -613 0
49 -233 -614 0
49 -233 -615 0
49 -233 -616 0
49 -234 -613 0
49 -234 -614 0
49 -234 -615 0
49 -234 -616 0
49 -235 -613 0
49 -235 -614 0
49 -235 -615 0
49 -235 -616 0
49 -236 -613 0
49 -236 -614 0
49 -236 -615 0
49 -236 -616 0
49 -237 -613 0
49 -237 -614 0
49 -237 -615 0
49 -237 -616 0
49 -238 -614 0
49 -238 -615 0
49 -238 -616 0
49 -239 -615 0
49 -239 -616 0
49 -240 -616 0
49 -249 -617 0
49 -250 -617 0
49 -250 -618 0
49 -251 -617 0
49 -251 -618 0
49 -252 -617 0
49 -252 -618 0
49 -253 -617 0
49 -253 -618 0
49 -254 -617 0
49 -254 -618 0
49 -255 -617 0
49 -255 -618 0
49 -256 -617 0
49 -256 -618 0
49 -257 -617 0
49 -257 -618 0
49 -258 -617 0
49 -258 -618 0
49 -235 -619 0
49 -235 -620 0
49 -235 -621 0
49 -236 -619 0
49 -236 -620 0
49 -236 -621 0
49 -236 -622 0
49 -237 -619 0
49 -237 -620 0
49 -237 -621 0
49 -237 -622 0
49 -238 -620 0
49 -238 -621 0
49 -238 -622 0
49 -239 -621 0
49 -239 -622 0
49 -240 -622 0
49 -249 -623 0
49 -250 -623 0
49 -250 -624 0
49 -251 -623 0
49 -251 -624 0
49 -252 -623 0
49 -252 -624 0
49 -259 262 0
49 -260 263 0
49 -261 264 0
49 -265 266 0
49 -267 268 0
49 -269 280 0
49 -270 281 0
49 -271 282 0
49 -272 283 0
49 -273 284 0
49 -274 285 0
49 -275 286 0
49 -276 287 0
49 -277 288 0
49 -278 289 0
49 -279 290 0
49 -291 292 0
49 -293 294 0
49 -295 296 0
49 -297 298 0
49 -299 300 0
49 -301 302 0
49 -303 306 0
49 -304 307 0
49 -305 308 0
49 -309 310 0
49 -311 312 0
49 -313 317 0
49 -314 318 0
49 -315 319 0
49 -316 320 0
49 -314 -495 0
49 -314 -496 0
49 -314 -497 0
49 -314 -498 0
49 -314 -499 0
49 -314 -500 0
49 -314 -501 0
49 -314 -502 0
49 -314 -503 0
49 -314 -504 0
49 -315 -496 0
49 -315 -497 0
49 -315 -498 0
49 -315 -499 0
49 -315 -500 0
49 -315 -501 0
49 -315 -502 0
49 -315 -503 0
49 -315 -504 0
49 -316 -497 0
49 -316 -498 0
49 -316 -499 0
49 -316 -500 0
49 -316 -501 0
49 -316 -502 0
49 -316 -503 0
49 -316 -504 0
49 -315 -516 0
49 -316 -516 0
49 -316 -517 0
49 -314 -522 0
49 -314 -523 0
49 -314 -524 0
49 -315 -523 0
49 -315 -524 0
49 -316 -524 0
49 -314 -601 0
49 -314 -602 0
49 -314 -603 0
49 -314 -604 0
49 -314 -605 0
49 -314 -606 0
49 -315 -602 0
49 -315 -603 0
49 -315 -604 0
49 -315 -605 0
49 -315 -606 0
49 -316 -603 0
49 -316 -604 0
49 -316 -605 0
49 -316 -606 0
49 -318 -483 0
49 -318 -484 0
49 -318 -485 0
49 -318 -486 0
49 -318 -487 0
49 -318 -488 0
49 -318 -489 0
49 -318 -490 0
49 -319 -483 0
49 -319 -484 0
49 -319 -485 0
49 -319 -486 0
49 -319 -487 0
49 -319 -488 0
49 -319 -489 0
49 -319 -490 0
49 -319 -491 0
49 -320 -483 0
49 -320 -484 0
49 -320 -485 0
49 -320 -486 0
49 -320 -487 0
49 -320 -488 0
49 -320 -489 0
49 -320 -490 0
49 -320 -491 0
49 -320 -492 0
49 -318 -495 0
49 -318 -496 0
49 -318 -497 0
49 -318 -498 0
49 -318 -499 0
49 -318 -500 0
49 -318 -501 0
49 -319 -496 0
49 -319 -497 0
49 -319 -498 0
49 -319 -499 0
49 -319 -500 0
49 -319 -501 0
49 -319 -502 0
49 -320 -497 0
49 -320 -498 0
49 -320 -499 0
49 -320 -500 0
49 -320 -501 0
49 -320 -502 0
49 -320 -503 0
49 -319 -516 0
49 -320 -516 0
49 -320 -517 0
49 -319 -521 0
49 -320 -521 0
49 -320 -522 0
49 -321 324 0
49 -322 325 0
49 -323 326 0
49 -327 328 0
49 -329 330 0
49 -331 332 0
49 -333 334 0
49 -335 336 0
49 -337 338 0
49 -339 340 0
49 -341 342 0
49 -343 354 0
49 -344 355 0
49 -345 356 0
49 -346 357 0
49 -347 358 0
49 -348 359 0
49 -349 360 0
49 -350 361 0
49 -351 362 0
49 -352 363 0
49 -353 364 0
49 -365 366 0
49 -367 368 0
49 -369 370 0
49 -371 382 0
49 -372 383 0
49 -373 384 0
49 -374 385 0
49 -375 386 0
49 -376 387 0
49 -377 388 0
49 -378 389 0
49 -379 390 0
49 -380 391 0
49 -381 392 0
49 -393 394 0
49 -395 396 0
49 -397 400 0
49 -398 401 0
49 -399 402 0
49 -403 404 0
49 -405 406 0
49 -407 409 0
49 -408 410 0
49 -411 412 0
49 -413 414 0
49 -415 416 0
49 -417 418 0
49 -419 420 0
49 -421 422 0
49 -423 424 0
49 -425 426 0
49 -427 428 0
49 -429 430 0
49 -431 442 0
49 -432 443 0
49 -433 444 0
49 -434 445 0
49 -435 446 0
49 -436 447 0
49 -437 448 0
49 -438 449 0
49 -439 450 0
49 -440 451 0
49 -441 452 0
49 -444 -617 0
49 -445 -617 0
49 -445 -618 0
49 -446 -617 0
49 -446 -618 0
49 -447 -617 0
49 -447 -618 0
49 -448 -617 0
49 -448 -618 0
49 -449 -617 0
49 -449 -618 0
49 -450 -617 0
49 -450 -618 0
49 -451 -617 0
49 -451 -618 0
49 -452 -617 0
49 -452 -618 0
49 -443 -623 0
49 -444 -623 0
49 -444 -624 0
49 -445 -623 0
49 -445 -624 0
49 -446 -623 0
49 -446 -624 0
49 -447 -623 0
49 -447 -624 0
49 -448 -623 0
49 -448 -624 0
49 -449 -623 0
49 -449 -624 0
49 -450 -623 0
49 -450 -624 0
49 -451 -623 0
49 -451 -624 0
49 -452 -623 0
49 -452 -624 0
49 -453 464 0
49 -454 465 0
49 -455 466 0
49 -456 467 0
49 -457 468 0
49 -458 469 0
49 -459 470 0
49 -460 471 0
49 -461 472 0
49 -462 473 0
49 -463 474 0
49 -475 476 0
49 -477 478 0
49 -479 480 0
49 -481 482 0
49 -483 494 0
49 -484 495 0
49 -485 496 0
49 -486 497 0
49 -487 498 0
49 -488 499 0
49 -489 500 0
49 -490 501 0
49 -491 502 0
49 -492 503 0
49 -493 504 0
49 -488 -516 0
49 -489 -516 0
49 -489 -517 0
49 -490 -516 0
49 -490 -517 0
49 -490 -518 0
49 -491 -516 0
49 -491 -517 0
49 -491 -518 0
49 -491 -519 0
49 -492 -516 0
49 -492 -517 0
49 -492 -518 0
49 -492 -519 0
49 -493 -517 0
49 -493 -518 0
49 -493 -519 0
49 -483 -600 0
49 -483 -601 0
49 -483 -602 0
49 -483 -603 0
49 -483 -604 0
49 -483 -605 0
49 -483 -606 0
49 -484 -600 0
49 -484 -601 0
49 -484 -602 0
49 -484 -603 0
49 -484 -604 0
49 -484 -605 0
49 -484 -606 0
49 -485 -600 0
49 -485 -601 0
49 -485 -602 0
49 -485 -603 0
49 -485 -604 0
49 -485 -605 0
49 -485 -606 0
49 -486 -600 0
49 -486 -601 0
49 -486 -602 0
49 -486 -603 0
49 -486 -604 0
49 -486 -605 0
49 -486 -606 0
49 -487 -601 0
49 -487 -602 0
49 -487 -603 0
49 -487 -604 0
49 -487 -605 0
49 -487 -606 0
49 -488 -602 0
49 -488 -603 0
49 -488 -604 0
49 -488 -605 0
49 -488 -606 0
49 -489 -603 0
49 -489 -604 0
49 -489 -605 0
49 -489 -606 0
49 -490 -604 0
49 -490 -605 0
49 -490 -606 0
49 -491 -605 0
49 -491 -606 0
49 -492 -606 0
49 -495 -521 0
49 -496 -521 0
49 -496 -522 0
49 -497 -521 0
49 -497 -522 0
49 -497 -523 0
49 -498 -521 0
49 -498 -522 0
49 -498 -523 0
49 -498 -524 0
49 -499 -521 0
49 -499 -522 0
49 -499 -523 0
49 -499 -524 0
49 -500 -521 0
49 -500 -522 0
49 -500 -523 0
49 -500 -524 0
49 -501 -521 0
49 -501 -522 0
49 -501 -523 0
49 -501 -524 0
49 -502 -521 0
49 -502 -522 0
49 -502 -523 0
49 -502 -524 0
49 -503 -521 0
49 -503 -522 0
49 -503 -523 0
49 -503 -524 0
49 -504 -521 0
49 -504 -522 0
49 -504 -523 0
49 -504 -524 0
49 -495 -592 0
49 -496 -592 0
49 -496 -593 0
49 -497 -592 0
49 -497 -593 0
49 -497 -594 0
49 -498 -592 0
49 -498 -593 0
49 -498 -594 0
49 -498 -595 0
49 -499 -592 0
49 -499 -593 0
49 -499 -594 0
49 -499 -595 0
49 -499 -596 0
49 -500 -592 0
49 -500 -593 0
49 -500 -594 0
49 -500 -595 0
49 -500 -596 0
49 -500 -597 0
49 -501 -592 0
49 -501 -593 0
49 -501 -594 0
49 -501 -595 0
49 -501 -596 0
49 -501 -597 0
49 -501 -598 0
49 -502 -592 0
49 -502 -593 0
49 -502 -594 0
49 -502 -595 0
49 -502 -596 0
49 -502 -597 0
49 -502 -598 0
49 -503 -592 0
49 -503 -593 0
49 -503 -594 0
49 -503 -595 0
49 -503 -596 0
49 -503 -597 0
49 -503 -598 0
49 -504 -592 0
49 -504 -593 0
49 -504 -594 0
49 -504 -595 0
49 -504 -596 0
49 -504 -597 0
49 -504 -598 0
49 -495 -600 0
49 -496 -600 0
49 -496 -601 0
49 -497 -600 0
49 -497 -601 0
49 -497 -602 0
49 -498 -601 0
49 -498 -602 0
49 -498 -603 0
49 -499 -602 0
49 -499 -603 0
49 -499 -604 0
49 -500 -603 0
49 -500 -604 0
49 -500 -605 0
49 -501 -604 0
49 -501 -605 0
49 -501 -606 0
49 -502 -605 0
49 -502 -606 0
49 -503 -606 0
49 -505 506 0
49 -507 508 0
49 -509 510 0
49 -511 513 0
49 -512 514 0
49 -515 520 0
49 -516 521 0
49 -517 522 0
49 -518 523 0
49 -519 524 0
49 -516 -601 0
49 -516 -602 0
49 -516 -603 0
49 -516 -604 0
49 -516 -605 0
49 -516 -606 0
49 -517 -602 0
49 -517 -603 0
49 -517 -604 0
49 -517 -605 0
49 -517 -606 0
49 -518 -603 0
49 -518 -604 0
49 -518 -605 0
49 -518 -606 0
49 -519 -604 0
49 -519 -605 0
49 -519 -606 0
49 -522 -592 0
49 -523 -592 0
49 -523 -593 0
49 -524 -592 0
49 -524 -593 0
49 -524 -594 0
49 -521 -601 0
49 -521 -602 0
49 -521 -603 0
49 -521 -604 0
49 -521 -605 0
49 -521 -606 0
49 -522 -602 0
49 -522 -603 0
49 -522 -604 0
49 -522 -605 0
49 -522 -606 0
49 -523 -603 0
49 -523 -604 0
49 -523 -605 0
49 -523 -606 0
49 -524 -604 0
49 -524 -605 0
49 -524 -606 0
49 -525 526 0
49 -527 528 0
49 -529 533 0
49 -530 534 0
49 -531 535 0
49 -532 536 0
49 -530 -544 0
49 -530 -545 0
49 -530 -546 0
49 -530 -547 0
49 -530 -548 0
49 -530 -549 0
49 -530 -550 0
49 -530 -551 0
49 -531 -545 0
49 -531 -546 0
49 -531 -547 0
49 -531 -548 0
49 -531 -549 0
49 -531 -550 0
49 -531 -551 0
49 -532 -546 0
49 -532 -547 0
49 -532 -548 0
49 -532 -549 0
49 -532 -550 0
49 -532 -551 0
49 -530 -554 0
49 -530 -555 0
49 -530 -556 0
49 -530 -557 0
49 -530 -558 0
49 -530 -559 0
49 -530 -560 0
49 -530 -561 0
49 -530 -562 0
49 -531 -555 0
49 -531 -556 0
49 -531 -557 0
49 -531 -558 0
49 -531 -559 0
49 -531 -560 0
49 -531 -561 0
49 -531 -562 0
49 -532 -556 0
49 -532 -557 0
49 -532 -558 0
49 -532 -559 0
49 -532 -560 0
49 -532 -561 0
49 -532 -562 0
49 -530 -564 0
49 -530 -565 0
49 -531 -564 0
49 -531 -565 0
49 -532 -564 0
49 -532 -565 0
49 -530 -567 0
49 -530 -568 0
49 -531 -567 0
49 -531 -568 0
49 -532 -567 0
49 -532 -568 0
49 -534 -567 0
49 -534 -568 0
49 -535 -567 0
49 -535 -568 0
49 -536 -567 0
49 -536 -568 0
49 -537 538 0
49 -539 540 0
49 -541 552 0
49 -542 553 0
49 -543 554 0
49 -544 555 0
49 -545 556 0
49 -546 557 0
49 -547 558 0
49 -548 559 0
49 -549 560 0
49 -550 561 0
49 -551 562 0
49 -563 566 0
49 -564 567 0
49 -565 568 0
49 -569 570 0
49 -571 572 0
49 -573 574 0
49 -575 576 0
49 -577 578 0
49 -579 580 0
49 -581 582 0
49 -583 584 0
49 -585 586 0
49 -587 588 0
49 -589 590 0
49 -591 599 0
49 -592 600 0
49 -593 601 0
49 -594 602 0
49 -595 603 0
49 -596 604 0
49 -597 605 0
49 -598 606 0
49 -607 608 0
49 -609 610 0
49 -611 612 0
49 -613 619 0
49 -614 620 0
49 -615 621 0
49 -616 622 0
49 -617 623 0
49 -618 624 0
49 -1 1466 0
49 -2 1479 0
49 -3 1466 0
49 -4 1479 0
49 -5 1461 0
49 -6 1462 0
49 -7 1463 0
49 -8 1464 0
49 -9 1465 0
49 -10 1466 0
49 -11 1467 0
49 -12 1468 0
49 -13 1469 0
49 -14 1470 0
49 -15 1471 0
49 -16 1474 0
49 -17 1475 0
49 -18 1476 0
49 -19 1477 0
49 -20 1478 0
49 -21 1493 0
49 -22 1494 0
49 -23 1495 0
49 -24 1496 0
49 -25 1497 0
49 -26 1498 0
49 -27 1499 0
49 -28 1500 0
49 -29 1501 0
49 -30 1502 0
49 -31 1503 0
49 -32 1504 0
49 -33 1505 0
49 -34 1506 0
49 -35 1507 0
49 -36 1508 0
49 -37 1461 0
49 -38 1462 0
49 -39 1463 0
49 -40 1464 0
49 -41 1465 0
49 -42 1474 0
49 -43 1475 0
49 -44 1476 0
49 -45 1477 0
49 -46 1478 0
49 -47 1479 0
49 -48 1480 0
49 -49 1481 0
49 -50 1482 0
49 -51 1483 0
49 -52 1484 0
49 -53 1486 0
49 -54 1487 0
49 -55 1488 0
49 -56 1489 0
49 -57 1490 0
49 -58 1492 0
49 -59 1493 0
49 -60 1494 0
49 -61 1495 0
49 -62 1496 0
49 -63 1497 0
49 -64 1504 0
49 -65 1505 0
49 -66 1506 0
49 -67 1507 0
49 -68 1508 0
49 -69 1471 0
49 -70 1484 0
49 -71 1462 0
49 -72 1463 0
49 -73 1464 0
49 -74 1465 0
49 -75 1466 0
49 -76 1467 0
49 -77 1468 0
49 -78 1469 0
49 -79 1470 0
49 -80 1471 0
49 -81 1475 0
49 -82 1476 0
49 -83 1477 0
49 -84 1478 0
49 -85 1479 0
49 -86 1480 0
49 -87 1481 0
49 -88 1489 0
49 -89 1490 0
49 -90 1492 0
49 -91 1493 0
49 -92 1494 0
49 -93 1495 0
49 -94 1496 0
49 -95 1497 0
49 -96 1498 0
49 -97 1499 0
49 -98 1500 0
49 -99 1501 0
49 -100 1502 0
49 -101 1503 0
49 -102 1504 0
49 -103 1505 0
49 -104 1506 0
49 -105 1507 0
49 -106 1508 0
49 -107 1462 0
49 -108 1463 0
49 -109 1464 0
49 -110 1465 0
49 -111 1466 0
49 -112 1467 0
49 -113 1468 0
49 -114 1475 0
49 -115 1476 0
49 -116 1477 0
49 -117 1478 0
49 -118 1479 0
49 -119 1480 0
49 -120 1481 0
49 -121 1482 0
49 -122 1483 0
49 -123 1484 0
49 -124 1486 0
49 -125 1487 0
49 -126 1488 0
49 -127 1489 0
49 -128 1490 0
49 -129 1492 0
49 -130 1493 0
49 -131 1494 0
49 -132 1495 0
49 -133 1496 0
49 -134 1497 0
49 -135 1501 0
49 -136 1502 0
49 -137 1503 0
49 -138 1504 0
49 -139 1505 0
49 -140 1506 0
49 -141 1507 0
49 -142 1508 0
49 -143 1498 0
49 -144 1499 0
49 -145 1500 0
49 -146 1501 0
49 -147 1502 0
49 -148 1503 0
49 -149 1504 0
49 -150 1505 0
49 -151 1506 0
49 -152 1507 0
49 -153 1508 0
49 -154 1486 0
49 -155 1487 0
49 -156 1488 0
49 -157 1489 0
49 -158 1490 0
49 -159 1492 0
49 -160 1493 0
49 -161 1494 0
49 -162 1495 0
49 -163 1496 0
49 -164 1497 0
49 -165 1466 0
49 -166 1479 0
49 -167 1468 0
49 -168 1503 0
49 -169 1481 0
49 -170 1492 0
49 -171 1471 0
49 -172 1484 0
49 -173 1467 0
49 -174 1480 0
49 -175 1471 0
49 -176 1484 0
49 -177 1466 0
49 -178 1479 0
49 -179 1467 0
49 -180 1480 0
49 -181 1498 0
49 -182 1507 0
49 -183 1508 0
49 -184 1486 0
49 -185 1496 0
49 -186 1497 0
49 -187 1472 0
49 -188 1485 0
49 -189 1469 0
49 -190 1482 0
49 -191 1465 0
49 -192 1478 0
49 -193 1471 0
49 -194 1484 0
49 -195 1469 0
49 -196 1482 0
49 -197 1467 0
49 -198 1480 0
49 -199 1462 0
49 -200 1463 0
49 -201 1464 0
49 -202 1465 0
49 -203 1466 0
49 -204 1467 0
49 -205 1468 0
49 -206 1469 0
49 -207 1470 0
49 -208 1475 0
49 -209 1476 0
49 -210 1477 0
49 -211 1478 0
49 -212 1479 0
49 -213 1480 0
49 -214 1490 0
49 -215 1492 0
49 -216 1493 0
49 -217 1494 0
49 -218 1495 0
49 -219 1496 0
49 -220 1499 0
49 -221 1500 0
49 -222 1501 0
49 -223 1502 0
49 -224 1503 0
49 -225 1504 0
49 -226 1505 0
49 -227 1506 0
49 -228 1507 0
49 -229 1462 0
49 -230 1463 0
49 -231 1464 0
49 -232 1465 0
49 -233 1466 0
49 -234 1467 0
49 -235 1475 0
49 -236 1476 0
49 -237 1477 0
49 -238 1478 0
49 -239 1479 0
49 -240 1480 0
49 -241 1481 0
49 -242 1482 0
49 -243 1483 0
49 -244 1487 0
49 -245 1488 0
49 -246 1489 0
49 -247 1490 0
49 -248 1492 0
49 -249 1493 0
49 -250 1494 0
49 -251 1495 0
49 -252 1496 0
49 -253 1502 0
49 -254 1503 0
49 -255 1504 0
49 -256 1505 0
49 -257 1506 0
49 -258 1507 0
49 -259 1498 0
49 -260 1507 0
49 -261 1508 0
49 -262 1486 0
49 -263 1496 0
49 -264 1497 0
49 -265 1472 0
49 -266 1485 0
49 -267 1465 0
49 -268 1478 0
49 -269 1498 0
49 -270 1499 0
49 -271 1500 0
49 -272 1501 0
49 -273 1502 0
49 -274 1503 0
49 -275 1504 0
49 -276 1505 0
49 -277 1506 0
49 -278 1507 0
49 -279 1508 0
49 -280 1486 0
49 -281 1487 0
49 -282 1488 0
49 -283 1489 0
49 -284 1490 0
49 -285 1492 0
49 -286 1493 0
49 -287 1494 0
49 -288 1495 0
49 -289 1496 0
49 -290 1497 0
49 -291 1467 0
49 -292 1480 0
49 -293 1470 0
49 -294 1483 0
49 -295 1466 0
49 -296 1479 0
49 -297 1471 0
49 -298 1484 0
49 -299 1472 0
49 -300 1485 0
49 -301 1468 0
49 -302 1481 0
49 -303 1498 0
49 -304 1507 0
49 -305 1508 0
49 -306 1486 0
49 -307 1496 0
49 -308 1497 0
49 -309 1473 0
49 -310 1491 0
49 -311 1467 0
49 -312 1480 0
49 -313 1469 0
49 -314 1502 0
49 -315 1503 0
49 -316 1504 0
49 -317 1482 0
49 -318 1490 0
49 -319 1492 0
49 -320 1493 0
49 -321 1498 0
49 -322 1507 0
49 -323 1508 0
49 -324 1486 0
49 -325 1496 0
49 -326 1497 0
49 -327 1470 0
49 -328 1483 0
49 -329 1465 0
49 -330 1478 0
49 -331 1469 0
49 -332 1482 0
49 -333 1465 0
49 -334 1478 0
49 -335 1469 0
49 -336 1482 0
49 -337 1465 0
49 -338 1478 0
49 -339 1472 0
49 -340 1485 0
49 -341 1469 0
49 -342 1482 0
49 -343 1498 0
49 -344 1499 0
49 -345 1500 0
49 -346 1501 0
49 -347 1502 0
49 -348 1503 0
49 -349 1504 0
49 -350 1505 0
49 -351 1506 0
49 -352 1507 0
49 -353 1508 0
49 -354 1486 0
49 -355 1487 0
49 -356 1488 0
49 -357 1489 0
49 -358 1490 0
49 -359 1492 0
49 -360 1493 0
49 -361 1494 0
49 -362 1495 0
49 -363 1496 0
49 -364 1497 0
49 -365 1472 0
49 -366 1485 0
49 -367 1473 0
49 -368 1491 0
49 -369 1471 0
49 -370 1484 0
49 -371 1498 0
49 -372 1499 0
49 -373 1500 0
49 -374 1501 0
49 -375 1502 0
49 -376 1503 0
49 -377 1504 0
49 -378 1505 0
49 -379 1506 0
49 -380 1507 0
49 -381 1508 0
49 -382 1486 0
49 -383 1487 0
49 -384 1488 0
49 -385 1489 0
49 -386 1490 0
49 -387 1492 0
49 -388 1493 0
49 -389 1494 0
49 -390 1495 0
49 -391 1496 0
49 -392 1497 0
49 -393 1468 0
49 -394 1481 0
49 -395 1465 0
49 -396 1478 0
49 -397 1498 0
49 -398 1507 0
49 -399 1508 0
49 -400 1486 0
49 -401 1496 0
49 -402 1497 0
49 -403 1465 0
49 -404 1478 0
49 -405 1471 0
49 -406 1484 0
49 -407 1498 0
49 -408 1508 0
49 -409 1486 0
49 -410 1497 0
49 -411 1472 0
49 -412 1485 0
49 -413 1465 0
49 -414 1478 0
49 -415 1467 0
49 -416 1480 0
49 -417 1465 0
49 -418 1478 0
49 -419 1467 0
49 -420 1480 0
49 -421 1465 0
49 -422 1478 0
49 -423 1466 0
49 -424 1479 0
49 -425 1465 0
49 -426 1478 0
49 -427 1469 0
49 -428 1482 0
49 -429 1465 0
49 -430 1478 0
49 -431 1498 0
49 -432 1499 0
49 -433 1500 0
49 -434 1501 0
49 -435 1502 0
49 -436 1503 0
49 -437 1504 0
49 -438 1505 0
49 -439 1506 0
49 -440 1507 0
49 -441 1508 0
49 -442 1486 0
49 -443 1487 0
49 -444 1488 0
49 -445 1489 0
49 -446 1490 0
49 -447 1492 0
49 -448 1493 0
49 -449 1494 0
49 -450 1495 0
49 -451 1496 0
49 -452 1497 0
49 -453 1498 0
49 -454 1499 0
49 -455 1500 0
49 -456 1501 0
49 -457 1502 0
49 -458 1503 0
49 -459 1504 0
49 -460 1505 0
49 -461 1506 0
49 -462 1507 0
49 -463 1508 0
49 -464 1486 0
49 -465 1487 0
49 -466 1488 0
49 -467 1489 0
49 -468 1490 0
49 -469 1492 0
49 -470 1493 0
49 -471 1494 0
49 -472 1495 0
49 -473 1496 0
49 -474 1497 0
49 -475 1472 0
49 -476 1485 0
49 -477 1466 0
49 -478 1479 0
49 -479 1469 0
49 -480 1482 0
49 -481 1471 0
49 -482 1484 0
49 -483 1498 0
49 -484 1499 0
49 -485 1500 0
49 -486 1501 0
49 -487 1502 0
49 -488 1503 0
49 -489 1504 0
49 -490 1505 0
49 -491 1506 0
49 -492 1507 0
49 -493 1508 0
49 -494 1486 0
49 -495 1487 0
49 -496 1488 0
49 -497 1489 0
49 -498 1490 0
49 -499 1492 0
49 -500 1493 0
49 -501 1494 0
49 -502 1495 0
49 -503 1496 0
49 -504 1497 0
49 -505 1473 0
49 -506 1491 0
49 -507 1465 0
49 -508 1478 0
49 -509 1468 0
49 -510 1481 0
49 -511 1498 0
49 -512 1508 0
49 -513 1486 0
49 -514 1497 0
49 -515 1466 0
49 -516 1505 0
49 -517 1506 0
49 -518 1507 0
49 -519 1508 0
49 -520 1479 0
49 -521 1494 0
49 -522 1495 0
49 -523 1496 0
49 -524 1497 0
49 -525 1468 0
49 -526 1481 0
49 -527 1468 0
49 -528 1481 0
49 -529 1466 0
49 -530 1506 0
49 -531 1507 0
49 -532 1508 0
49 -533 1479 0
49 -534 1495 0
49 -535 1496 0
49 -536 1497 0
49 -537 1465 0
49 -538 1478 0
49 -539 1466 0
49 -540 1479 0
49 -541 1498 0
49 -542 1499 0
49 -543 1500 0
49 -544 1501 0
49 -545 1502 0
49 -546 1503 0
49 -547 1504 0
49 -548 1505 0
49 -549 1506 0
49 -550 1507 0
49 -551 1508 0
49 -552 1486 0
49 -553 1487 0
49 -554 1488 0
49 -555 1489 0
49 -556 1490 0
49 -557 1492 0
49 -558 1493 0
49 -559 1494 0
49 -560 1495 0
49 -561 1496 0
49 -562 1497 0
49 -563 1498 0
49 -564 1507 0
49 -565 1508 0
49 -566 1486 0
49 -567 1496 0
49 -568 1497 0
49 -569 1473 0
49 -570 1491 0
49 -571 1473 0
49 -572 1491 0
49 -573 1467 0
49 -574 1480 0
49 -575 1465 0
49 -576 1478 0
49 -577 1466 0
49 -578 1479 0
49 -579 1466 0
49 -580 1479 0
49 -581 1470 0
49 -582 1483 0
49 -583 1470 0
49 -584 1483 0
49 -585 1465 0
49 -586 1478 0
49 -587 1473 0
49 -588 1491 0
49 -589 1473 0
49 -590 1491 0
49 -591 1471 0
49 -592 1500 0
49 -593 1501 0
49 -594 1502 0
49 -595 1503 0
49 -596 1504 0
49 -597 1505 0
49 -598 1506 0
49 -599 1484 0
49 -600 1488 0
49 -601 1489 0
49 -602 1490 0
49 -603 1492 0
49 -604 1493 0
49 -605 1494 0
49 -606 1495 0
49 -607 1472 0
49 -608 1485 0
49 -609 1472 0
49 -610 1485 0
49 -611 1471 0
49 -612 1484 0
49 -613 1462 0
49 -614 1463 0
49 -615 1464 0
49 -616 1465 0
49 -617 1506 0
49 -618 1507 0
49 -619 1475 0
49 -620 1476 0
49 -621 1477 0
49 -622 1478 0
49 -623 1495 0
49 -624 1496 0
