c Dataset: TUD916.2
c Encoding: DSE
c DecisionVars: 1180
c OrderVars: 0
c CardinalityAuxVars: 484
c LabelVars: 48
c TotalVars: 1712
c OrderClauses: 0
c CardinalityClauses: 1906
c DistanceClauses: 646
c LabelLinkClauses: 1180
c SoftClauses: 48
c HardClauses: 3732
c TotalClauses: 3780
p wcnf 1712 3780 49
1 -1665 0
1 -1666 0
1 -1667 0
1 -1668 0
1 -1669 0
1 -1670 0
1 -1671 0
1 -1672 0
1 -1673 0
1 -1674 0
1 -1675 0
1 -1676 0
1 -1677 0
1 -1678 0
1 -1679 0
1 -1680 0
1 -1681 0
1 -1682 0
1 -1683 0
1 -1684 0
1 -1685 0
1 -1686 0
1 -1687 0
1 -1688 0
1 -1689 0
1 -1690 0
1 -1691 0
1 -1692 0
1 -1693 0
1 -1694 0
1 -1695 0
1 -1696 0
1 -1697 0
1 -1698 0
1 -1699 0
1 -1700 0
1 -1701 0
1 -1702 0
1 -1703 0
1 -1704 0
1 -1705 0
1 -1706 0
1 -1707 0
1 -1708 0
1 -1709 0
1 -1710 0
1 -1711 0
1 -1712 0
49 1 0
49 2 0
49 3 0
49 4 0
49 5 0
49 6 0
49 7 0
49 8 0
49 9 0
49 10 0
49 11 0
49 12 0
49 13 0
49 14 0
49 15 16 17 18 19 20 21 22 23 24 25 0
49 -1183 1181 1184 0
49 -1182 1181 1184 0
49 -1182 -1183 1184 0
49 -1184 0
49 -1186 1183 1187 0
49 -1185 1183 1187 0
49 -1185 -1186 1187 0
49 -1187 0
49 -25 1186 1188 0
49 -24 1186 1188 0
49 -24 -25 1188 0
49 -1188 0
49 -23 1185 1190 0
49 -1189 1185 1190 0
49 -1189 -23 1190 0
49 -1190 0
49 -22 1189 1191 0
49 -21 1189 1191 0
49 -21 -22 1191 0
49 -1191 0
49 -1193 1182 1194 0
49 -1192 1182 1194 0
49 -1192 -1193 1194 0
49 -1194 0
49 -20 1193 1196 0
49 -1195 1193 1196 0
49 -1195 -20 1196 0
49 -1196 0
49 -19 1195 1197 0
49 -18 1195 1197 0
49 -18 -19 1197 0
49 -1197 0
49 -17 1192 1199 0
49 -1198 1192 1199 0
49 -1198 -17 1199 0
49 -1199 0
49 -16 1198 1200 0
49 -15 1198 1200 0
49 -15 -16 1200 0
49 -1200 0
49 26 27 28 29 30 31 32 33 34 35 36 0
49 -1203 1201 1204 0
49 -1202 1201 1204 0
49 -1202 -1203 1204 0
49 -1204 0
49 -1206 1203 1207 0
49 -1205 1203 1207 0
49 -1205 -1206 1207 0
49 -1207 0
49 -36 1206 1208 0
49 -35 1206 1208 0
49 -35 -36 1208 0
49 -1208 0
49 -34 1205 1210 0
49 -1209 1205 1210 0
49 -1209 -34 1210 0
49 -1210 0
49 -33 1209 1211 0
49 -32 1209 1211 0
49 -32 -33 1211 0
49 -1211 0
49 -1213 1202 1214 0
49 -1212 1202 1214 0
49 -1212 -1213 1214 0
49 -1214 0
49 -31 1213 1216 0
49 -1215 1213 1216 0
49 -1215 -31 1216 0
49 -1216 0
49 -30 1215 1217 0
49 -29 1215 1217 0
49 -29 -30 1217 0
49 -1217 0
49 -28 1212 1219 0
49 -1218 1212 1219 0
49 -1218 -28 1219 0
49 -1219 0
49 -27 1218 1220 0
49 -26 1218 1220 0
49 -26 -27 1220 0
49 -1220 0
49 37 38 39 40 0
49 -1223 1221 1224 0
49 -1222 1221 1224 0
49 -1222 -1223 1224 0
49 -1224 0
49 -40 1223 1225 0
49 -39 1223 1225 0
49 -39 -40 1225 0
49 -1225 0
49 -38 1222 1226 0
49 -37 1222 1226 0
49 -37 -38 1226 0
49 -1226 0
49 41 42 43 44 0
49 -1229 1227 1230 0
49 -1228 1227 1230 0
49 -1228 -1229 1230 0
49 -1230 0
49 -44 1229 1231 0
49 -43 1229 1231 0
49 -43 -44 1231 0
49 -1231 0
49 -42 1228 1232 0
49 -41 1228 1232 0
49 -41 -42 1232 0
49 -1232 0
49 45 0
49 46 0
49 47 0
49 48 0
49 49 0
49 50 0
49 51 0
49 52 0
49 53 0
49 54 0
49 55 0
49 56 0
49 57 0
49 58 0
49 59 60 61 62 63 64 65 66 67 68 69 70 0
49 -1235 1233 1236 0
49 -1234 1233 1236 0
49 -1234 -1235 1236 0
49 -1236 0
49 -1238 1235 1239 0
49 -1237 1235 1239 0
49 -1237 -1238 1239 0
49 -1239 0
49 -70 1238 1241 0
49 -1240 1238 1241 0
49 -1240 -70 1241 0
49 -1241 0
49 -69 1240 1242 0
49 -68 1240 1242 0
49 -68 -69 1242 0
49 -1242 0
49 -67 1237 1244 0
49 -1243 1237 1244 0
49 -1243 -67 1244 0
49 -1244 0
49 -66 1243 1245 0
49 -65 1243 1245 0
49 -65 -66 1245 0
49 -1245 0
49 -1247 1234 1248 0
49 -1246 1234 1248 0
49 -1246 -1247 1248 0
49 -1248 0
49 -64 1247 1250 0
49 -1249 1247 1250 0
49 -1249 -64 1250 0
49 -1250 0
49 -63 1249 1251 0
49 -62 1249 1251 0
49 -62 -63 1251 0
49 -1251 0
49 -61 1246 1253 0
49 -1252 1246 1253 0
49 -1252 -61 1253 0
49 -1253 0
49 -60 1252 1254 0
49 -59 1252 1254 0
49 -59 -60 1254 0
49 -1254 0
49 71 72 73 74 75 76 77 78 79 80 81 82 0
49 -1257 1255 1258 0
49 -1256 1255 1258 0
49 -1256 -1257 1258 0
49 -1258 0
49 -1260 1257 1261 0
49 -1259 1257 1261 0
49 -1259 -1260 1261 0
49 -1261 0
49 -82 1260 1263 0
49 -1262 1260 1263 0
49 -1262 -82 1263 0
49 -1263 0
49 -81 1262 1264 0
49 -80 1262 1264 0
49 -80 -81 1264 0
49 -1264 0
49 -79 1259 1266 0
49 -1265 1259 1266 0
49 -1265 -79 1266 0
49 -1266 0
49 -78 1265 1267 0
49 -77 1265 1267 0
49 -77 -78 1267 0
49 -1267 0
49 -1269 1256 1270 0
49 -1268 1256 1270 0
49 -1268 -1269 1270 0
49 -1270 0
49 -76 1269 1272 0
49 -1271 1269 1272 0
49 -1271 -76 1272 0
49 -1272 0
49 -75 1271 1273 0
49 -74 1271 1273 0
49 -74 -75 1273 0
49 -1273 0
49 -73 1268 1275 0
49 -1274 1268 1275 0
49 -1274 -73 1275 0
49 -1275 0
49 -72 1274 1276 0
49 -71 1274 1276 0
49 -71 -72 1276 0
49 -1276 0
49 83 0
49 84 0
49 85 0
49 86 0
49 87 0
49 88 0
49 89 0
49 90 0
49 91 0
49 92 0
49 93 0
49 94 0
49 95 0
49 96 0
49 97 0
49 98 0
49 99 0
49 100 0
49 101 0
49 102 0
49 103 0
49 104 0
49 105 0
49 106 0
49 107 0
49 108 0
49 109 0
49 110 0
49 111 0
49 112 0
49 113 0
49 114 0
49 115 0
49 116 0
49 117 0
49 118 0
49 119 0
49 120 0
49 121 122 123 124 125 0
49 -1279 1277 1280 0
49 -1278 1277 1280 0
49 -1278 -1279 1280 0
49 -1280 0
49 -125 1279 1281 0
49 -124 1279 1281 0
49 -124 -125 1281 0
49 -1281 0
49 -123 1278 1283 0
49 -1282 1278 1283 0
49 -1282 -123 1283 0
49 -1283 0
49 -122 1282 1284 0
49 -121 1282 1284 0
49 -121 -122 1284 0
49 -1284 0
49 126 127 128 129 130 0
49 -1287 1285 1288 0
49 -1286 1285 1288 0
49 -1286 -1287 1288 0
49 -1288 0
49 -130 1287 1289 0
49 -129 1287 1289 0
49 -129 -130 1289 0
49 -1289 0
49 -128 1286 1291 0
49 -1290 1286 1291 0
49 -1290 -128 1291 0
49 -1291 0
49 -127 1290 1292 0
49 -126 1290 1292 0
49 -126 -127 1292 0
49 -1292 0
49 131 0
49 132 0
49 133 0
49 134 0
49 135 136 137 138 0
49 -1295 1293 1296 0
49 -1294 1293 1296 0
49 -1294 -1295 1296 0
49 -1296 0
49 -138 1295 1297 0
49 -137 1295 1297 0
49 -137 -138 1297 0
49 -1297 0
49 -136 1294 1298 0
49 -135 1294 1298 0
49 -135 -136 1298 0
49 -1298 0
49 139 140 141 142 0
49 -1301 1299 1302 0
49 -1300 1299 1302 0
49 -1300 -1301 1302 0
49 -1302 0
49 -142 1301 1303 0
49 -141 1301 1303 0
49 -141 -142 1303 0
49 -1303 0
49 -140 1300 1304 0
49 -139 1300 1304 0
49 -139 -140 1304 0
49 -1304 0
49 143 0
49 144 0
49 145 0
49 146 0
49 147 0
49 148 0
49 149 0
49 150 0
49 151 0
49 152 0
49 153 154 155 0
49 -155 1305 1307 0
49 -1306 1305 1307 0
49 -1306 -155 1307 0
49 -1307 0
49 -154 1306 1308 0
49 -153 1306 1308 0
49 -153 -154 1308 0
49 -1308 0
49 156 157 158 0
49 -158 1309 1311 0
49 -1310 1309 1311 0
49 -1310 -158 1311 0
49 -1311 0
49 -157 1310 1312 0
49 -156 1310 1312 0
49 -156 -157 1312 0
49 -1312 0
49 159 0
49 160 0
49 161 162 163 164 165 166 167 0
49 -1315 1313 1316 0
49 -1314 1313 1316 0
49 -1314 -1315 1316 0
49 -1316 0
49 -167 1315 1318 0
49 -1317 1315 1318 0
49 -1317 -167 1318 0
49 -1318 0
49 -166 1317 1319 0
49 -165 1317 1319 0
49 -165 -166 1319 0
49 -1319 0
49 -1321 1314 1322 0
49 -1320 1314 1322 0
49 -1320 -1321 1322 0
49 -1322 0
49 -164 1321 1323 0
49 -163 1321 1323 0
49 -163 -164 1323 0
49 -1323 0
49 -162 1320 1324 0
49 -161 1320 1324 0
49 -161 -162 1324 0
49 -1324 0
49 168 169 170 171 172 173 174 0
49 -1327 1325 1328 0
49 -1326 1325 1328 0
49 -1326 -1327 1328 0
49 -1328 0
49 -174 1327 1330 0
49 -1329 1327 1330 0
49 -1329 -174 1330 0
49 -1330 0
49 -173 1329 1331 0
49 -172 1329 1331 0
49 -172 -173 1331 0
49 -1331 0
49 -1333 1326 1334 0
49 -1332 1326 1334 0
49 -1332 -1333 1334 0
49 -1334 0
49 -171 1333 1335 0
49 -170 1333 1335 0
49 -170 -171 1335 0
49 -1335 0
49 -169 1332 1336 0
49 -168 1332 1336 0
49 -168 -169 1336 0
49 -1336 0
49 175 0
49 176 0
49 177 0
49 178 0
49 179 0
49 180 0
49 181 0
49 182 0
49 183 0
49 184 0
49 185 0
49 186 0
49 187 0
49 188 0
49 189 0
49 190 0
49 191 0
49 192 0
49 193 0
49 194 0
49 195 0
49 196 0
49 197 0
49 198 0
49 199 0
49 200 0
49 201 0
49 202 0
49 203 0
49 204 0
49 205 0
49 206 0
49 207 208 0
49 -207 -208 0
49 209 210 0
49 -209 -210 0
49 211 0
49 212 0
49 213 0
49 214 0
49 215 0
49 216 0
49 217 218 219 220 221 0
49 -1339 1337 1340 0
49 -1338 1337 1340 0
49 -1338 -1339 1340 0
49 -1340 0
49 -221 1339 1341 0
49 -220 1339 1341 0
49 -220 -221 1341 0
49 -1341 0
49 -219 1338 1343 0
49 -1342 1338 1343 0
49 -1342 -219 1343 0
49 -1343 0
49 -218 1342 1344 0
49 -217 1342 1344 0
49 -217 -218 1344 0
49 -1344 0
49 222 223 224 225 226 0
49 -1347 1345 1348 0
49 -1346 1345 1348 0
49 -1346 -1347 1348 0
49 -1348 0
49 -226 1347 1349 0
49 -225 1347 1349 0
49 -225 -226 1349 0
49 -1349 0
49 -224 1346 1351 0
49 -1350 1346 1351 0
49 -1350 -224 1351 0
49 -1351 0
49 -223 1350 1352 0
49 -222 1350 1352 0
49 -222 -223 1352 0
49 -1352 0
49 227 0
49 228 0
49 229 0
49 230 0
49 231 0
49 232 0
49 233 0
49 234 0
49 235 0
49 236 0
49 237 0
49 238 0
49 239 0
49 240 0
49 241 0
49 242 0
49 243 0
49 244 0
49 245 0
49 246 0
49 247 0
49 248 0
49 249 0
49 250 0
49 251 0
49 252 0
49 253 254 255 256 257 258 259 0
49 -1355 1353 1356 0
49 -1354 1353 1356 0
49 -1354 -1355 1356 0
49 -1356 0
49 -259 1355 1358 0
49 -1357 1355 1358 0
49 -1357 -259 1358 0
49 -1358 0
49 -258 1357 1359 0
49 -257 1357 1359 0
49 -257 -258 1359 0
49 -1359 0
49 -1361 1354 1362 0
49 -1360 1354 1362 0
49 -1360 -1361 1362 0
49 -1362 0
49 -256 1361 1363 0
49 -255 1361 1363 0
49 -255 -256 1363 0
49 -1363 0
49 -254 1360 1364 0
49 -253 1360 1364 0
49 -253 -254 1364 0
49 -1364 0
49 260 261 262 263 264 265 266 0
49 -1367 1365 1368 0
49 -1366 1365 1368 0
49 -1366 -1367 1368 0
49 -1368 0
49 -266 1367 1370 0
49 -1369 1367 1370 0
49 -1369 -266 1370 0
49 -1370 0
49 -265 1369 1371 0
49 -264 1369 1371 0
49 -264 -265 1371 0
49 -1371 0
49 -1373 1366 1374 0
49 -1372 1366 1374 0
49 -1372 -1373 1374 0
49 -1374 0
49 -263 1373 1375 0
49 -262 1373 1375 0
49 -262 -263 1375 0
49 -1375 0
49 -261 1372 1376 0
49 -260 1372 1376 0
49 -260 -261 1376 0
49 -1376 0
49 267 0
49 268 0
49 269 0
49 270 0
49 271 0
49 272 0
49 273 0
49 274 0
49 275 0
49 276 0
49 277 0
49 278 0
49 279 0
49 280 0
49 281 0
49 282 0
49 283 0
49 284 0
49 285 0
49 286 0
49 287 0
49 288 0
49 289 0
49 290 0
49 291 0
49 292 0
49 293 294 0
49 -293 -294 0
49 295 296 0
49 -295 -296 0
49 297 0
49 298 0
49 299 0
49 300 0
49 301 0
49 302 0
49 303 0
49 304 0
49 305 0
49 306 0
49 307 0
49 308 0
49 309 0
49 310 0
49 311 0
49 312 0
49 313 0
49 314 0
49 315 0
49 316 0
49 317 0
49 318 0
49 319 0
49 320 0
49 321 0
49 322 0
49 323 0
49 324 0
49 325 326 0
49 -325 -326 0
49 327 328 0
49 -327 -328 0
49 329 0
49 330 0
49 331 0
49 332 0
49 333 0
49 334 0
49 335 0
49 336 0
49 337 0
49 338 0
49 339 0
49 340 0
49 341 0
49 342 0
49 343 0
49 344 0
49 345 0
49 346 0
49 347 348 349 350 351 352 353 354 355 356 357 0
49 -1379 1377 1380 0
49 -1378 1377 1380 0
49 -1378 -1379 1380 0
49 -1380 0
49 -1382 1379 1383 0
49 -1381 1379 1383 0
49 -1381 -1382 1383 0
49 -1383 0
49 -357 1382 1384 0
49 -356 1382 1384 0
49 -356 -357 1384 0
49 -1384 0
49 -355 1381 1386 0
49 -1385 1381 1386 0
49 -1385 -355 1386 0
49 -1386 0
49 -354 1385 1387 0
49 -353 1385 1387 0
49 -353 -354 1387 0
49 -1387 0
49 -1389 1378 1390 0
49 -1388 1378 1390 0
49 -1388 -1389 1390 0
49 -1390 0
49 -352 1389 1392 0
49 -1391 1389 1392 0
49 -1391 -352 1392 0
49 -1392 0
49 -351 1391 1393 0
49 -350 1391 1393 0
49 -350 -351 1393 0
49 -1393 0
49 -349 1388 1395 0
49 -1394 1388 1395 0
49 -1394 -349 1395 0
49 -1395 0
49 -348 1394 1396 0
49 -347 1394 1396 0
49 -347 -348 1396 0
49 -1396 0
49 358 359 360 361 362 363 364 365 366 367 368 0
49 -1399 1397 1400 0
49 -1398 1397 1400 0
49 -1398 -1399 1400 0
49 -1400 0
49 -1402 1399 1403 0
49 -1401 1399 1403 0
49 -1401 -1402 1403 0
49 -1403 0
49 -368 1402 1404 0
49 -367 1402 1404 0
49 -367 -368 1404 0
49 -1404 0
49 -366 1401 1406 0
49 -1405 1401 1406 0
49 -1405 -366 1406 0
49 -1406 0
49 -365 1405 1407 0
49 -364 1405 1407 0
49 -364 -365 1407 0
49 -1407 0
49 -1409 1398 1410 0
49 -1408 1398 1410 0
49 -1408 -1409 1410 0
49 -1410 0
49 -363 1409 1412 0
49 -1411 1409 1412 0
49 -1411 -363 1412 0
49 -1412 0
49 -362 1411 1413 0
49 -361 1411 1413 0
49 -361 -362 1413 0
49 -1413 0
49 -360 1408 1415 0
49 -1414 1408 1415 0
49 -1414 -360 1415 0
49 -1415 0
49 -359 1414 1416 0
49 -358 1414 1416 0
49 -358 -359 1416 0
49 -1416 0
49 369 0
49 370 0
49 371 0
49 372 0
49 373 0
49 374 0
49 375 0
49 376 0
49 377 378 379 380 381 382 383 384 0
49 -1419 1417 1420 0
49 -1418 1417 1420 0
49 -1418 -1419 1420 0
49 -1420 0
49 -1422 1419 1423 0
49 -1421 1419 1423 0
49 -1421 -1422 1423 0
49 -1423 0
49 -384 1422 1424 0
49 -383 1422 1424 0
49 -383 -384 1424 0
49 -1424 0
49 -382 1421 1425 0
49 -381 1421 1425 0
49 -381 -382 1425 0
49 -1425 0
49 -1427 1418 1428 0
49 -1426 1418 1428 0
49 -1426 -1427 1428 0
49 -1428 0
49 -380 1427 1429 0
49 -379 1427 1429 0
49 -379 -380 1429 0
49 -1429 0
49 -378 1426 1430 0
49 -377 1426 1430 0
49 -377 -378 1430 0
49 -1430 0
49 385 386 387 388 389 390 391 392 0
49 -1433 1431 1434 0
49 -1432 1431 1434 0
49 -1432 -1433 1434 0
49 -1434 0
49 -1436 1433 1437 0
49 -1435 1433 1437 0
49 -1435 -1436 1437 0
49 -1437 0
49 -392 1436 1438 0
49 -391 1436 1438 0
49 -391 -392 1438 0
49 -1438 0
49 -390 1435 1439 0
49 -389 1435 1439 0
49 -389 -390 1439 0
49 -1439 0
49 -1441 1432 1442 0
49 -1440 1432 1442 0
49 -1440 -1441 1442 0
49 -1442 0
49 -388 1441 1443 0
49 -387 1441 1443 0
49 -387 -388 1443 0
49 -1443 0
49 -386 1440 1444 0
49 -385 1440 1444 0
49 -385 -386 1444 0
49 -1444 0
49 393 0
49 394 0
49 395 0
49 396 0
49 397 398 399 0
49 -399 1445 1447 0
49 -1446 1445 1447 0
49 -1446 -399 1447 0
49 -1447 0
49 -398 1446 1448 0
49 -397 1446 1448 0
49 -397 -398 1448 0
49 -1448 0
49 400 401 402 0
49 -402 1449 1451 0
49 -1450 1449 1451 0
49 -1450 -402 1451 0
49 -1451 0
49 -401 1450 1452 0
49 -400 1450 1452 0
49 -400 -401 1452 0
49 -1452 0
49 403 0
49 404 0
49 405 0
49 406 0
49 407 0
49 408 0
49 409 0
49 410 0
49 411 0
49 412 0
49 413 0
49 414 0
49 415 0
49 416 0
49 417 418 419 420 0
49 -1455 1453 1456 0
49 -1454 1453 1456 0
49 -1454 -1455 1456 0
49 -1456 0
49 -420 1455 1457 0
49 -419 1455 1457 0
49 -419 -420 1457 0
49 -1457 0
49 -418 1454 1458 0
49 -417 1454 1458 0
49 -417 -418 1458 0
49 -1458 0
49 421 422 423 424 0
49 -1461 1459 1462 0
49 -1460 1459 1462 0
49 -1460 -1461 1462 0
49 -1462 0
49 -424 1461 1463 0
49 -423 1461 1463 0
49 -423 -424 1463 0
49 -1463 0
49 -422 1460 1464 0
49 -421 1460 1464 0
49 -421 -422 1464 0
49 -1464 0
49 425 0
49 426 0
49 427 0
49 428 0
49 429 430 431 432 433 434 435 0
49 -1467 1465 1468 0
49 -1466 1465 1468 0
49 -1466 -1467 1468 0
49 -1468 0
49 -435 1467 1470 0
49 -1469 1467 1470 0
49 -1469 -435 1470 0
49 -1470 0
49 -434 1469 1471 0
49 -433 1469 1471 0
49 -433 -434 1471 0
49 -1471 0
49 -1473 1466 1474 0
49 -1472 1466 1474 0
49 -1472 -1473 1474 0
49 -1474 0
49 -432 1473 1475 0
49 -431 1473 1475 0
49 -431 -432 1475 0
49 -1475 0
49 -430 1472 1476 0
49 -429 1472 1476 0
49 -429 -430 1476 0
49 -1476 0
49 436 437 438 439 440 441 442 0
49 -1479 1477 1480 0
49 -1478 1477 1480 0
49 -1478 -1479 1480 0
49 -1480 0
49 -442 1479 1482 0
49 -1481 1479 1482 0
49 -1481 -442 1482 0
49 -1482 0
49 -441 1481 1483 0
49 -440 1481 1483 0
49 -440 -441 1483 0
49 -1483 0
49 -1485 1478 1486 0
49 -1484 1478 1486 0
49 -1484 -1485 1486 0
49 -1486 0
49 -439 1485 1487 0
49 -438 1485 1487 0
49 -438 -439 1487 0
49 -1487 0
49 -437 1484 1488 0
49 -436 1484 1488 0
49 -436 -437 1488 0
49 -1488 0
49 443 0
49 444 0
49 445 0
49 446 0
49 447 448 449 0
49 -449 1489 1491 0
49 -1490 1489 1491 0
49 -1490 -449 1491 0
49 -1491 0
49 -448 1490 1492 0
49 -447 1490 1492 0
49 -447 -448 1492 0
49 -1492 0
49 450 451 452 0
49 -452 1493 1495 0
49 -1494 1493 1495 0
49 -1494 -452 1495 0
49 -1495 0
49 -451 1494 1496 0
49 -450 1494 1496 0
49 -450 -451 1496 0
49 -1496 0
49 453 454 0
49 -453 -454 0
49 455 456 0
49 -455 -456 0
49 457 0
49 458 0
49 459 0
49 460 0
49 461 0
49 462 0
49 463 0
49 464 0
49 465 0
49 466 0
49 467 0
49 468 0
49 469 0
49 470 0
49 471 0
49 472 0
49 473 0
49 474 0
49 475 0
49 476 0
49 477 478 0
49 -477 -478 0
49 479 480 0
49 -479 -480 0
49 481 0
49 482 0
49 483 0
49 484 0
49 485 0
49 486 0
49 487 0
49 488 0
49 489 0
49 490 0
49 491 0
49 492 0
49 493 0
49 494 0
49 495 496 497 498 499 500 0
49 -1499 1497 1500 0
49 -1498 1497 1500 0
49 -1498 -1499 1500 0
49 -1500 0
49 -500 1499 1502 0
49 -1501 1499 1502 0
49 -1501 -500 1502 0
49 -1502 0
49 -499 1501 1503 0
49 -498 1501 1503 0
49 -498 -499 1503 0
49 -1503 0
49 -497 1498 1505 0
49 -1504 1498 1505 0
49 -1504 -497 1505 0
49 -1505 0
49 -496 1504 1506 0
49 -495 1504 1506 0
49 -495 -496 1506 0
49 -1506 0
49 501 502 503 504 505 506 0
49 -1509 1507 1510 0
49 -1508 1507 1510 0
49 -1508 -1509 1510 0
49 -1510 0
49 -506 1509 1512 0
49 -1511 1509 1512 0
49 -1511 -506 1512 0
49 -1512 0
49 -505 1511 1513 0
49 -504 1511 1513 0
49 -504 -505 1513 0
49 -1513 0
49 -503 1508 1515 0
49 -1514 1508 1515 0
49 -1514 -503 1515 0
49 -1515 0
49 -502 1514 1516 0
49 -501 1514 1516 0
49 -501 -502 1516 0
49 -1516 0
49 507 0
49 508 0
49 509 0
49 510 0
49 511 0
49 512 0
49 513 0
49 514 0
49 515 0
49 516 0
49 517 0
49 518 0
49 519 0
49 520 0
49 521 0
49 522 0
49 523 524 525 526 527 528 529 0
49 -1519 1517 1520 0
49 -1518 1517 1520 0
49 -1518 -1519 1520 0
49 -1520 0
49 -529 1519 1522 0
49 -1521 1519 1522 0
49 -1521 -529 1522 0
49 -1522 0
49 -528 1521 1523 0
49 -527 1521 1523 0
49 -527 -528 1523 0
49 -1523 0
49 -1525 1518 1526 0
49 -1524 1518 1526 0
49 -1524 -1525 1526 0
49 -1526 0
49 -526 1525 1527 0
49 -525 1525 1527 0
49 -525 -526 1527 0
49 -1527 0
49 -524 1524 1528 0
49 -523 1524 1528 0
49 -523 -524 1528 0
49 -1528 0
49 530 531 532 533 534 535 536 0
49 -1531 1529 1532 0
49 -1530 1529 1532 0
49 -1530 -1531 1532 0
49 -1532 0
49 -536 1531 1534 0
49 -1533 1531 1534 0
49 -1533 -536 1534 0
49 -1534 0
49 -535 1533 1535 0
49 -534 1533 1535 0
49 -534 -535 1535 0
49 -1535 0
49 -1537 1530 1538 0
49 -1536 1530 1538 0
49 -1536 -1537 1538 0
49 -1538 0
49 -533 1537 1539 0
49 -532 1537 1539 0
49 -532 -533 1539 0
49 -1539 0
49 -531 1536 1540 0
49 -530 1536 1540 0
49 -530 -531 1540 0
49 -1540 0
49 537 0
49 538 0
49 539 0
49 540 0
49 541 0
49 542 0
49 543 0
49 544 0
49 545 0
49 546 0
49 547 0
49 548 0
49 549 0
49 550 0
49 551 552 0
49 -551 -552 0
49 553 554 0
49 -553 -554 0
49 555 0
49 556 0
49 557 0
49 558 0
49 559 0
49 560 0
49 561 0
49 562 0
49 563 0
49 564 0
49 565 0
49 566 0
49 567 0
49 568 0
49 569 0
49 570 0
49 571 0
49 572 0
49 573 0
49 574 0
49 575 0
49 576 0
49 577 0
49 578 0
49 579 0
49 580 0
49 581 0
49 582 0
49 583 0
49 584 0
49 585 0
49 586 0
49 587 0
49 588 0
49 589 0
49 590 0
49 591 0
49 592 0
49 593 0
49 594 0
49 595 0
49 596 0
49 597 598 0
49 -597 -598 0
49 599 600 0
49 -599 -600 0
49 601 0
49 602 0
49 603 0
49 604 0
49 605 0
49 606 0
49 607 0
49 608 0
49 609 0
49 610 0
49 611 612 613 614 615 616 0
49 -1543 1541 1544 0
49 -1542 1541 1544 0
49 -1542 -1543 1544 0
49 -1544 0
49 -616 1543 1546 0
49 -1545 1543 1546 0
49 -1545 -616 1546 0
49 -1546 0
49 -615 1545 1547 0
49 -614 1545 1547 0
49 -614 -615 1547 0
49 -1547 0
49 -613 1542 1549 0
49 -1548 1542 1549 0
49 -1548 -613 1549 0
49 -1549 0
49 -612 1548 1550 0
49 -611 1548 1550 0
49 -611 -612 1550 0
49 -1550 0
49 617 618 619 620 621 622 0
49 -1553 1551 1554 0
49 -1552 1551 1554 0
49 -1552 -1553 1554 0
49 -1554 0
49 -622 1553 1556 0
49 -1555 1553 1556 0
49 -1555 -622 1556 0
49 -1556 0
49 -621 1555 1557 0
49 -620 1555 1557 0
49 -620 -621 1557 0
49 -1557 0
49 -619 1552 1559 0
49 -1558 1552 1559 0
49 -1558 -619 1559 0
49 -1559 0
49 -618 1558 1560 0
49 -617 1558 1560 0
49 -617 -618 1560 0
49 -1560 0
49 623 0
49 624 0
49 625 0
49 626 0
49 627 0
49 628 0
49 629 0
49 630 0
49 631 0
49 632 0
49 633 0
49 634 0
49 635 0
49 636 0
49 637 0
49 638 0
49 639 0
49 640 0
49 641 642 0
49 -641 -642 0
49 643 644 0
49 -643 -644 0
49 645 0
49 646 0
49 647 0
49 648 0
49 649 0
49 650 0
49 651 0
49 652 0
49 653 0
49 654 0
49 655 0
49 656 0
49 657 0
49 658 0
49 659 0
49 660 0
49 661 0
49 662 0
49 663 0
49 664 0
49 665 0
49 666 0
49 667 0
49 668 0
49 669 670 0
49 -669 -670 0
49 671 672 0
49 -671 -672 0
49 673 0
49 674 0
49 675 0
49 676 0
49 677 0
49 678 0
49 679 0
49 680 0
49 681 0
49 682 0
49 683 0
49 684 0
49 685 0
49 686 0
49 687 0
49 688 0
49 689 0
49 690 0
49 691 0
49 692 0
49 693 0
49 694 0
49 695 0
49 696 0
49 697 0
49 698 0
49 699 0
49 700 0
49 701 0
49 702 0
49 703 0
49 704 0
49 705 0
49 706 0
49 707 0
49 708 0
49 709 0
49 710 0
49 711 0
49 712 0
49 713 0
49 714 0
49 715 0
49 716 0
49 717 0
49 718 0
49 719 0
49 720 0
49 721 722 723 0
49 -723 1561 1563 0
49 -1562 1561 1563 0
49 -1562 -723 1563 0
49 -1563 0
49 -722 1562 1564 0
49 -721 1562 1564 0
49 -721 -722 1564 0
49 -1564 0
49 724 725 726 0
49 -726 1565 1567 0
49 -1566 1565 1567 0
49 -1566 -726 1567 0
49 -1567 0
49 -725 1566 1568 0
49 -724 1566 1568 0
49 -724 -725 1568 0
49 -1568 0
49 727 0
49 728 0
49 729 0
49 730 0
49 731 0
49 732 0
49 733 0
49 734 0
49 735 0
49 736 0
49 737 0
49 738 0
49 739 0
49 740 0
49 741 0
49 742 0
49 743 0
49 744 0
49 745 746 747 0
49 -747 1569 1571 0
49 -1570 1569 1571 0
49 -1570 -747 1571 0
49 -1571 0
49 -746 1570 1572 0
49 -745 1570 1572 0
49 -745 -746 1572 0
49 -1572 0
49 748 749 750 0
49 -750 1573 1575 0
49 -1574 1573 1575 0
49 -1574 -750 1575 0
49 -1575 0
49 -749 1574 1576 0
49 -748 1574 1576 0
49 -748 -749 1576 0
49 -1576 0
49 751 0
49 752 0
49 753 0
49 754 0
49 755 0
49 756 0
49 757 0
49 758 0
49 759 0
49 760 0
49 761 0
49 762 0
49 763 0
49 764 0
49 765 0
49 766 0
49 767 0
49 768 0
49 769 0
49 770 0
49 771 0
49 772 0
49 773 0
49 774 0
49 775 0
49 776 0
49 777 0
49 778 0
49 779 0
49 780 0
49 781 0
49 782 0
49 783 0
49 784 0
49 785 0
49 786 0
49 787 0
49 788 0
49 789 0
49 790 0
49 791 0
49 792 0
49 793 0
49 794 0
49 795 0
49 796 0
49 797 0
49 798 0
49 799 0
49 800 0
49 801 0
49 802 0
49 803 0
49 804 0
49 805 0
49 806 0
49 807 0
49 808 0
49 809 0
49 810 0
49 811 0
49 812 0
49 813 0
49 814 0
49 815 0
49 816 0
49 817 0
49 818 0
49 819 0
49 820 0
49 821 0
49 822 0
49 823 0
49 824 0
49 825 0
49 826 0
49 827 828 829 830 831 832 0
49 -1579 1577 1580 0
49 -1578 1577 1580 0
49 -1578 -1579 1580 0
49 -1580 0
49 -832 1579 1582 0
49 -1581 1579 1582 0
49 -1581 -832 1582 0
49 -1582 0
49 -831 1581 1583 0
49 -830 1581 1583 0
49 -830 -831 1583 0
49 -1583 0
49 -829 1578 1585 0
49 -1584 1578 1585 0
49 -1584 -829 1585 0
49 -1585 0
49 -828 1584 1586 0
49 -827 1584 1586 0
49 -827 -828 1586 0
49 -1586 0
49 833 834 835 836 837 838 0
49 -1589 1587 1590 0
49 -1588 1587 1590 0
49 -1588 -1589 1590 0
49 -1590 0
49 -838 1589 1592 0
49 -1591 1589 1592 0
49 -1591 -838 1592 0
49 -1592 0
49 -837 1591 1593 0
49 -836 1591 1593 0
49 -836 -837 1593 0
49 -1593 0
49 -835 1588 1595 0
49 -1594 1588 1595 0
49 -1594 -835 1595 0
49 -1595 0
49 -834 1594 1596 0
49 -833 1594 1596 0
49 -833 -834 1596 0
49 -1596 0
49 839 0
49 840 0
49 841 0
49 842 0
49 843 0
49 844 0
49 845 0
49 846 0
49 847 0
49 848 0
49 849 0
49 850 0
49 851 0
49 852 0
49 853 0
49 854 0
49 855 0
49 856 0
49 857 0
49 858 0
49 859 0
49 860 0
49 861 0
49 862 0
49 863 0
49 864 0
49 865 0
49 866 0
49 867 0
49 868 0
49 869 870 871 0
49 -871 1597 1599 0
49 -1598 1597 1599 0
49 -1598 -871 1599 0
49 -1599 0
49 -870 1598 1600 0
49 -869 1598 1600 0
49 -869 -870 1600 0
49 -1600 0
49 872 873 874 0
49 -874 1601 1603 0
49 -1602 1601 1603 0
49 -1602 -874 1603 0
49 -1603 0
49 -873 1602 1604 0
49 -872 1602 1604 0
49 -872 -873 1604 0
49 -1604 0
49 875 0
49 876 0
49 877 0
49 878 0
49 879 0
49 880 0
49 881 0
49 882 0
49 883 0
49 884 0
49 885 0
49 886 0
49 887 0
49 888 0
49 889 0
49 890 0
49 891 0
49 892 0
49 893 0
49 894 0
49 895 0
49 896 0
49 897 0
49 898 0
49 899 0
49 900 0
49 901 902 0
49 -901 -902 0
49 903 904 0
49 -903 -904 0
49 905 0
49 906 0
49 907 0
49 908 0
49 909 0
49 910 0
49 911 0
49 912 0
49 913 0
49 914 0
49 915 0
49 916 0
49 917 0
49 918 0
49 919 0
49 920 0
49 921 0
49 922 0
49 923 0
49 924 0
49 925 926 927 0
49 -927 1605 1607 0
49 -1606 1605 1607 0
49 -1606 -927 1607 0
49 -1607 0
49 -926 1606 1608 0
49 -925 1606 1608 0
49 -925 -926 1608 0
49 -1608 0
49 928 929 930 0
49 -930 1609 1611 0
49 -1610 1609 1611 0
49 -1610 -930 1611 0
49 -1611 0
49 -929 1610 1612 0
49 -928 1610 1612 0
49 -928 -929 1612 0
49 -1612 0
49 931 0
49 932 0
49 933 0
49 934 0
49 935 0
49 936 0
49 937 0
49 938 0
49 939 0
49 940 0
49 941 0
49 942 0
49 943 0
49 944 0
49 945 0
49 946 0
49 947 0
49 948 0
49 949 0
49 950 0
49 951 0
49 952 0
49 953 0
49 954 0
49 955 0
49 956 0
49 957 0
49 958 0
49 959 0
49 960 0
49 961 0
49 962 0
49 963 0
49 964 0
49 965 0
49 966 0
49 967 0
49 968 0
49 969 0
49 970 0
49 971 0
49 972 0
49 973 0
49 974 0
49 975 0
49 976 0
49 977 0
49 978 0
49 979 0
49 980 0
49 981 0
49 982 0
49 983 0
49 984 0
49 985 0
49 986 0
49 987 0
49 988 0
49 989 0
49 990 0
49 991 0
49 992 0
49 993 994 995 996 0
49 -1615 1613 1616 0
49 -1614 1613 1616 0
49 -1614 -1615 1616 0
49 -1616 0
49 -996 1615 1617 0
49 -995 1615 1617 0
49 -995 -996 1617 0
49 -1617 0
49 -994 1614 1618 0
49 -993 1614 1618 0
49 -993 -994 1618 0
49 -1618 0
49 997 998 999 1000 0
49 -1621 1619 1622 0
49 -1620 1619 1622 0
49 -1620 -1621 1622 0
49 -1622 0
49 -1000 1621 1623 0
49 -999 1621 1623 0
49 -999 -1000 1623 0
49 -1623 0
49 -998 1620 1624 0
49 -997 1620 1624 0
49 -997 -998 1624 0
49 -1624 0
49 1001 0
49 1002 0
49 1003 0
49 1004 0
49 1005 0
49 1006 0
49 1007 0
49 1008 0
49 1009 0
49 1010 0
49 1011 0
49 1012 0
49 1013 0
49 1014 0
49 1015 0
49 1016 0
49 1017 0
49 1018 0
49 1019 0
49 1020 0
49 1021 0
49 1022 0
49 1023 0
49 1024 0
49 1025 0
49 1026 0
49 1027 0
49 1028 0
49 1029 0
49 1030 0
49 1031 0
49 1032 0
49 1033 0
49 1034 0
49 1035 0
49 1036 0
49 1037 1038 0
49 -1037 -1038 0
49 1039 1040 0
49 -1039 -1040 0
49 1041 0
49 1042 0
49 1043 0
49 1044 0
49 1045 0
49 1046 0
49 1047 0
49 1048 0
49 1049 0
49 1050 0
49 1051 0
49 1052 0
49 1053 0
49 1054 0
49 1055 0
49 1056 0
49 1057 0
49 1058 0
49 1059 0
49 1060 0
49 1061 0
49 1062 0
49 1063 1064 1065 1066 1067 1068 1069 1070 1071 1072 1073 0
49 -1627 1625 1628 0
49 -1626 1625 1628 0
49 -1626 -1627 1628 0
49 -1628 0
49 -1630 1627 1631 0
49 -1629 1627 1631 0
49 -1629 -1630 1631 0
49 -1631 0
49 -1073 1630 1632 0
49 -1072 1630 1632 0
49 -1072 -1073 1632 0
49 -1632 0
49 -1071 1629 1634 0
49 -1633 1629 1634 0
49 -1633 -1071 1634 0
49 -1634 0
49 -1070 1633 1635 0
49 -1069 1633 1635 0
49 -1069 -1070 1635 0
49 -1635 0
49 -1637 1626 1638 0
49 -1636 1626 1638 0
49 -1636 -1637 1638 0
49 -1638 0
49 -1068 1637 1640 0
49 -1639 1637 1640 0
49 -1639 -1068 1640 0
49 -1640 0
49 -1067 1639 1641 0
49 -1066 1639 1641 0
49 -1066 -1067 1641 0
49 -1641 0
49 -1065 1636 1643 0
49 -1642 1636 1643 0
49 -1642 -1065 1643 0
49 -1643 0
49 -1064 1642 1644 0
49 -1063 1642 1644 0
49 -1063 -1064 1644 0
49 -1644 0
49 1074 1075 1076 1077 1078 1079 1080 1081 1082 1083 1084 0
49 -1647 1645 1648 0
49 -1646 1645 1648 0
49 -1646 -1647 1648 0
49 -1648 0
49 -1650 1647 1651 0
49 -1649 1647 1651 0
49 -1649 -1650 1651 0
49 -1651 0
49 -1084 1650 1652 0
49 -1083 1650 1652 0
49 -1083 -1084 1652 0
49 -1652 0
49 -1082 1649 1654 0
49 -1653 1649 1654 0
49 -1653 -1082 1654 0
49 -1654 0
49 -1081 1653 1655 0
49 -1080 1653 1655 0
49 -1080 -1081 1655 0
49 -1655 0
49 -1657 1646 1658 0
49 -1656 1646 1658 0
49 -1656 -1657 1658 0
49 -1658 0
49 -1079 1657 1660 0
49 -1659 1657 1660 0
49 -1659 -1079 1660 0
49 -1660 0
49 -1078 1659 1661 0
49 -1077 1659 1661 0
49 -1077 -1078 1661 0
49 -1661 0
49 -1076 1656 1663 0
49 -1662 1656 1663 0
49 -1662 -1076 1663 0
49 -1663 0
49 -1075 1662 1664 0
49 -1074 1662 1664 0
49 -1074 -1075 1664 0
49 -1664 0
49 1085 0
49 1086 0
49 1087 0
49 1088 0
49 1089 0
49 1090 0
49 1091 0
49 1092 0
49 1093 0
49 1094 0
49 1095 0
49 1096 0
49 1097 0
49 1098 0
49 1099 0
49 1100 0
49 1101 0
49 1102 0
49 1103 0
49 1104 0
49 1105 0
49 1106 0
49 1107 0
49 1108 0
49 1109 0
49 1110 0
49 1111 0
49 1112 0
49 1113 0
49 1114 0
49 1115 0
49 1116 0
49 1117 0
49 1118 0
49 1119 0
49 1120 0
49 1121 0
49 1122 0
49 1123 0
49 1124 0
49 1125 0
49 1126 0
49 1127 0
49 1128 0
49 1129 0
49 1130 0
49 1131 0
49 1132 0
49 1133 0
49 1134 0
49 1135 0
49 1136 0
49 1137 0
49 1138 0
49 1139 0
49 1140 0
49 1141 0
49 1142 0
49 1143 0
49 1144 0
49 1145 0
49 1146 0
49 1147 0
49 1148 0
49 1149 0
49 1150 0
49 1151 0
49 1152 0
49 1153 0
49 1154 0
49 1155 0
49 1156 0
49 1157 0
49 1158 0
49 1159 0
49 1160 0
49 1161 0
49 1162 0
49 1163 0
49 1164 0
49 1165 0
49 1166 0
49 1167 0
49 1168 0
49 1169 0
49 1170 0
49 1171 0
49 1172 0
49 1173 0
49 1174 0
49 1175 0
49 1176 0
49 1177 0
49 1178 0
49 1179 0
49 1180 0
49 -1 2 0
49 -3 4 0
49 -5 6 0
49 -7 8 0
49 -9 10 0
49 -11 12 0
49 -13 14 0
49 -15 26 0
49 -16 27 0
49 -17 28 0
49 -18 29 0
49 -19 30 0
49 -20 31 0
49 -21 32 0
49 -22 33 0
49 -23 34 0
49 -24 35 0
49 -25 36 0
49 -15 -358 0
49 -15 -359 0
49 -15 -360 0
49 -15 -361 0
49 -15 -362 0
49 -15 -363 0
49 -15 -364 0
49 -15 -365 0
49 -15 -366 0
49 -15 -367 0
49 -16 -368 0
49 -17 -368 0
49 -18 -368 0
49 -19 -368 0
49 -20 -368 0
49 -21 -368 0
49 -22 -368 0
49 -23 -368 0
49 -24 -368 0
49 -25 -368 0
49 -37 41 0
49 -38 42 0
49 -39 43 0
49 -40 44 0
49 -45 46 0
49 -47 48 0
49 -49 50 0
49 -51 52 0
49 -53 54 0
49 -55 56 0
49 -57 58 0
49 -59 82 0
49 -60 71 0
49 -61 72 0
49 -62 73 0
49 -63 74 0
49 -64 75 0
49 -65 76 0
49 -66 77 0
49 -67 78 0
49 -68 79 0
49 -69 80 0
49 -70 81 0
49 -83 84 0
49 -85 86 0
49 -87 88 0
49 -89 90 0
49 -91 92 0
49 -93 94 0
49 -95 96 0
49 -97 98 0
49 -99 100 0
49 -101 102 0
49 -103 104 0
49 -105 106 0
49 -107 108 0
49 -109 110 0
49 -111 112 0
49 -113 114 0
49 -115 116 0
49 -117 118 0
49 -119 120 0
49 -121 126 0
49 -122 127 0
49 -123 128 0
49 -124 129 0
49 -125 130 0
49 -131 132 0
49 -133 134 0
49 -135 139 0
49 -136 140 0
49 -137 141 0
49 -138 142 0
49 -143 144 0
49 -145 146 0
49 -147 148 0
49 -149 150 0
49 -151 152 0
49 -153 156 0
49 -154 157 0
49 -155 158 0
49 -159 160 0
49 -161 168 0
49 -162 169 0
49 -163 170 0
49 -164 171 0
49 -165 172 0
49 -166 173 0
49 -167 174 0
49 -175 176 0
49 -177 178 0
49 -179 180 0
49 -181 182 0
49 -183 184 0
49 -185 186 0
49 -187 188 0
49 -189 190 0
49 -191 192 0
49 -193 194 0
49 -195 196 0
49 -197 198 0
49 -199 200 0
49 -201 202 0
49 -203 204 0
49 -205 206 0
49 -207 209 0
49 -208 210 0
49 -211 212 0
49 -213 214 0
49 -215 216 0
49 -217 222 0
49 -218 223 0
49 -219 224 0
49 -220 225 0
49 -221 226 0
49 -227 228 0
49 -229 230 0
49 -231 232 0
49 -233 234 0
49 -235 236 0
49 -237 238 0
49 -239 240 0
49 -241 242 0
49 -243 244 0
49 -245 246 0
49 -247 248 0
49 -249 250 0
49 -251 252 0
49 -253 260 0
49 -254 261 0
49 -255 262 0
49 -256 263 0
49 -257 264 0
49 -258 265 0
49 -259 266 0
49 -267 268 0
49 -269 270 0
49 -271 272 0
49 -273 274 0
49 -275 276 0
49 -277 278 0
49 -279 280 0
49 -281 282 0
49 -283 284 0
49 -285 286 0
49 -287 288 0
49 -289 290 0
49 -291 292 0
49 -293 295 0
49 -294 296 0
49 -297 298 0
49 -299 300 0
49 -301 302 0
49 -303 304 0
49 -305 306 0
49 -307 308 0
49 -309 310 0
49 -311 312 0
49 -313 314 0
49 -315 316 0
49 -317 318 0
49 -319 320 0
49 -321 322 0
49 -323 324 0
49 -325 327 0
49 -326 328 0
49 -326 -455 0
49 -329 330 0
49 -331 332 0
49 -333 334 0
49 -335 336 0
49 -337 338 0
49 -339 340 0
49 -341 342 0
49 -343 344 0
49 -345 346 0
49 -347 358 0
49 -348 359 0
49 -349 360 0
49 -350 361 0
49 -351 362 0
49 -352 363 0
49 -353 364 0
49 -354 365 0
49 -355 366 0
49 -356 367 0
49 -357 368 0
49 -369 370 0
49 -371 372 0
49 -373 374 0
49 -375 376 0
49 -377 385 0
49 -378 386 0
49 -379 387 0
49 -380 388 0
49 -381 389 0
49 -382 390 0
49 -383 391 0
49 -384 392 0
49 -393 394 0
49 -395 396 0
49 -397 400 0
49 -398 401 0
49 -399 402 0
49 -398 -748 0
49 -399 -748 0
49 -399 -749 0
49 -400 -746 0
49 -400 -747 0
49 -401 -747 0
49 -403 404 0
49 -405 406 0
49 -407 408 0
49 -409 410 0
49 -411 412 0
49 -413 414 0
49 -415 416 0
49 -417 421 0
49 -418 422 0
49 -419 423 0
49 -420 424 0
49 -418 -721 0
49 -419 -721 0
49 -419 -722 0
49 -420 -722 0
49 -420 -723 0
49 -417 -725 0
49 -417 -726 0
49 -418 -726 0
49 -425 426 0
49 -427 428 0
49 -429 437 0
49 -430 438 0
49 -431 439 0
49 -432 440 0
49 -433 441 0
49 -434 442 0
49 -435 436 0
49 -443 444 0
49 -445 446 0
49 -447 450 0
49 -448 451 0
49 -449 452 0
49 -453 455 0
49 -454 456 0
49 -457 458 0
49 -459 460 0
49 -461 462 0
49 -463 464 0
49 -465 466 0
49 -467 468 0
49 -469 470 0
49 -471 472 0
49 -473 474 0
49 -475 476 0
49 -477 479 0
49 -478 480 0
49 -481 482 0
49 -483 484 0
49 -485 486 0
49 -487 488 0
49 -489 490 0
49 -491 492 0
49 -493 494 0
49 -495 501 0
49 -496 502 0
49 -497 503 0
49 -498 504 0
49 -499 505 0
49 -500 506 0
49 -507 508 0
49 -509 510 0
49 -511 512 0
49 -513 514 0
49 -515 516 0
49 -517 518 0
49 -519 520 0
49 -521 522 0
49 -523 530 0
49 -524 531 0
49 -525 532 0
49 -526 533 0
49 -527 534 0
49 -528 535 0
49 -529 536 0
49 -523 -873 0
49 -523 -874 0
49 -524 -873 0
49 -524 -874 0
49 -525 -873 0
49 -525 -874 0
49 -526 -873 0
49 -526 -874 0
49 -527 -873 0
49 -527 -874 0
49 -528 -874 0
49 -537 538 0
49 -539 540 0
49 -541 542 0
49 -543 544 0
49 -545 546 0
49 -547 548 0
49 -549 550 0
49 -551 554 0
49 -552 553 0
49 -555 556 0
49 -557 558 0
49 -559 560 0
49 -561 562 0
49 -563 564 0
49 -565 566 0
49 -567 568 0
49 -569 570 0
49 -571 572 0
49 -573 574 0
49 -575 576 0
49 -577 578 0
49 -579 580 0
49 -581 582 0
49 -583 584 0
49 -585 586 0
49 -587 588 0
49 -589 590 0
49 -591 592 0
49 -593 594 0
49 -595 596 0
49 -597 599 0
49 -598 600 0
49 -601 602 0
49 -603 604 0
49 -605 606 0
49 -607 608 0
49 -609 610 0
49 -611 617 0
49 -612 618 0
49 -613 619 0
49 -614 620 0
49 -615 621 0
49 -616 622 0
49 -618 -997 0
49 -619 -998 0
49 -620 -999 0
49 -621 -1000 0
49 -623 624 0
49 -625 626 0
49 -627 628 0
49 -629 630 0
49 -631 632 0
49 -633 634 0
49 -635 636 0
49 -637 638 0
49 -639 640 0
49 -641 643 0
49 -642 644 0
49 -645 646 0
49 -647 648 0
49 -649 650 0
49 -651 652 0
49 -653 654 0
49 -655 656 0
49 -657 658 0
49 -659 660 0
49 -661 662 0
49 -663 664 0
49 -665 666 0
49 -667 668 0
49 -669 671 0
49 -670 672 0
49 -673 674 0
49 -675 676 0
49 -677 678 0
49 -679 680 0
49 -681 682 0
49 -683 684 0
49 -685 686 0
49 -687 688 0
49 -689 690 0
49 -691 692 0
49 -693 694 0
49 -695 696 0
49 -697 698 0
49 -699 700 0
49 -701 702 0
49 -703 704 0
49 -705 706 0
49 -707 708 0
49 -709 710 0
49 -711 712 0
49 -713 714 0
49 -715 716 0
49 -717 718 0
49 -719 720 0
49 -721 724 0
49 -722 725 0
49 -723 726 0
49 -721 -994 0
49 -722 -995 0
49 -723 -996 0
49 -727 728 0
49 -729 730 0
49 -731 732 0
49 -733 734 0
49 -735 736 0
49 -737 738 0
49 -739 740 0
49 -741 742 0
49 -743 744 0
49 -745 748 0
49 -746 749 0
49 -747 750 0
49 -751 752 0
49 -753 754 0
49 -755 756 0
49 -757 758 0
49 -759 760 0
49 -761 762 0
49 -763 764 0
49 -765 766 0
49 -767 768 0
49 -769 770 0
49 -771 772 0
49 -773 774 0
49 -775 776 0
49 -777 778 0
49 -779 780 0
49 -781 782 0
49 -783 784 0
49 -785 786 0
49 -787 788 0
49 -789 790 0
49 -791 792 0
49 -793 794 0
49 -795 796 0
49 -797 798 0
49 -799 800 0
49 -801 802 0
49 -803 804 0
49 -805 806 0
49 -807 808 0
49 -809 810 0
49 -811 812 0
49 -813 814 0
49 -815 816 0
49 -817 818 0
49 -819 820 0
49 -821 822 0
49 -823 824 0
49 -825 826 0
49 -827 833 0
49 -828 834 0
49 -829 835 0
49 -830 836 0
49 -831 837 0
49 -832 838 0
49 -839 840 0
49 -841 842 0
49 -843 844 0
49 -845 846 0
49 -847 848 0
49 -849 850 0
49 -851 852 0
49 -853 854 0
49 -855 856 0
49 -857 858 0
49 -859 860 0
49 -861 862 0
49 -863 864 0
49 -865 866 0
49 -867 868 0
49 -869 872 0
49 -870 873 0
49 -871 874 0
49 -875 876 0
49 -877 878 0
49 -879 880 0
49 -881 882 0
49 -883 884 0
49 -885 886 0
49 -887 888 0
49 -889 890 0
49 -891 892 0
49 -893 894 0
49 -895 896 0
49 -897 898 0
49 -899 900 0
49 -901 903 0
49 -902 904 0
49 -905 906 0
49 -907 908 0
49 -909 910 0
49 -911 912 0
49 -913 914 0
49 -915 916 0
49 -917 918 0
49 -919 920 0
49 -921 922 0
49 -923 924 0
49 -925 928 0
49 -926 929 0
49 -927 930 0
49 -929 -1063 0
49 -930 -1063 0
49 -930 -1064 0
49 -931 932 0
49 -933 934 0
49 -935 936 0
49 -937 938 0
49 -939 940 0
49 -941 942 0
49 -943 944 0
49 -945 946 0
49 -947 948 0
49 -949 950 0
49 -951 952 0
49 -953 954 0
49 -955 956 0
49 -957 958 0
49 -959 960 0
49 -961 962 0
49 -963 964 0
49 -965 966 0
49 -967 968 0
49 -969 970 0
49 -971 972 0
49 -973 974 0
49 -975 976 0
49 -977 978 0
49 -979 980 0
49 -981 982 0
49 -983 984 0
49 -985 986 0
49 -987 988 0
49 -989 990 0
49 -991 992 0
49 -993 997 0
49 -994 998 0
49 -995 999 0
49 -996 1000 0
49 -1001 1002 0
49 -1003 1004 0
49 -1005 1006 0
49 -1007 1008 0
49 -1009 1010 0
49 -1011 1012 0
49 -1013 1014 0
49 -1015 1016 0
49 -1017 1018 0
49 -1019 1020 0
49 -1021 1022 0
49 -1023 1024 0
49 -1025 1026 0
49 -1027 1028 0
49 -1029 1030 0
49 -1031 1032 0
49 -1033 1034 0
49 -1035 1036 0
49 -1037 1039 0
49 -1038 1040 0
49 -1041 1042 0
49 -1043 1044 0
49 -1045 1046 0
49 -1047 1048 0
49 -1049 1050 0
49 -1051 1052 0
49 -1053 1054 0
49 -1055 1056 0
49 -1057 1058 0
49 -1059 1060 0
49 -1061 1062 0
49 -1063 1074 0
49 -1064 1075 0
49 -1065 1076 0
49 -1066 1077 0
49 -1067 1078 0
49 -1068 1079 0
49 -1069 1080 0
49 -1070 1081 0
49 -1071 1082 0
49 -1072 1083 0
49 -1073 1084 0
49 -1085 1086 0
49 -1087 1088 0
49 -1089 1090 0
49 -1091 1092 0
49 -1093 1094 0
49 -1095 1096 0
49 -1097 1098 0
49 -1099 1100 0
49 -1101 1102 0
49 -1103 1104 0
49 -1105 1106 0
49 -1107 1108 0
49 -1109 1110 0
49 -1111 1112 0
49 -1113 1114 0
49 -1115 1116 0
49 -1117 1118 0
49 -1119 1120 0
49 -1121 1122 0
49 -1123 1124 0
49 -1125 1126 0
49 -1127 1128 0
49 -1129 1130 0
49 -1131 1132 0
49 -1133 1134 0
49 -1135 1136 0
49 -1137 1138 0
49 -1139 1140 0
49 -1141 1142 0
49 -1143 1144 0
49 -1145 1146 0
49 -1147 1148 0
49 -1149 1150 0
49 -1151 1152 0
49 -1153 1154 0
49 -1155 1156 0
49 -1157 1158 0
49 -1159 1160 0
49 -1161 1162 0
49 -1163 1164 0
49 -1165 1166 0
49 -1167 1168 0
49 -1169 1170 0
49 -1171 1172 0
49 -1173 1174 0
49 -1175 1176 0
49 -1177 1178 0
49 -1179 1180 0
49 -1 1671 0
49 -2 1684 0
49 -3 1709 0
49 -4 1698 0
49 -5 1671 0
49 -6 1684 0
49 -7 1676 0
49 -8 1689 0
49 -9 1712 0
49 -10 1701 0
49 -11 1672 0
49 -12 1685 0
49 -13 1674 0
49 -14 1687 0
49 -15 1671 0
49 -16 1703 0
49 -17 1704 0
49 -18 1705 0
49 -19 1706 0
49 -20 1707 0
49 -21 1708 0
49 -22 1709 0
49 -23 1710 0
49 -24 1711 0
49 -25 1712 0
49 -26 1684 0
49 -27 1691 0
49 -28 1692 0
49 -29 1693 0
49 -30 1694 0
49 -31 1696 0
49 -32 1697 0
49 -33 1698 0
49 -34 1699 0
49 -35 1700 0
49 -36 1701 0
49 -37 1708 0
49 -38 1709 0
49 -39 1710 0
49 -40 1711 0
49 -41 1697 0
49 -42 1698 0
49 -43 1699 0
49 -44 1700 0
49 -45 1711 0
49 -46 1700 0
49 -47 1707 0
49 -48 1696 0
49 -49 1703 0
49 -50 1691 0
49 -51 1711 0
49 -52 1700 0
49 -53 1708 0
49 -54 1697 0
49 -55 1706 0
49 -56 1694 0
49 -57 1675 0
49 -58 1688 0
49 -59 1665 0
49 -60 1678 0
49 -61 1679 0
49 -62 1680 0
49 -63 1681 0
49 -64 1682 0
49 -65 1683 0
49 -66 1684 0
49 -67 1685 0
49 -68 1686 0
49 -69 1687 0
49 -70 1688 0
49 -71 1665 0
49 -72 1666 0
49 -73 1667 0
49 -74 1668 0
49 -75 1669 0
49 -76 1670 0
49 -77 1671 0
49 -78 1672 0
49 -79 1673 0
49 -80 1674 0
49 -81 1675 0
49 -82 1678 0
49 -83 1702 0
49 -84 1690 0
49 -85 1712 0
49 -86 1701 0
49 -87 1712 0
49 -88 1701 0
49 -89 1708 0
49 -90 1697 0
49 -91 1703 0
49 -92 1691 0
49 -93 1710 0
49 -94 1699 0
49 -95 1665 0
49 -96 1678 0
49 -97 1674 0
49 -98 1687 0
49 -99 1668 0
49 -100 1681 0
49 -101 1665 0
49 -102 1678 0
49 -103 1676 0
49 -104 1689 0
49 -105 1712 0
49 -106 1701 0
49 -107 1673 0
49 -108 1686 0
49 -109 1705 0
49 -110 1693 0
49 -111 1677 0
49 -112 1695 0
49 -113 1674 0
49 -114 1687 0
49 -115 1665 0
49 -116 1678 0
49 -117 1712 0
49 -118 1701 0
49 -119 1665 0
49 -120 1678 0
49 -121 1665 0
49 -122 1666 0
49 -123 1667 0
49 -124 1668 0
49 -125 1669 0
49 -126 1678 0
49 -127 1679 0
49 -128 1680 0
49 -129 1681 0
49 -130 1682 0
49 -131 1709 0
49 -132 1698 0
49 -133 1670 0
49 -134 1683 0
49 -135 1666 0
49 -136 1667 0
49 -137 1668 0
49 -138 1669 0
49 -139 1679 0
49 -140 1680 0
49 -141 1681 0
49 -142 1682 0
49 -143 1707 0
49 -144 1696 0
49 -145 1665 0
49 -146 1678 0
49 -147 1709 0
49 -148 1698 0
49 -149 1665 0
49 -150 1678 0
49 -151 1707 0
49 -152 1696 0
49 -153 1672 0
49 -154 1673 0
49 -155 1674 0
49 -156 1685 0
49 -157 1686 0
49 -158 1687 0
49 -159 1675 0
49 -160 1688 0
49 -161 1706 0
49 -162 1707 0
49 -163 1708 0
49 -164 1709 0
49 -165 1710 0
49 -166 1711 0
49 -167 1712 0
49 -168 1694 0
49 -169 1696 0
49 -170 1697 0
49 -171 1698 0
49 -172 1699 0
49 -173 1700 0
49 -174 1701 0
49 -175 1665 0
49 -176 1678 0
49 -177 1677 0
49 -178 1695 0
49 -179 1702 0
49 -180 1690 0
49 -181 1667 0
49 -182 1680 0
49 -183 1704 0
49 -184 1692 0
49 -185 1665 0
49 -186 1678 0
49 -187 1668 0
49 -188 1681 0
49 -189 1670 0
49 -190 1683 0
49 -191 1669 0
49 -192 1682 0
49 -193 1712 0
49 -194 1701 0
49 -195 1665 0
49 -196 1678 0
49 -197 1672 0
49 -198 1685 0
49 -199 1665 0
49 -200 1678 0
49 -201 1674 0
49 -202 1687 0
49 -203 1712 0
49 -204 1701 0
49 -205 1702 0
49 -206 1690 0
49 -207 1670 0
49 -208 1671 0
49 -209 1683 0
49 -210 1684 0
49 -211 1711 0
49 -212 1700 0
49 -213 1706 0
49 -214 1694 0
49 -215 1665 0
49 -216 1678 0
49 -217 1665 0
49 -218 1666 0
49 -219 1667 0
49 -220 1668 0
49 -221 1669 0
49 -222 1678 0
49 -223 1679 0
49 -224 1680 0
49 -225 1681 0
49 -226 1682 0
49 -227 1708 0
49 -228 1697 0
49 -229 1671 0
49 -230 1684 0
49 -231 1709 0
49 -232 1698 0
49 -233 1677 0
49 -234 1695 0
49 -235 1703 0
49 -236 1691 0
49 -237 1674 0
49 -238 1687 0
49 -239 1705 0
49 -240 1693 0
49 -241 1665 0
49 -242 1678 0
49 -243 1702 0
49 -244 1690 0
49 -245 1671 0
49 -246 1684 0
49 -247 1702 0
49 -248 1690 0
49 -249 1710 0
49 -250 1699 0
49 -251 1669 0
49 -252 1682 0
49 -253 1666 0
49 -254 1667 0
49 -255 1668 0
49 -256 1669 0
49 -257 1670 0
49 -258 1671 0
49 -259 1672 0
49 -260 1679 0
49 -261 1680 0
49 -262 1681 0
49 -263 1682 0
49 -264 1683 0
49 -265 1684 0
49 -266 1685 0
49 -267 1712 0
49 -268 1701 0
49 -269 1712 0
49 -270 1701 0
49 -271 1705 0
49 -272 1693 0
49 -273 1705 0
49 -274 1693 0
49 -275 1675 0
49 -276 1688 0
49 -277 1675 0
49 -278 1688 0
49 -279 1703 0
49 -280 1691 0
49 -281 1706 0
49 -282 1694 0
49 -283 1705 0
49 -284 1693 0
49 -285 1676 0
49 -286 1689 0
49 -287 1712 0
49 -288 1701 0
49 -289 1705 0
49 -290 1693 0
49 -291 1670 0
49 -292 1683 0
49 -293 1673 0
49 -294 1674 0
49 -295 1686 0
49 -296 1687 0
49 -297 1677 0
49 -298 1695 0
49 -299 1669 0
49 -300 1682 0
49 -301 1668 0
49 -302 1681 0
49 -303 1666 0
49 -304 1679 0
49 -305 1712 0
49 -306 1701 0
49 -307 1704 0
49 -308 1692 0
49 -309 1710 0
49 -310 1699 0
49 -311 1677 0
49 -312 1695 0
49 -313 1670 0
49 -314 1683 0
49 -315 1667 0
49 -316 1680 0
49 -317 1712 0
49 -318 1701 0
49 -319 1708 0
49 -320 1697 0
49 -321 1675 0
49 -322 1688 0
49 -323 1672 0
49 -324 1685 0
49 -325 1665 0
49 -326 1666 0
49 -327 1678 0
49 -328 1679 0
49 -329 1676 0
49 -330 1689 0
49 -331 1665 0
49 -332 1678 0
49 -333 1712 0
49 -334 1701 0
49 -335 1665 0
49 -336 1678 0
49 -337 1676 0
49 -338 1689 0
49 -339 1703 0
49 -340 1691 0
49 -341 1708 0
49 -342 1697 0
49 -343 1665 0
49 -344 1678 0
49 -345 1671 0
49 -346 1684 0
49 -347 1679 0
49 -348 1680 0
49 -349 1681 0
49 -350 1682 0
49 -351 1683 0
49 -352 1684 0
49 -353 1685 0
49 -354 1686 0
49 -355 1687 0
49 -356 1688 0
49 -357 1707 0
49 -358 1666 0
49 -359 1667 0
49 -360 1668 0
49 -361 1669 0
49 -362 1670 0
49 -363 1671 0
49 -364 1672 0
49 -365 1673 0
49 -366 1674 0
49 -367 1675 0
49 -368 1696 0
49 -369 1712 0
49 -370 1701 0
49 -371 1673 0
49 -372 1686 0
49 -373 1703 0
49 -374 1691 0
49 -375 1677 0
49 -376 1695 0
49 -377 1704 0
49 -378 1705 0
49 -379 1706 0
49 -380 1707 0
49 -381 1708 0
49 -382 1709 0
49 -383 1710 0
49 -384 1711 0
49 -385 1692 0
49 -386 1693 0
49 -387 1694 0
49 -388 1696 0
49 -389 1697 0
49 -390 1698 0
49 -391 1699 0
49 -392 1700 0
49 -393 1706 0
49 -394 1694 0
49 -395 1665 0
49 -396 1678 0
49 -397 1672 0
49 -398 1673 0
49 -399 1674 0
49 -400 1685 0
49 -401 1686 0
49 -402 1687 0
49 -403 1672 0
49 -404 1685 0
49 -405 1704 0
49 -406 1692 0
49 -407 1666 0
49 -408 1679 0
49 -409 1674 0
49 -410 1687 0
49 -411 1712 0
49 -412 1701 0
49 -413 1670 0
49 -414 1683 0
49 -415 1676 0
49 -416 1689 0
49 -417 1706 0
49 -418 1707 0
49 -419 1708 0
49 -420 1712 0
49 -421 1694 0
49 -422 1696 0
49 -423 1697 0
49 -424 1701 0
49 -425 1712 0
49 -426 1701 0
49 -427 1666 0
49 -428 1679 0
49 -429 1696 0
49 -430 1697 0
49 -431 1698 0
49 -432 1699 0
49 -433 1700 0
49 -434 1701 0
49 -435 1712 0
49 -436 1701 0
49 -437 1707 0
49 -438 1708 0
49 -439 1709 0
49 -440 1710 0
49 -441 1711 0
49 -442 1712 0
49 -443 1671 0
49 -444 1684 0
49 -445 1712 0
49 -446 1701 0
49 -447 1710 0
49 -448 1711 0
49 -449 1712 0
49 -450 1699 0
49 -451 1700 0
49 -452 1701 0
49 -453 1705 0
49 -454 1706 0
49 -455 1693 0
49 -456 1694 0
49 -457 1676 0
49 -458 1689 0
49 -459 1703 0
49 -460 1691 0
49 -461 1665 0
49 -462 1678 0
49 -463 1668 0
49 -464 1681 0
49 -465 1675 0
49 -466 1688 0
49 -467 1712 0
49 -468 1701 0
49 -469 1667 0
49 -470 1680 0
49 -471 1711 0
49 -472 1700 0
49 -473 1668 0
49 -474 1681 0
49 -475 1671 0
49 -476 1684 0
49 -477 1665 0
49 -478 1666 0
49 -479 1678 0
49 -480 1679 0
49 -481 1668 0
49 -482 1681 0
49 -483 1667 0
49 -484 1680 0
49 -485 1675 0
49 -486 1688 0
49 -487 1706 0
49 -488 1694 0
49 -489 1712 0
49 -490 1701 0
49 -491 1665 0
49 -492 1678 0
49 -493 1677 0
49 -494 1695 0
49 -495 1666 0
49 -496 1667 0
49 -497 1668 0
49 -498 1669 0
49 -499 1670 0
49 -500 1703 0
49 -501 1679 0
49 -502 1680 0
49 -503 1681 0
49 -504 1682 0
49 -505 1683 0
49 -506 1691 0
49 -507 1702 0
49 -508 1690 0
49 -509 1672 0
49 -510 1685 0
49 -511 1705 0
49 -512 1693 0
49 -513 1676 0
49 -514 1689 0
49 -515 1667 0
49 -516 1680 0
49 -517 1712 0
49 -518 1701 0
49 -519 1676 0
49 -520 1689 0
49 -521 1671 0
49 -522 1684 0
49 -523 1706 0
49 -524 1707 0
49 -525 1708 0
49 -526 1709 0
49 -527 1710 0
49 -528 1711 0
49 -529 1712 0
49 -530 1694 0
49 -531 1696 0
49 -532 1697 0
49 -533 1698 0
49 -534 1699 0
49 -535 1700 0
49 -536 1701 0
49 -537 1676 0
49 -538 1689 0
49 -539 1705 0
49 -540 1693 0
49 -541 1706 0
49 -542 1694 0
49 -543 1712 0
49 -544 1701 0
49 -545 1668 0
49 -546 1681 0
49 -547 1712 0
49 -548 1701 0
49 -549 1708 0
49 -550 1697 0
49 -551 1673 0
49 -552 1687 0
49 -553 1674 0
49 -554 1686 0
49 -555 1667 0
49 -556 1680 0
49 -557 1670 0
49 -558 1683 0
49 -559 1712 0
49 -560 1701 0
49 -561 1675 0
49 -562 1688 0
49 -563 1665 0
49 -564 1678 0
49 -565 1712 0
49 -566 1701 0
49 -567 1703 0
49 -568 1691 0
49 -569 1672 0
49 -570 1685 0
49 -571 1665 0
49 -572 1678 0
49 -573 1673 0
49 -574 1686 0
49 -575 1667 0
49 -576 1680 0
49 -577 1676 0
49 -578 1689 0
49 -579 1707 0
49 -580 1696 0
49 -581 1712 0
49 -582 1701 0
49 -583 1673 0
49 -584 1686 0
49 -585 1712 0
49 -586 1701 0
49 -587 1709 0
49 -588 1698 0
49 -589 1665 0
49 -590 1678 0
49 -591 1712 0
49 -592 1701 0
49 -593 1666 0
49 -594 1679 0
49 -595 1703 0
49 -596 1691 0
49 -597 1674 0
49 -598 1676 0
49 -599 1687 0
49 -600 1689 0
49 -601 1675 0
49 -602 1688 0
49 -603 1674 0
49 -604 1687 0
49 -605 1676 0
49 -606 1689 0
49 -607 1665 0
49 -608 1678 0
49 -609 1712 0
49 -610 1701 0
49 -611 1707 0
49 -612 1708 0
49 -613 1709 0
49 -614 1710 0
49 -615 1711 0
49 -616 1712 0
49 -617 1696 0
49 -618 1697 0
49 -619 1698 0
49 -620 1699 0
49 -621 1700 0
49 -622 1701 0
49 -623 1667 0
49 -624 1680 0
49 -625 1671 0
49 -626 1684 0
49 -627 1665 0
49 -628 1678 0
49 -629 1712 0
49 -630 1701 0
49 -631 1677 0
49 -632 1695 0
49 -633 1706 0
49 -634 1694 0
49 -635 1665 0
49 -636 1678 0
49 -637 1677 0
49 -638 1695 0
49 -639 1667 0
49 -640 1680 0
49 -641 1706 0
49 -642 1707 0
49 -643 1694 0
49 -644 1696 0
49 -645 1704 0
49 -646 1692 0
49 -647 1711 0
49 -648 1700 0
49 -649 1673 0
49 -650 1686 0
49 -651 1712 0
49 -652 1701 0
49 -653 1703 0
49 -654 1691 0
49 -655 1712 0
49 -656 1701 0
49 -657 1665 0
49 -658 1678 0
49 -659 1712 0
49 -660 1701 0
49 -661 1712 0
49 -662 1701 0
49 -663 1707 0
49 -664 1696 0
49 -665 1710 0
49 -666 1699 0
49 -667 1673 0
49 -668 1686 0
49 -669 1665 0
49 -670 1666 0
49 -671 1678 0
49 -672 1679 0
49 -673 1675 0
49 -674 1688 0
49 -675 1673 0
49 -676 1686 0
49 -677 1712 0
49 -678 1701 0
49 -679 1702 0
49 -680 1690 0
49 -681 1665 0
49 -682 1678 0
49 -683 1677 0
49 -684 1695 0
49 -685 1665 0
49 -686 1678 0
49 -687 1668 0
49 -688 1681 0
49 -689 1672 0
49 -690 1685 0
49 -691 1710 0
49 -692 1699 0
49 -693 1712 0
49 -694 1701 0
49 -695 1706 0
49 -696 1694 0
49 -697 1677 0
49 -698 1695 0
49 -699 1703 0
49 -700 1691 0
49 -701 1665 0
49 -702 1678 0
49 -703 1667 0
49 -704 1680 0
49 -705 1665 0
49 -706 1678 0
49 -707 1707 0
49 -708 1696 0
49 -709 1675 0
49 -710 1688 0
49 -711 1666 0
49 -712 1679 0
49 -713 1666 0
49 -714 1679 0
49 -715 1674 0
49 -716 1687 0
49 -717 1710 0
49 -718 1699 0
49 -719 1705 0
49 -720 1693 0
49 -721 1709 0
49 -722 1710 0
49 -723 1711 0
49 -724 1698 0
49 -725 1699 0
49 -726 1700 0
49 -727 1704 0
49 -728 1692 0
49 -729 1670 0
49 -730 1683 0
49 -731 1668 0
49 -732 1681 0
49 -733 1706 0
49 -734 1694 0
49 -735 1704 0
49 -736 1692 0
49 -737 1704 0
49 -738 1692 0
49 -739 1705 0
49 -740 1693 0
49 -741 1672 0
49 -742 1685 0
49 -743 1677 0
49 -744 1695 0
49 -745 1666 0
49 -746 1667 0
49 -747 1668 0
49 -748 1679 0
49 -749 1680 0
49 -750 1681 0
49 -751 1665 0
49 -752 1678 0
49 -753 1666 0
49 -754 1679 0
49 -755 1677 0
49 -756 1695 0
49 -757 1667 0
49 -758 1680 0
49 -759 1666 0
49 -760 1679 0
49 -761 1665 0
49 -762 1678 0
49 -763 1669 0
49 -764 1682 0
49 -765 1712 0
49 -766 1701 0
49 -767 1705 0
49 -768 1693 0
49 -769 1665 0
49 -770 1678 0
49 -771 1671 0
49 -772 1684 0
49 -773 1669 0
49 -774 1682 0
49 -775 1665 0
49 -776 1678 0
49 -777 1675 0
49 -778 1688 0
49 -779 1671 0
49 -780 1684 0
49 -781 1665 0
49 -782 1678 0
49 -783 1668 0
49 -784 1681 0
49 -785 1670 0
49 -786 1683 0
49 -787 1712 0
49 -788 1701 0
49 -789 1709 0
49 -790 1698 0
49 -791 1669 0
49 -792 1682 0
49 -793 1711 0
49 -794 1700 0
49 -795 1665 0
49 -796 1678 0
49 -797 1707 0
49 -798 1696 0
49 -799 1675 0
49 -800 1688 0
49 -801 1675 0
49 -802 1688 0
49 -803 1711 0
49 -804 1700 0
49 -805 1703 0
49 -806 1691 0
49 -807 1704 0
49 -808 1692 0
49 -809 1674 0
49 -810 1687 0
49 -811 1669 0
49 -812 1682 0
49 -813 1706 0
49 -814 1694 0
49 -815 1708 0
49 -816 1697 0
49 -817 1665 0
49 -818 1678 0
49 -819 1673 0
49 -820 1686 0
49 -821 1707 0
49 -822 1696 0
49 -823 1665 0
49 -824 1678 0
49 -825 1709 0
49 -826 1698 0
49 -827 1707 0
49 -828 1708 0
49 -829 1709 0
49 -830 1710 0
49 -831 1711 0
49 -832 1712 0
49 -833 1696 0
49 -834 1697 0
49 -835 1698 0
49 -836 1699 0
49 -837 1700 0
49 -838 1701 0
49 -839 1666 0
49 -840 1679 0
49 -841 1705 0
49 -842 1693 0
49 -843 1711 0
49 -844 1700 0
49 -845 1703 0
49 -846 1691 0
49 -847 1672 0
49 -848 1685 0
49 -849 1711 0
49 -850 1700 0
49 -851 1671 0
49 -852 1684 0
49 -853 1671 0
49 -854 1684 0
49 -855 1665 0
49 -856 1678 0
49 -857 1677 0
49 -858 1695 0
49 -859 1665 0
49 -860 1678 0
49 -861 1707 0
49 -862 1696 0
49 -863 1666 0
49 -864 1679 0
49 -865 1665 0
49 -866 1678 0
49 -867 1667 0
49 -868 1680 0
49 -869 1674 0
49 -870 1704 0
49 -871 1705 0
49 -872 1687 0
49 -873 1692 0
49 -874 1693 0
49 -875 1670 0
49 -876 1683 0
49 -877 1676 0
49 -878 1689 0
49 -879 1672 0
49 -880 1685 0
49 -881 1673 0
49 -882 1686 0
49 -883 1671 0
49 -884 1684 0
49 -885 1707 0
49 -886 1696 0
49 -887 1672 0
49 -888 1685 0
49 -889 1673 0
49 -890 1686 0
49 -891 1676 0
49 -892 1689 0
49 -893 1670 0
49 -894 1683 0
49 -895 1674 0
49 -896 1687 0
49 -897 1671 0
49 -898 1684 0
49 -899 1704 0
49 -900 1692 0
49 -901 1702 0
49 -902 1712 0
49 -903 1690 0
49 -904 1701 0
49 -905 1711 0
49 -906 1700 0
49 -907 1677 0
49 -908 1695 0
49 -909 1704 0
49 -910 1692 0
49 -911 1703 0
49 -912 1691 0
49 -913 1666 0
49 -914 1679 0
49 -915 1703 0
49 -916 1691 0
49 -917 1707 0
49 -918 1696 0
49 -919 1712 0
49 -920 1701 0
49 -921 1706 0
49 -922 1694 0
49 -923 1712 0
49 -924 1701 0
49 -925 1710 0
49 -926 1711 0
49 -927 1712 0
49 -928 1699 0
49 -929 1700 0
49 -930 1701 0
49 -931 1665 0
49 -932 1678 0
49 -933 1667 0
49 -934 1680 0
49 -935 1702 0
49 -936 1690 0
49 -937 1712 0
49 -938 1701 0
49 -939 1703 0
49 -940 1691 0
49 -941 1677 0
49 -942 1695 0
49 -943 1712 0
49 -944 1701 0
49 -945 1671 0
49 -946 1684 0
49 -947 1712 0
49 -948 1701 0
49 -949 1704 0
49 -950 1692 0
49 -951 1675 0
49 -952 1688 0
49 -953 1673 0
49 -954 1686 0
49 -955 1677 0
49 -956 1695 0
49 -957 1702 0
49 -958 1690 0
49 -959 1676 0
49 -960 1689 0
49 -961 1669 0
49 -962 1682 0
49 -963 1703 0
49 -964 1691 0
49 -965 1712 0
49 -966 1701 0
49 -967 1675 0
49 -968 1688 0
49 -969 1706 0
49 -970 1694 0
49 -971 1670 0
49 -972 1683 0
49 -973 1665 0
49 -974 1678 0
49 -975 1705 0
49 -976 1693 0
49 -977 1710 0
49 -978 1699 0
49 -979 1708 0
49 -980 1697 0
49 -981 1702 0
49 -982 1690 0
49 -983 1666 0
49 -984 1679 0
49 -985 1710 0
49 -986 1699 0
49 -987 1708 0
49 -988 1697 0
49 -989 1674 0
49 -990 1687 0
49 -991 1703 0
49 -992 1691 0
49 -993 1708 0
49 -994 1709 0
49 -995 1710 0
49 -996 1711 0
49 -997 1697 0
49 -998 1698 0
49 -999 1699 0
49 -1000 1700 0
49 -1001 1702 0
49 -1002 1690 0
49 -1003 1673 0
49 -1004 1686 0
49 -1005 1668 0
49 -1006 1681 0
49 -1007 1673 0
49 -1008 1686 0
49 -1009 1665 0
49 -1010 1678 0
49 -1011 1665 0
49 -1012 1678 0
49 -1013 1674 0
49 -1014 1687 0
49 -1015 1711 0
49 -1016 1700 0
49 -1017 1706 0
49 -1018 1694 0
49 -1019 1669 0
49 -1020 1682 0
49 -1021 1704 0
49 -1022 1692 0
49 -1023 1710 0
49 -1024 1699 0
49 -1025 1704 0
49 -1026 1692 0
49 -1027 1711 0
49 -1028 1700 0
49 -1029 1709 0
49 -1030 1698 0
49 -1031 1668 0
49 -1032 1681 0
49 -1033 1709 0
49 -1034 1698 0
49 -1035 1712 0
49 -1036 1701 0
49 -1037 1679 0
49 -1038 1704 0
49 -1039 1666 0
49 -1040 1692 0
49 -1041 1704 0
49 -1042 1692 0
49 -1043 1702 0
49 -1044 1690 0
49 -1045 1712 0
49 -1046 1701 0
49 -1047 1674 0
49 -1048 1687 0
49 -1049 1668 0
49 -1050 1681 0
49 -1051 1677 0
49 -1052 1695 0
49 -1053 1710 0
49 -1054 1699 0
49 -1055 1712 0
49 -1056 1701 0
49 -1057 1703 0
49 -1058 1691 0
49 -1059 1667 0
49 -1060 1680 0
49 -1061 1707 0
49 -1062 1696 0
49 -1063 1702 0
49 -1064 1703 0
49 -1065 1704 0
49 -1066 1705 0
49 -1067 1706 0
49 -1068 1707 0
49 -1069 1708 0
49 -1070 1709 0
49 -1071 1710 0
49 -1072 1711 0
49 -1073 1712 0
49 -1074 1690 0
49 -1075 1691 0
49 -1076 1692 0
49 -1077 1693 0
49 -1078 1694 0
49 -1079 1696 0
49 -1080 1697 0
49 -1081 1698 0
49 -1082 1699 0
49 -1083 1700 0
49 -1084 1701 0
49 -1085 1712 0
49 -1086 1701 0
49 -1087 1710 0
49 -1088 1699 0
49 -1089 1667 0
49 -1090 1680 0
49 -1091 1667 0
49 -1092 1680 0
49 -1093 1669 0
49 -1094 1682 0
49 -1095 1676 0
49 -1096 1689 0
49 -1097 1670 0
49 -1098 1683 0
49 -1099 1704 0
49 -1100 1692 0
49 -1101 1676 0
49 -1102 1689 0
49 -1103 1666 0
49 -1104 1679 0
49 -1105 1705 0
49 -1106 1693 0
49 -1107 1711 0
49 -1108 1700 0
49 -1109 1674 0
49 -1110 1687 0
49 -1111 1712 0
49 -1112 1701 0
49 -1113 1670 0
49 -1114 1683 0
49 -1115 1704 0
49 -1116 1692 0
49 -1117 1674 0
49 -1118 1687 0
49 -1119 1711 0
49 -1120 1700 0
49 -1121 1665 0
49 -1122 1678 0
49 -1123 1665 0
49 -1124 1678 0
49 -1125 1666 0
49 -1126 1679 0
49 -1127 1708 0
49 -1128 1697 0
49 -1129 1709 0
49 -1130 1698 0
49 -1131 1666 0
49 -1132 1679 0
49 -1133 1668 0
49 -1134 1681 0
49 -1135 1709 0
49 -1136 1698 0
49 -1137 1674 0
49 -1138 1687 0
49 -1139 1665 0
49 -1140 1678 0
49 -1141 1669 0
49 -1142 1682 0
49 -1143 1676 0
49 -1144 1689 0
49 -1145 1676 0
49 -1146 1689 0
49 -1147 1709 0
49 -1148 1698 0
49 -1149 1672 0
49 -1150 1685 0
49 -1151 1710 0
49 -1152 1699 0
49 -1153 1712 0
49 -1154 1701 0
49 -1155 1665 0
49 -1156 1678 0
49 -1157 1712 0
49 -1158 1701 0
49 -1159 1711 0
49 -1160 1700 0
49 -1161 1705 0
49 -1162 1693 0
49 -1163 1674 0
49 -1164 1687 0
49 -1165 1704 0
49 -1166 1692 0
49 -1167 1709 0
49 -1168 1698 0
49 -1169 1704 0
49 -1170 1692 0
49 -1171 1711 0
49 -1172 1700 0
49 -1173 1665 0
49 -1174 1678 0
49 -1175 1677 0
49 -1176 1695 0
49 -1177 1667 0
49 -1178 1680 0
49 -1179 1706 0
49 -1180 1694 0
