c Dataset: TUD916.4
c Encoding: DSE
c DecisionVars: 2886
c OrderVars: 0
c CardinalityAuxVars: 3896
c LabelVars: 48
c TotalVars: 6830
c OrderClauses: 0
c CardinalityClauses: 8730
c DistanceClauses: 6312
c LabelLinkClauses: 2886
c SoftClauses: 48
c HardClauses: 17928
c TotalClauses: 17976
p wcnf 6830 17976 49
1 -6783 0
1 -6784 0
1 -6785 0
1 -6786 0
1 -6787 0
1 -6788 0
1 -6789 0
1 -6790 0
1 -6791 0
1 -6792 0
1 -6793 0
1 -6794 0
1 -6795 0
1 -6796 0
1 -6797 0
1 -6798 0
1 -6799 0
1 -6800 0
1 -6801 0
1 -6802 0
1 -6803 0
1 -6804 0
1 -6805 0
1 -6806 0
1 -6807 0
1 -6808 0
1 -6809 0
1 -6810 0
1 -6811 0
1 -6812 0
1 -6813 0
1 -6814 0
1 -6815 0
1 -6816 0
1 -6817 0
1 -6818 0
1 -6819 0
1 -6820 0
1 -6821 0
1 -6822 0
1 -6823 0
1 -6824 0
1 -6825 0
1 -6826 0
1 -6827 0
1 -6828 0
1 -6829 0
1 -6830 0
49 1 0
49 2 0
49 3 0
49 4 0
49 5 6 7 8 9 10 11 0
49 -2889 2887 2890 0
49 -2888 2887 2890 0
49 -2888 -2889 2890 0
49 -2890 0
49 -11 2889 2892 0
49 -2891 2889 2892 0
49 -2891 -11 2892 0
49 -2892 0
49 -10 2891 2893 0
49 -9 2891 2893 0
49 -9 -10 2893 0
49 -2893 0
49 -2895 2888 2896 0
49 -2894 2888 2896 0
49 -2894 -2895 2896 0
49 -2896 0
49 -8 2895 2897 0
49 -7 2895 2897 0
49 -7 -8 2897 0
49 -2897 0
49 -6 2894 2898 0
49 -5 2894 2898 0
49 -5 -6 2898 0
49 -2898 0
49 12 13 14 15 16 17 18 0
49 -2901 2899 2902 0
49 -2900 2899 2902 0
49 -2900 -2901 2902 0
49 -2902 0
49 -18 2901 2904 0
49 -2903 2901 2904 0
49 -2903 -18 2904 0
49 -2904 0
49 -17 2903 2905 0
49 -16 2903 2905 0
49 -16 -17 2905 0
49 -2905 0
49 -2907 2900 2908 0
49 -2906 2900 2908 0
49 -2906 -2907 2908 0
49 -2908 0
49 -15 2907 2909 0
49 -14 2907 2909 0
49 -14 -15 2909 0
49 -2909 0
49 -13 2906 2910 0
49 -12 2906 2910 0
49 -12 -13 2910 0
49 -2910 0
49 19 0
49 20 0
49 21 0
49 22 0
49 23 0
49 24 0
49 25 0
49 26 0
49 27 0
49 28 0
49 29 0
49 30 0
49 31 32 33 34 35 0
49 -2913 2911 2914 0
49 -2912 2911 2914 0
49 -2912 -2913 2914 0
49 -2914 0
49 -35 2913 2915 0
49 -34 2913 2915 0
49 -34 -35 2915 0
49 -2915 0
49 -33 2912 2917 0
49 -2916 2912 2917 0
49 -2916 -33 2917 0
49 -2917 0
49 -32 2916 2918 0
49 -31 2916 2918 0
49 -31 -32 2918 0
49 -2918 0
49 36 37 38 39 40 0
49 -2921 2919 2922 0
49 -2920 2919 2922 0
49 -2920 -2921 2922 0
49 -2922 0
49 -40 2921 2923 0
49 -39 2921 2923 0
49 -39 -40 2923 0
49 -2923 0
49 -38 2920 2925 0
49 -2924 2920 2925 0
49 -2924 -38 2925 0
49 -2925 0
49 -37 2924 2926 0
49 -36 2924 2926 0
49 -36 -37 2926 0
49 -2926 0
49 41 0
49 42 0
49 43 44 45 46 47 48 49 50 51 52 53 0
49 -2929 2927 2930 0
49 -2928 2927 2930 0
49 -2928 -2929 2930 0
49 -2930 0
49 -2932 2929 2933 0
49 -2931 2929 2933 0
49 -2931 -2932 2933 0
49 -2933 0
49 -53 2932 2934 0
49 -52 2932 2934 0
49 -52 -53 2934 0
49 -2934 0
49 -51 2931 2936 0
49 -2935 2931 2936 0
49 -2935 -51 2936 0
49 -2936 0
49 -50 2935 2937 0
49 -49 2935 2937 0
49 -49 -50 2937 0
49 -2937 0
49 -2939 2928 2940 0
49 -2938 2928 2940 0
49 -2938 -2939 2940 0
49 -2940 0
49 -48 2939 2942 0
49 -2941 2939 2942 0
49 -2941 -48 2942 0
49 -2942 0
49 -47 2941 2943 0
49 -46 2941 2943 0
49 -46 -47 2943 0
49 -2943 0
49 -45 2938 2945 0
49 -2944 2938 2945 0
49 -2944 -45 2945 0
49 -2945 0
49 -44 2944 2946 0
49 -43 2944 2946 0
49 -43 -44 2946 0
49 -2946 0
49 54 55 56 57 58 59 60 61 62 63 64 0
49 -2949 2947 2950 0
49 -2948 2947 2950 0
49 -2948 -2949 2950 0
49 -2950 0
49 -2952 2949 2953 0
49 -2951 2949 2953 0
49 -2951 -2952 2953 0
49 -2953 0
49 -64 2952 2954 0
49 -63 2952 2954 0
49 -63 -64 2954 0
49 -2954 0
49 -62 2951 2956 0
49 -2955 2951 2956 0
49 -2955 -62 2956 0
49 -2956 0
49 -61 2955 2957 0
49 -60 2955 2957 0
49 -60 -61 2957 0
49 -2957 0
49 -2959 2948 2960 0
49 -2958 2948 2960 0
49 -2958 -2959 2960 0
49 -2960 0
49 -59 2959 2962 0
49 -2961 2959 2962 0
49 -2961 -59 2962 0
49 -2962 0
49 -58 2961 2963 0
49 -57 2961 2963 0
49 -57 -58 2963 0
49 -2963 0
49 -56 2958 2965 0
49 -2964 2958 2965 0
49 -2964 -56 2965 0
49 -2965 0
49 -55 2964 2966 0
49 -54 2964 2966 0
49 -54 -55 2966 0
49 -2966 0
49 65 66 67 68 69 70 71 72 0
49 -2969 2967 2970 0
49 -2968 2967 2970 0
49 -2968 -2969 2970 0
49 -2970 0
49 -2972 2969 2973 0
49 -2971 2969 2973 0
49 -2971 -2972 2973 0
49 -2973 0
49 -72 2972 2974 0
49 -71 2972 2974 0
49 -71 -72 2974 0
49 -2974 0
49 -70 2971 2975 0
49 -69 2971 2975 0
49 -69 -70 2975 0
49 -2975 0
49 -2977 2968 2978 0
49 -2976 2968 2978 0
49 -2976 -2977 2978 0
49 -2978 0
49 -68 2977 2979 0
49 -67 2977 2979 0
49 -67 -68 2979 0
49 -2979 0
49 -66 2976 2980 0
49 -65 2976 2980 0
49 -65 -66 2980 0
49 -2980 0
49 73 74 75 76 77 78 79 80 0
49 -2983 2981 2984 0
49 -2982 2981 2984 0
49 -2982 -2983 2984 0
49 -2984 0
49 -2986 2983 2987 0
49 -2985 2983 2987 0
49 -2985 -2986 2987 0
49 -2987 0
49 -80 2986 2988 0
49 -79 2986 2988 0
49 -79 -80 2988 0
49 -2988 0
49 -78 2985 2989 0
49 -77 2985 2989 0
49 -77 -78 2989 0
49 -2989 0
49 -2991 2982 2992 0
49 -2990 2982 2992 0
49 -2990 -2991 2992 0
49 -2992 0
49 -76 2991 2993 0
49 -75 2991 2993 0
49 -75 -76 2993 0
49 -2993 0
49 -74 2990 2994 0
49 -73 2990 2994 0
49 -73 -74 2994 0
49 -2994 0
49 81 82 83 84 0
49 -2997 2995 2998 0
49 -2996 2995 2998 0
49 -2996 -2997 2998 0
49 -2998 0
49 -84 2997 2999 0
49 -83 2997 2999 0
49 -83 -84 2999 0
49 -2999 0
49 -82 2996 3000 0
49 -81 2996 3000 0
49 -81 -82 3000 0
49 -3000 0
49 85 86 87 88 0
49 -3003 3001 3004 0
49 -3002 3001 3004 0
49 -3002 -3003 3004 0
49 -3004 0
49 -88 3003 3005 0
49 -87 3003 3005 0
49 -87 -88 3005 0
49 -3005 0
49 -86 3002 3006 0
49 -85 3002 3006 0
49 -85 -86 3006 0
49 -3006 0
49 89 0
49 90 0
49 91 0
49 92 0
49 93 94 95 96 97 98 99 100 0
49 -3009 3007 3010 0
49 -3008 3007 3010 0
49 -3008 -3009 3010 0
49 -3010 0
49 -3012 3009 3013 0
49 -3011 3009 3013 0
49 -3011 -3012 3013 0
49 -3013 0
49 -100 3012 3014 0
49 -99 3012 3014 0
49 -99 -100 3014 0
49 -3014 0
49 -98 3011 3015 0
49 -97 3011 3015 0
49 -97 -98 3015 0
49 -3015 0
49 -3017 3008 3018 0
49 -3016 3008 3018 0
49 -3016 -3017 3018 0
49 -3018 0
49 -96 3017 3019 0
49 -95 3017 3019 0
49 -95 -96 3019 0
49 -3019 0
49 -94 3016 3020 0
49 -93 3016 3020 0
49 -93 -94 3020 0
49 -3020 0
49 101 102 103 104 105 106 107 108 0
49 -3023 3021 3024 0
49 -3022 3021 3024 0
49 -3022 -3023 3024 0
49 -3024 0
49 -3026 3023 3027 0
49 -3025 3023 3027 0
49 -3025 -3026 3027 0
49 -3027 0
49 -108 3026 3028 0
49 -107 3026 3028 0
49 -107 -108 3028 0
49 -3028 0
49 -106 3025 3029 0
49 -105 3025 3029 0
49 -105 -106 3029 0
49 -3029 0
49 -3031 3022 3032 0
49 -3030 3022 3032 0
49 -3030 -3031 3032 0
49 -3032 0
49 -104 3031 3033 0
49 -103 3031 3033 0
49 -103 -104 3033 0
49 -3033 0
49 -102 3030 3034 0
49 -101 3030 3034 0
49 -101 -102 3034 0
49 -3034 0
49 109 110 0
49 -109 -110 0
49 111 112 0
49 -111 -112 0
49 113 0
49 114 0
49 115 0
49 116 0
49 117 0
49 118 0
49 119 120 121 122 123 0
49 -3037 3035 3038 0
49 -3036 3035 3038 0
49 -3036 -3037 3038 0
49 -3038 0
49 -123 3037 3039 0
49 -122 3037 3039 0
49 -122 -123 3039 0
49 -3039 0
49 -121 3036 3041 0
49 -3040 3036 3041 0
49 -3040 -121 3041 0
49 -3041 0
49 -120 3040 3042 0
49 -119 3040 3042 0
49 -119 -120 3042 0
49 -3042 0
49 124 125 126 127 128 0
49 -3045 3043 3046 0
49 -3044 3043 3046 0
49 -3044 -3045 3046 0
49 -3046 0
49 -128 3045 3047 0
49 -127 3045 3047 0
49 -127 -128 3047 0
49 -3047 0
49 -126 3044 3049 0
49 -3048 3044 3049 0
49 -3048 -126 3049 0
49 -3049 0
49 -125 3048 3050 0
49 -124 3048 3050 0
49 -124 -125 3050 0
49 -3050 0
49 129 0
49 130 0
49 131 0
49 132 0
49 133 134 135 136 137 138 139 140 0
49 -3053 3051 3054 0
49 -3052 3051 3054 0
49 -3052 -3053 3054 0
49 -3054 0
49 -3056 3053 3057 0
49 -3055 3053 3057 0
49 -3055 -3056 3057 0
49 -3057 0
49 -140 3056 3058 0
49 -139 3056 3058 0
49 -139 -140 3058 0
49 -3058 0
49 -138 3055 3059 0
49 -137 3055 3059 0
49 -137 -138 3059 0
49 -3059 0
49 -3061 3052 3062 0
49 -3060 3052 3062 0
49 -3060 -3061 3062 0
49 -3062 0
49 -136 3061 3063 0
49 -135 3061 3063 0
49 -135 -136 3063 0
49 -3063 0
49 -134 3060 3064 0
49 -133 3060 3064 0
49 -133 -134 3064 0
49 -3064 0
49 141 142 143 144 145 146 147 148 0
49 -3067 3065 3068 0
49 -3066 3065 3068 0
49 -3066 -3067 3068 0
49 -3068 0
49 -3070 3067 3071 0
49 -3069 3067 3071 0
49 -3069 -3070 3071 0
49 -3071 0
49 -148 3070 3072 0
49 -147 3070 3072 0
49 -147 -148 3072 0
49 -3072 0
49 -146 3069 3073 0
49 -145 3069 3073 0
49 -145 -146 3073 0
49 -3073 0
49 -3075 3066 3076 0
49 -3074 3066 3076 0
49 -3074 -3075 3076 0
49 -3076 0
49 -144 3075 3077 0
49 -143 3075 3077 0
49 -143 -144 3077 0
49 -3077 0
49 -142 3074 3078 0
49 -141 3074 3078 0
49 -141 -142 3078 0
49 -3078 0
49 149 150 151 152 0
49 -3081 3079 3082 0
49 -3080 3079 3082 0
49 -3080 -3081 3082 0
49 -3082 0
49 -152 3081 3083 0
49 -151 3081 3083 0
49 -151 -152 3083 0
49 -3083 0
49 -150 3080 3084 0
49 -149 3080 3084 0
49 -149 -150 3084 0
49 -3084 0
49 153 154 155 156 0
49 -3087 3085 3088 0
49 -3086 3085 3088 0
49 -3086 -3087 3088 0
49 -3088 0
49 -156 3087 3089 0
49 -155 3087 3089 0
49 -155 -156 3089 0
49 -3089 0
49 -154 3086 3090 0
49 -153 3086 3090 0
49 -153 -154 3090 0
49 -3090 0
49 157 158 159 160 161 162 163 0
49 -3093 3091 3094 0
49 -3092 3091 3094 0
49 -3092 -3093 3094 0
49 -3094 0
49 -163 3093 3096 0
49 -3095 3093 3096 0
49 -3095 -163 3096 0
49 -3096 0
49 -162 3095 3097 0
49 -161 3095 3097 0
49 -161 -162 3097 0
49 -3097 0
49 -3099 3092 3100 0
49 -3098 3092 3100 0
49 -3098 -3099 3100 0
49 -3100 0
49 -160 3099 3101 0
49 -159 3099 3101 0
49 -159 -160 3101 0
49 -3101 0
49 -158 3098 3102 0
49 -157 3098 3102 0
49 -157 -158 3102 0
49 -3102 0
49 164 165 166 167 168 169 170 0
49 -3105 3103 3106 0
49 -3104 3103 3106 0
49 -3104 -3105 3106 0
49 -3106 0
49 -170 3105 3108 0
49 -3107 3105 3108 0
49 -3107 -170 3108 0
49 -3108 0
49 -169 3107 3109 0
49 -168 3107 3109 0
49 -168 -169 3109 0
49 -3109 0
49 -3111 3104 3112 0
49 -3110 3104 3112 0
49 -3110 -3111 3112 0
49 -3112 0
49 -167 3111 3113 0
49 -166 3111 3113 0
49 -166 -167 3113 0
49 -3113 0
49 -165 3110 3114 0
49 -164 3110 3114 0
49 -164 -165 3114 0
49 -3114 0
49 171 172 173 174 175 176 0
49 -3117 3115 3118 0
49 -3116 3115 3118 0
49 -3116 -3117 3118 0
49 -3118 0
49 -176 3117 3120 0
49 -3119 3117 3120 0
49 -3119 -176 3120 0
49 -3120 0
49 -175 3119 3121 0
49 -174 3119 3121 0
49 -174 -175 3121 0
49 -3121 0
49 -173 3116 3123 0
49 -3122 3116 3123 0
49 -3122 -173 3123 0
49 -3123 0
49 -172 3122 3124 0
49 -171 3122 3124 0
49 -171 -172 3124 0
49 -3124 0
49 177 178 179 180 181 182 0
49 -3127 3125 3128 0
49 -3126 3125 3128 0
49 -3126 -3127 3128 0
49 -3128 0
49 -182 3127 3130 0
49 -3129 3127 3130 0
49 -3129 -182 3130 0
49 -3130 0
49 -181 3129 3131 0
49 -180 3129 3131 0
49 -180 -181 3131 0
49 -3131 0
49 -179 3126 3133 0
49 -3132 3126 3133 0
49 -3132 -179 3133 0
49 -3133 0
49 -178 3132 3134 0
49 -177 3132 3134 0
49 -177 -178 3134 0
49 -3134 0
49 183 184 185 186 187 188 189 190 191 192 193 0
49 -3137 3135 3138 0
49 -3136 3135 3138 0
49 -3136 -3137 3138 0
49 -3138 0
49 -3140 3137 3141 0
49 -3139 3137 3141 0
49 -3139 -3140 3141 0
49 -3141 0
49 -193 3140 3142 0
49 -192 3140 3142 0
49 -192 -193 3142 0
49 -3142 0
49 -191 3139 3144 0
49 -3143 3139 3144 0
49 -3143 -191 3144 0
49 -3144 0
49 -190 3143 3145 0
49 -189 3143 3145 0
49 -189 -190 3145 0
49 -3145 0
49 -3147 3136 3148 0
49 -3146 3136 3148 0
49 -3146 -3147 3148 0
49 -3148 0
49 -188 3147 3150 0
49 -3149 3147 3150 0
49 -3149 -188 3150 0
49 -3150 0
49 -187 3149 3151 0
49 -186 3149 3151 0
49 -186 -187 3151 0
49 -3151 0
49 -185 3146 3153 0
49 -3152 3146 3153 0
49 -3152 -185 3153 0
49 -3153 0
49 -184 3152 3154 0
49 -183 3152 3154 0
49 -183 -184 3154 0
49 -3154 0
49 194 195 196 197 198 199 200 201 202 203 204 0
49 -3157 3155 3158 0
49 -3156 3155 3158 0
49 -3156 -3157 3158 0
49 -3158 0
49 -3160 3157 3161 0
49 -3159 3157 3161 0
49 -3159 -3160 3161 0
49 -3161 0
49 -204 3160 3162 0
49 -203 3160 3162 0
49 -203 -204 3162 0
49 -3162 0
49 -202 3159 3164 0
49 -3163 3159 3164 0
49 -3163 -202 3164 0
49 -3164 0
49 -201 3163 3165 0
49 -200 3163 3165 0
49 -200 -201 3165 0
49 -3165 0
49 -3167 3156 3168 0
49 -3166 3156 3168 0
49 -3166 -3167 3168 0
49 -3168 0
49 -199 3167 3170 0
49 -3169 3167 3170 0
49 -3169 -199 3170 0
49 -3170 0
49 -198 3169 3171 0
49 -197 3169 3171 0
49 -197 -198 3171 0
49 -3171 0
49 -196 3166 3173 0
49 -3172 3166 3173 0
49 -3172 -196 3173 0
49 -3173 0
49 -195 3172 3174 0
49 -194 3172 3174 0
49 -194 -195 3174 0
49 -3174 0
49 205 0
49 206 0
49 207 0
49 208 0
49 209 210 211 212 213 214 215 216 217 218 219 0
49 -3177 3175 3178 0
49 -3176 3175 3178 0
49 -3176 -3177 3178 0
49 -3178 0
49 -3180 3177 3181 0
49 -3179 3177 3181 0
49 -3179 -3180 3181 0
49 -3181 0
49 -219 3180 3182 0
49 -218 3180 3182 0
49 -218 -219 3182 0
49 -3182 0
49 -217 3179 3184 0
49 -3183 3179 3184 0
49 -3183 -217 3184 0
49 -3184 0
49 -216 3183 3185 0
49 -215 3183 3185 0
49 -215 -216 3185 0
49 -3185 0
49 -3187 3176 3188 0
49 -3186 3176 3188 0
49 -3186 -3187 3188 0
49 -3188 0
49 -214 3187 3190 0
49 -3189 3187 3190 0
49 -3189 -214 3190 0
49 -3190 0
49 -213 3189 3191 0
49 -212 3189 3191 0
49 -212 -213 3191 0
49 -3191 0
49 -211 3186 3193 0
49 -3192 3186 3193 0
49 -3192 -211 3193 0
49 -3193 0
49 -210 3192 3194 0
49 -209 3192 3194 0
49 -209 -210 3194 0
49 -3194 0
49 220 221 222 223 224 225 226 227 228 229 230 0
49 -3197 3195 3198 0
49 -3196 3195 3198 0
49 -3196 -3197 3198 0
49 -3198 0
49 -3200 3197 3201 0
49 -3199 3197 3201 0
49 -3199 -3200 3201 0
49 -3201 0
49 -230 3200 3202 0
49 -229 3200 3202 0
49 -229 -230 3202 0
49 -3202 0
49 -228 3199 3204 0
49 -3203 3199 3204 0
49 -3203 -228 3204 0
49 -3204 0
49 -227 3203 3205 0
49 -226 3203 3205 0
49 -226 -227 3205 0
49 -3205 0
49 -3207 3196 3208 0
49 -3206 3196 3208 0
49 -3206 -3207 3208 0
49 -3208 0
49 -225 3207 3210 0
49 -3209 3207 3210 0
49 -3209 -225 3210 0
49 -3210 0
49 -224 3209 3211 0
49 -223 3209 3211 0
49 -223 -224 3211 0
49 -3211 0
49 -222 3206 3213 0
49 -3212 3206 3213 0
49 -3212 -222 3213 0
49 -3213 0
49 -221 3212 3214 0
49 -220 3212 3214 0
49 -220 -221 3214 0
49 -3214 0
49 231 232 233 234 235 236 237 238 0
49 -3217 3215 3218 0
49 -3216 3215 3218 0
49 -3216 -3217 3218 0
49 -3218 0
49 -3220 3217 3221 0
49 -3219 3217 3221 0
49 -3219 -3220 3221 0
49 -3221 0
49 -238 3220 3222 0
49 -237 3220 3222 0
49 -237 -238 3222 0
49 -3222 0
49 -236 3219 3223 0
49 -235 3219 3223 0
49 -235 -236 3223 0
49 -3223 0
49 -3225 3216 3226 0
49 -3224 3216 3226 0
49 -3224 -3225 3226 0
49 -3226 0
49 -234 3225 3227 0
49 -233 3225 3227 0
49 -233 -234 3227 0
49 -3227 0
49 -232 3224 3228 0
49 -231 3224 3228 0
49 -231 -232 3228 0
49 -3228 0
49 239 240 241 242 243 244 245 246 0
49 -3231 3229 3232 0
49 -3230 3229 3232 0
49 -3230 -3231 3232 0
49 -3232 0
49 -3234 3231 3235 0
49 -3233 3231 3235 0
49 -3233 -3234 3235 0
49 -3235 0
49 -246 3234 3236 0
49 -245 3234 3236 0
49 -245 -246 3236 0
49 -3236 0
49 -244 3233 3237 0
49 -243 3233 3237 0
49 -243 -244 3237 0
49 -3237 0
49 -3239 3230 3240 0
49 -3238 3230 3240 0
49 -3238 -3239 3240 0
49 -3240 0
49 -242 3239 3241 0
49 -241 3239 3241 0
49 -241 -242 3241 0
49 -3241 0
49 -240 3238 3242 0
49 -239 3238 3242 0
49 -239 -240 3242 0
49 -3242 0
49 247 0
49 248 0
49 249 0
49 250 0
49 251 0
49 252 0
49 253 0
49 254 0
49 255 0
49 256 0
49 257 0
49 258 0
49 259 260 261 262 263 264 265 266 0
49 -3245 3243 3246 0
49 -3244 3243 3246 0
49 -3244 -3245 3246 0
49 -3246 0
49 -3248 3245 3249 0
49 -3247 3245 3249 0
49 -3247 -3248 3249 0
49 -3249 0
49 -266 3248 3250 0
49 -265 3248 3250 0
49 -265 -266 3250 0
49 -3250 0
49 -264 3247 3251 0
49 -263 3247 3251 0
49 -263 -264 3251 0
49 -3251 0
49 -3253 3244 3254 0
49 -3252 3244 3254 0
49 -3252 -3253 3254 0
49 -3254 0
49 -262 3253 3255 0
49 -261 3253 3255 0
49 -261 -262 3255 0
49 -3255 0
49 -260 3252 3256 0
49 -259 3252 3256 0
49 -259 -260 3256 0
49 -3256 0
49 267 268 269 270 271 272 273 274 0
49 -3259 3257 3260 0
49 -3258 3257 3260 0
49 -3258 -3259 3260 0
49 -3260 0
49 -3262 3259 3263 0
49 -3261 3259 3263 0
49 -3261 -3262 3263 0
49 -3263 0
49 -274 3262 3264 0
49 -273 3262 3264 0
49 -273 -274 3264 0
49 -3264 0
49 -272 3261 3265 0
49 -271 3261 3265 0
49 -271 -272 3265 0
49 -3265 0
49 -3267 3258 3268 0
49 -3266 3258 3268 0
49 -3266 -3267 3268 0
49 -3268 0
49 -270 3267 3269 0
49 -269 3267 3269 0
49 -269 -270 3269 0
49 -3269 0
49 -268 3266 3270 0
49 -267 3266 3270 0
49 -267 -268 3270 0
49 -3270 0
49 275 0
49 276 0
49 277 0
49 278 0
49 279 280 281 282 283 284 285 0
49 -3273 3271 3274 0
49 -3272 3271 3274 0
49 -3272 -3273 3274 0
49 -3274 0
49 -285 3273 3276 0
49 -3275 3273 3276 0
49 -3275 -285 3276 0
49 -3276 0
49 -284 3275 3277 0
49 -283 3275 3277 0
49 -283 -284 3277 0
49 -3277 0
49 -3279 3272 3280 0
49 -3278 3272 3280 0
49 -3278 -3279 3280 0
49 -3280 0
49 -282 3279 3281 0
49 -281 3279 3281 0
49 -281 -282 3281 0
49 -3281 0
49 -280 3278 3282 0
49 -279 3278 3282 0
49 -279 -280 3282 0
49 -3282 0
49 286 287 288 289 290 291 292 0
49 -3285 3283 3286 0
49 -3284 3283 3286 0
49 -3284 -3285 3286 0
49 -3286 0
49 -292 3285 3288 0
49 -3287 3285 3288 0
49 -3287 -292 3288 0
49 -3288 0
49 -291 3287 3289 0
49 -290 3287 3289 0
49 -290 -291 3289 0
49 -3289 0
49 -3291 3284 3292 0
49 -3290 3284 3292 0
49 -3290 -3291 3292 0
49 -3292 0
49 -289 3291 3293 0
49 -288 3291 3293 0
49 -288 -289 3293 0
49 -3293 0
49 -287 3290 3294 0
49 -286 3290 3294 0
49 -286 -287 3294 0
49 -3294 0
49 293 0
49 294 0
49 295 0
49 296 0
49 297 298 299 300 301 302 303 0
49 -3297 3295 3298 0
49 -3296 3295 3298 0
49 -3296 -3297 3298 0
49 -3298 0
49 -303 3297 3300 0
49 -3299 3297 3300 0
49 -3299 -303 3300 0
49 -3300 0
49 -302 3299 3301 0
49 -301 3299 3301 0
49 -301 -302 3301 0
49 -3301 0
49 -3303 3296 3304 0
49 -3302 3296 3304 0
49 -3302 -3303 3304 0
49 -3304 0
49 -300 3303 3305 0
49 -299 3303 3305 0
49 -299 -300 3305 0
49 -3305 0
49 -298 3302 3306 0
49 -297 3302 3306 0
49 -297 -298 3306 0
49 -3306 0
49 304 305 306 307 308 309 310 0
49 -3309 3307 3310 0
49 -3308 3307 3310 0
49 -3308 -3309 3310 0
49 -3310 0
49 -310 3309 3312 0
49 -3311 3309 3312 0
49 -3311 -310 3312 0
49 -3312 0
49 -309 3311 3313 0
49 -308 3311 3313 0
49 -308 -309 3313 0
49 -3313 0
49 -3315 3308 3316 0
49 -3314 3308 3316 0
49 -3314 -3315 3316 0
49 -3316 0
49 -307 3315 3317 0
49 -306 3315 3317 0
49 -306 -307 3317 0
49 -3317 0
49 -305 3314 3318 0
49 -304 3314 3318 0
49 -304 -305 3318 0
49 -3318 0
49 311 0
49 312 0
49 313 0
49 314 0
49 315 0
49 316 0
49 317 0
49 318 0
49 319 0
49 320 0
49 321 322 323 324 325 326 327 328 0
49 -3321 3319 3322 0
49 -3320 3319 3322 0
49 -3320 -3321 3322 0
49 -3322 0
49 -3324 3321 3325 0
49 -3323 3321 3325 0
49 -3323 -3324 3325 0
49 -3325 0
49 -328 3324 3326 0
49 -327 3324 3326 0
49 -327 -328 3326 0
49 -3326 0
49 -326 3323 3327 0
49 -325 3323 3327 0
49 -325 -326 3327 0
49 -3327 0
49 -3329 3320 3330 0
49 -3328 3320 3330 0
49 -3328 -3329 3330 0
49 -3330 0
49 -324 3329 3331 0
49 -323 3329 3331 0
49 -323 -324 3331 0
49 -3331 0
49 -322 3328 3332 0
49 -321 3328 3332 0
49 -321 -322 3332 0
49 -3332 0
49 329 330 331 332 333 334 335 336 0
49 -3335 3333 3336 0
49 -3334 3333 3336 0
49 -3334 -3335 3336 0
49 -3336 0
49 -3338 3335 3339 0
49 -3337 3335 3339 0
49 -3337 -3338 3339 0
49 -3339 0
49 -336 3338 3340 0
49 -335 3338 3340 0
49 -335 -336 3340 0
49 -3340 0
49 -334 3337 3341 0
49 -333 3337 3341 0
49 -333 -334 3341 0
49 -3341 0
49 -3343 3334 3344 0
49 -3342 3334 3344 0
49 -3342 -3343 3344 0
49 -3344 0
49 -332 3343 3345 0
49 -331 3343 3345 0
49 -331 -332 3345 0
49 -3345 0
49 -330 3342 3346 0
49 -329 3342 3346 0
49 -329 -330 3346 0
49 -3346 0
49 337 0
49 338 0
49 339 340 341 342 343 344 345 346 0
49 -3349 3347 3350 0
49 -3348 3347 3350 0
49 -3348 -3349 3350 0
49 -3350 0
49 -3352 3349 3353 0
49 -3351 3349 3353 0
49 -3351 -3352 3353 0
49 -3353 0
49 -346 3352 3354 0
49 -345 3352 3354 0
49 -345 -346 3354 0
49 -3354 0
49 -344 3351 3355 0
49 -343 3351 3355 0
49 -343 -344 3355 0
49 -3355 0
49 -3357 3348 3358 0
49 -3356 3348 3358 0
49 -3356 -3357 3358 0
49 -3358 0
49 -342 3357 3359 0
49 -341 3357 3359 0
49 -341 -342 3359 0
49 -3359 0
49 -340 3356 3360 0
49 -339 3356 3360 0
49 -339 -340 3360 0
49 -3360 0
49 347 348 349 350 351 352 353 354 0
49 -3363 3361 3364 0
49 -3362 3361 3364 0
49 -3362 -3363 3364 0
49 -3364 0
49 -3366 3363 3367 0
49 -3365 3363 3367 0
49 -3365 -3366 3367 0
49 -3367 0
49 -354 3366 3368 0
49 -353 3366 3368 0
49 -353 -354 3368 0
49 -3368 0
49 -352 3365 3369 0
49 -351 3365 3369 0
49 -351 -352 3369 0
49 -3369 0
49 -3371 3362 3372 0
49 -3370 3362 3372 0
49 -3370 -3371 3372 0
49 -3372 0
49 -350 3371 3373 0
49 -349 3371 3373 0
49 -349 -350 3373 0
49 -3373 0
49 -348 3370 3374 0
49 -347 3370 3374 0
49 -347 -348 3374 0
49 -3374 0
49 355 0
49 356 0
49 357 358 359 360 361 362 363 364 0
49 -3377 3375 3378 0
49 -3376 3375 3378 0
49 -3376 -3377 3378 0
49 -3378 0
49 -3380 3377 3381 0
49 -3379 3377 3381 0
49 -3379 -3380 3381 0
49 -3381 0
49 -364 3380 3382 0
49 -363 3380 3382 0
49 -363 -364 3382 0
49 -3382 0
49 -362 3379 3383 0
49 -361 3379 3383 0
49 -361 -362 3383 0
49 -3383 0
49 -3385 3376 3386 0
49 -3384 3376 3386 0
49 -3384 -3385 3386 0
49 -3386 0
49 -360 3385 3387 0
49 -359 3385 3387 0
49 -359 -360 3387 0
49 -3387 0
49 -358 3384 3388 0
49 -357 3384 3388 0
49 -357 -358 3388 0
49 -3388 0
49 365 366 367 368 369 370 371 372 0
49 -3391 3389 3392 0
49 -3390 3389 3392 0
49 -3390 -3391 3392 0
49 -3392 0
49 -3394 3391 3395 0
49 -3393 3391 3395 0
49 -3393 -3394 3395 0
49 -3395 0
49 -372 3394 3396 0
49 -371 3394 3396 0
49 -371 -372 3396 0
49 -3396 0
49 -370 3393 3397 0
49 -369 3393 3397 0
49 -369 -370 3397 0
49 -3397 0
49 -3399 3390 3400 0
49 -3398 3390 3400 0
49 -3398 -3399 3400 0
49 -3400 0
49 -368 3399 3401 0
49 -367 3399 3401 0
49 -367 -368 3401 0
49 -3401 0
49 -366 3398 3402 0
49 -365 3398 3402 0
49 -365 -366 3402 0
49 -3402 0
49 373 0
49 374 0
49 375 0
49 376 0
49 377 378 379 0
49 -379 3403 3405 0
49 -3404 3403 3405 0
49 -3404 -379 3405 0
49 -3405 0
49 -378 3404 3406 0
49 -377 3404 3406 0
49 -377 -378 3406 0
49 -3406 0
49 380 381 382 0
49 -382 3407 3409 0
49 -3408 3407 3409 0
49 -3408 -382 3409 0
49 -3409 0
49 -381 3408 3410 0
49 -380 3408 3410 0
49 -380 -381 3410 0
49 -3410 0
49 383 384 0
49 -383 -384 0
49 385 386 0
49 -385 -386 0
49 387 0
49 388 0
49 389 0
49 390 0
49 391 0
49 392 0
49 393 394 395 396 0
49 -3413 3411 3414 0
49 -3412 3411 3414 0
49 -3412 -3413 3414 0
49 -3414 0
49 -396 3413 3415 0
49 -395 3413 3415 0
49 -395 -396 3415 0
49 -3415 0
49 -394 3412 3416 0
49 -393 3412 3416 0
49 -393 -394 3416 0
49 -3416 0
49 397 398 399 400 0
49 -3419 3417 3420 0
49 -3418 3417 3420 0
49 -3418 -3419 3420 0
49 -3420 0
49 -400 3419 3421 0
49 -399 3419 3421 0
49 -399 -400 3421 0
49 -3421 0
49 -398 3418 3422 0
49 -397 3418 3422 0
49 -397 -398 3422 0
49 -3422 0
49 401 0
49 402 0
49 403 404 405 406 407 408 409 410 0
49 -3425 3423 3426 0
49 -3424 3423 3426 0
49 -3424 -3425 3426 0
49 -3426 0
49 -3428 3425 3429 0
49 -3427 3425 3429 0
49 -3427 -3428 3429 0
49 -3429 0
49 -410 3428 3430 0
49 -409 3428 3430 0
49 -409 -410 3430 0
49 -3430 0
49 -408 3427 3431 0
49 -407 3427 3431 0
49 -407 -408 3431 0
49 -3431 0
49 -3433 3424 3434 0
49 -3432 3424 3434 0
49 -3432 -3433 3434 0
49 -3434 0
49 -406 3433 3435 0
49 -405 3433 3435 0
49 -405 -406 3435 0
49 -3435 0
49 -404 3432 3436 0
49 -403 3432 3436 0
49 -403 -404 3436 0
49 -3436 0
49 411 412 413 414 415 416 417 418 0
49 -3439 3437 3440 0
49 -3438 3437 3440 0
49 -3438 -3439 3440 0
49 -3440 0
49 -3442 3439 3443 0
49 -3441 3439 3443 0
49 -3441 -3442 3443 0
49 -3443 0
49 -418 3442 3444 0
49 -417 3442 3444 0
49 -417 -418 3444 0
49 -3444 0
49 -416 3441 3445 0
49 -415 3441 3445 0
49 -415 -416 3445 0
49 -3445 0
49 -3447 3438 3448 0
49 -3446 3438 3448 0
49 -3446 -3447 3448 0
49 -3448 0
49 -414 3447 3449 0
49 -413 3447 3449 0
49 -413 -414 3449 0
49 -3449 0
49 -412 3446 3450 0
49 -411 3446 3450 0
49 -411 -412 3450 0
49 -3450 0
49 419 0
49 420 0
49 421 422 423 424 425 426 427 428 0
49 -3453 3451 3454 0
49 -3452 3451 3454 0
49 -3452 -3453 3454 0
49 -3454 0
49 -3456 3453 3457 0
49 -3455 3453 3457 0
49 -3455 -3456 3457 0
49 -3457 0
49 -428 3456 3458 0
49 -427 3456 3458 0
49 -427 -428 3458 0
49 -3458 0
49 -426 3455 3459 0
49 -425 3455 3459 0
49 -425 -426 3459 0
49 -3459 0
49 -3461 3452 3462 0
49 -3460 3452 3462 0
49 -3460 -3461 3462 0
49 -3462 0
49 -424 3461 3463 0
49 -423 3461 3463 0
49 -423 -424 3463 0
49 -3463 0
49 -422 3460 3464 0
49 -421 3460 3464 0
49 -421 -422 3464 0
49 -3464 0
49 429 430 431 432 433 434 435 436 0
49 -3467 3465 3468 0
49 -3466 3465 3468 0
49 -3466 -3467 3468 0
49 -3468 0
49 -3470 3467 3471 0
49 -3469 3467 3471 0
49 -3469 -3470 3471 0
49 -3471 0
49 -436 3470 3472 0
49 -435 3470 3472 0
49 -435 -436 3472 0
49 -3472 0
49 -434 3469 3473 0
49 -433 3469 3473 0
49 -433 -434 3473 0
49 -3473 0
49 -3475 3466 3476 0
49 -3474 3466 3476 0
49 -3474 -3475 3476 0
49 -3476 0
49 -432 3475 3477 0
49 -431 3475 3477 0
49 -431 -432 3477 0
49 -3477 0
49 -430 3474 3478 0
49 -429 3474 3478 0
49 -429 -430 3478 0
49 -3478 0
49 437 0
49 438 0
49 439 0
49 440 0
49 441 442 443 0
49 -443 3479 3481 0
49 -3480 3479 3481 0
49 -3480 -443 3481 0
49 -3481 0
49 -442 3480 3482 0
49 -441 3480 3482 0
49 -441 -442 3482 0
49 -3482 0
49 444 445 446 0
49 -446 3483 3485 0
49 -3484 3483 3485 0
49 -3484 -446 3485 0
49 -3485 0
49 -445 3484 3486 0
49 -444 3484 3486 0
49 -444 -445 3486 0
49 -3486 0
49 447 0
49 448 0
49 449 450 451 0
49 -451 3487 3489 0
49 -3488 3487 3489 0
49 -3488 -451 3489 0
49 -3489 0
49 -450 3488 3490 0
49 -449 3488 3490 0
49 -449 -450 3490 0
49 -3490 0
49 452 453 454 0
49 -454 3491 3493 0
49 -3492 3491 3493 0
49 -3492 -454 3493 0
49 -3493 0
49 -453 3492 3494 0
49 -452 3492 3494 0
49 -452 -453 3494 0
49 -3494 0
49 455 456 0
49 -455 -456 0
49 457 458 0
49 -457 -458 0
49 459 460 461 462 463 464 465 466 0
49 -3497 3495 3498 0
49 -3496 3495 3498 0
49 -3496 -3497 3498 0
49 -3498 0
49 -3500 3497 3501 0
49 -3499 3497 3501 0
49 -3499 -3500 3501 0
49 -3501 0
49 -466 3500 3502 0
49 -465 3500 3502 0
49 -465 -466 3502 0
49 -3502 0
49 -464 3499 3503 0
49 -463 3499 3503 0
49 -463 -464 3503 0
49 -3503 0
49 -3505 3496 3506 0
49 -3504 3496 3506 0
49 -3504 -3505 3506 0
49 -3506 0
49 -462 3505 3507 0
49 -461 3505 3507 0
49 -461 -462 3507 0
49 -3507 0
49 -460 3504 3508 0
49 -459 3504 3508 0
49 -459 -460 3508 0
49 -3508 0
49 467 468 469 470 471 472 473 474 0
49 -3511 3509 3512 0
49 -3510 3509 3512 0
49 -3510 -3511 3512 0
49 -3512 0
49 -3514 3511 3515 0
49 -3513 3511 3515 0
49 -3513 -3514 3515 0
49 -3515 0
49 -474 3514 3516 0
49 -473 3514 3516 0
49 -473 -474 3516 0
49 -3516 0
49 -472 3513 3517 0
49 -471 3513 3517 0
49 -471 -472 3517 0
49 -3517 0
49 -3519 3510 3520 0
49 -3518 3510 3520 0
49 -3518 -3519 3520 0
49 -3520 0
49 -470 3519 3521 0
49 -469 3519 3521 0
49 -469 -470 3521 0
49 -3521 0
49 -468 3518 3522 0
49 -467 3518 3522 0
49 -467 -468 3522 0
49 -3522 0
49 475 0
49 476 0
49 477 478 479 480 0
49 -3525 3523 3526 0
49 -3524 3523 3526 0
49 -3524 -3525 3526 0
49 -3526 0
49 -480 3525 3527 0
49 -479 3525 3527 0
49 -479 -480 3527 0
49 -3527 0
49 -478 3524 3528 0
49 -477 3524 3528 0
49 -477 -478 3528 0
49 -3528 0
49 481 482 483 484 0
49 -3531 3529 3532 0
49 -3530 3529 3532 0
49 -3530 -3531 3532 0
49 -3532 0
49 -484 3531 3533 0
49 -483 3531 3533 0
49 -483 -484 3533 0
49 -3533 0
49 -482 3530 3534 0
49 -481 3530 3534 0
49 -481 -482 3534 0
49 -3534 0
49 485 486 487 488 489 490 491 492 0
49 -3537 3535 3538 0
49 -3536 3535 3538 0
49 -3536 -3537 3538 0
49 -3538 0
49 -3540 3537 3541 0
49 -3539 3537 3541 0
49 -3539 -3540 3541 0
49 -3541 0
49 -492 3540 3542 0
49 -491 3540 3542 0
49 -491 -492 3542 0
49 -3542 0
49 -490 3539 3543 0
49 -489 3539 3543 0
49 -489 -490 3543 0
49 -3543 0
49 -3545 3536 3546 0
49 -3544 3536 3546 0
49 -3544 -3545 3546 0
49 -3546 0
49 -488 3545 3547 0
49 -487 3545 3547 0
49 -487 -488 3547 0
49 -3547 0
49 -486 3544 3548 0
49 -485 3544 3548 0
49 -485 -486 3548 0
49 -3548 0
49 493 494 495 496 497 498 499 500 0
49 -3551 3549 3552 0
49 -3550 3549 3552 0
49 -3550 -3551 3552 0
49 -3552 0
49 -3554 3551 3555 0
49 -3553 3551 3555 0
49 -3553 -3554 3555 0
49 -3555 0
49 -500 3554 3556 0
49 -499 3554 3556 0
49 -499 -500 3556 0
49 -3556 0
49 -498 3553 3557 0
49 -497 3553 3557 0
49 -497 -498 3557 0
49 -3557 0
49 -3559 3550 3560 0
49 -3558 3550 3560 0
49 -3558 -3559 3560 0
49 -3560 0
49 -496 3559 3561 0
49 -495 3559 3561 0
49 -495 -496 3561 0
49 -3561 0
49 -494 3558 3562 0
49 -493 3558 3562 0
49 -493 -494 3562 0
49 -3562 0
49 501 502 503 504 505 506 507 508 509 510 511 0
49 -3565 3563 3566 0
49 -3564 3563 3566 0
49 -3564 -3565 3566 0
49 -3566 0
49 -3568 3565 3569 0
49 -3567 3565 3569 0
49 -3567 -3568 3569 0
49 -3569 0
49 -511 3568 3570 0
49 -510 3568 3570 0
49 -510 -511 3570 0
49 -3570 0
49 -509 3567 3572 0
49 -3571 3567 3572 0
49 -3571 -509 3572 0
49 -3572 0
49 -508 3571 3573 0
49 -507 3571 3573 0
49 -507 -508 3573 0
49 -3573 0
49 -3575 3564 3576 0
49 -3574 3564 3576 0
49 -3574 -3575 3576 0
49 -3576 0
49 -506 3575 3578 0
49 -3577 3575 3578 0
49 -3577 -506 3578 0
49 -3578 0
49 -505 3577 3579 0
49 -504 3577 3579 0
49 -504 -505 3579 0
49 -3579 0
49 -503 3574 3581 0
49 -3580 3574 3581 0
49 -3580 -503 3581 0
49 -3581 0
49 -502 3580 3582 0
49 -501 3580 3582 0
49 -501 -502 3582 0
49 -3582 0
49 512 513 514 515 516 517 518 519 520 521 522 0
49 -3585 3583 3586 0
49 -3584 3583 3586 0
49 -3584 -3585 3586 0
49 -3586 0
49 -3588 3585 3589 0
49 -3587 3585 3589 0
49 -3587 -3588 3589 0
49 -3589 0
49 -522 3588 3590 0
49 -521 3588 3590 0
49 -521 -522 3590 0
49 -3590 0
49 -520 3587 3592 0
49 -3591 3587 3592 0
49 -3591 -520 3592 0
49 -3592 0
49 -519 3591 3593 0
49 -518 3591 3593 0
49 -518 -519 3593 0
49 -3593 0
49 -3595 3584 3596 0
49 -3594 3584 3596 0
49 -3594 -3595 3596 0
49 -3596 0
49 -517 3595 3598 0
49 -3597 3595 3598 0
49 -3597 -517 3598 0
49 -3598 0
49 -516 3597 3599 0
49 -515 3597 3599 0
49 -515 -516 3599 0
49 -3599 0
49 -514 3594 3601 0
49 -3600 3594 3601 0
49 -3600 -514 3601 0
49 -3601 0
49 -513 3600 3602 0
49 -512 3600 3602 0
49 -512 -513 3602 0
49 -3602 0
49 523 524 525 526 527 528 529 0
49 -3605 3603 3606 0
49 -3604 3603 3606 0
49 -3604 -3605 3606 0
49 -3606 0
49 -529 3605 3608 0
49 -3607 3605 3608 0
49 -3607 -529 3608 0
49 -3608 0
49 -528 3607 3609 0
49 -527 3607 3609 0
49 -527 -528 3609 0
49 -3609 0
49 -3611 3604 3612 0
49 -3610 3604 3612 0
49 -3610 -3611 3612 0
49 -3612 0
49 -526 3611 3613 0
49 -525 3611 3613 0
49 -525 -526 3613 0
49 -3613 0
49 -524 3610 3614 0
49 -523 3610 3614 0
49 -523 -524 3614 0
49 -3614 0
49 530 531 532 533 534 535 536 0
49 -3617 3615 3618 0
49 -3616 3615 3618 0
49 -3616 -3617 3618 0
49 -3618 0
49 -536 3617 3620 0
49 -3619 3617 3620 0
49 -3619 -536 3620 0
49 -3620 0
49 -535 3619 3621 0
49 -534 3619 3621 0
49 -534 -535 3621 0
49 -3621 0
49 -3623 3616 3624 0
49 -3622 3616 3624 0
49 -3622 -3623 3624 0
49 -3624 0
49 -533 3623 3625 0
49 -532 3623 3625 0
49 -532 -533 3625 0
49 -3625 0
49 -531 3622 3626 0
49 -530 3622 3626 0
49 -530 -531 3626 0
49 -3626 0
49 537 0
49 538 0
49 539 540 541 542 543 0
49 -3629 3627 3630 0
49 -3628 3627 3630 0
49 -3628 -3629 3630 0
49 -3630 0
49 -543 3629 3631 0
49 -542 3629 3631 0
49 -542 -543 3631 0
49 -3631 0
49 -541 3628 3633 0
49 -3632 3628 3633 0
49 -3632 -541 3633 0
49 -3633 0
49 -540 3632 3634 0
49 -539 3632 3634 0
49 -539 -540 3634 0
49 -3634 0
49 544 545 546 547 548 0
49 -3637 3635 3638 0
49 -3636 3635 3638 0
49 -3636 -3637 3638 0
49 -3638 0
49 -548 3637 3639 0
49 -547 3637 3639 0
49 -547 -548 3639 0
49 -3639 0
49 -546 3636 3641 0
49 -3640 3636 3641 0
49 -3640 -546 3641 0
49 -3641 0
49 -545 3640 3642 0
49 -544 3640 3642 0
49 -544 -545 3642 0
49 -3642 0
49 549 550 551 552 553 554 555 556 0
49 -3645 3643 3646 0
49 -3644 3643 3646 0
49 -3644 -3645 3646 0
49 -3646 0
49 -3648 3645 3649 0
49 -3647 3645 3649 0
49 -3647 -3648 3649 0
49 -3649 0
49 -556 3648 3650 0
49 -555 3648 3650 0
49 -555 -556 3650 0
49 -3650 0
49 -554 3647 3651 0
49 -553 3647 3651 0
49 -553 -554 3651 0
49 -3651 0
49 -3653 3644 3654 0
49 -3652 3644 3654 0
49 -3652 -3653 3654 0
49 -3654 0
49 -552 3653 3655 0
49 -551 3653 3655 0
49 -551 -552 3655 0
49 -3655 0
49 -550 3652 3656 0
49 -549 3652 3656 0
49 -549 -550 3656 0
49 -3656 0
49 557 558 559 560 561 562 563 564 0
49 -3659 3657 3660 0
49 -3658 3657 3660 0
49 -3658 -3659 3660 0
49 -3660 0
49 -3662 3659 3663 0
49 -3661 3659 3663 0
49 -3661 -3662 3663 0
49 -3663 0
49 -564 3662 3664 0
49 -563 3662 3664 0
49 -563 -564 3664 0
49 -3664 0
49 -562 3661 3665 0
49 -561 3661 3665 0
49 -561 -562 3665 0
49 -3665 0
49 -3667 3658 3668 0
49 -3666 3658 3668 0
49 -3666 -3667 3668 0
49 -3668 0
49 -560 3667 3669 0
49 -559 3667 3669 0
49 -559 -560 3669 0
49 -3669 0
49 -558 3666 3670 0
49 -557 3666 3670 0
49 -557 -558 3670 0
49 -3670 0
49 565 566 567 568 569 570 571 572 0
49 -3673 3671 3674 0
49 -3672 3671 3674 0
49 -3672 -3673 3674 0
49 -3674 0
49 -3676 3673 3677 0
49 -3675 3673 3677 0
49 -3675 -3676 3677 0
49 -3677 0
49 -572 3676 3678 0
49 -571 3676 3678 0
49 -571 -572 3678 0
49 -3678 0
49 -570 3675 3679 0
49 -569 3675 3679 0
49 -569 -570 3679 0
49 -3679 0
49 -3681 3672 3682 0
49 -3680 3672 3682 0
49 -3680 -3681 3682 0
49 -3682 0
49 -568 3681 3683 0
49 -567 3681 3683 0
49 -567 -568 3683 0
49 -3683 0
49 -566 3680 3684 0
49 -565 3680 3684 0
49 -565 -566 3684 0
49 -3684 0
49 573 574 575 576 577 578 579 580 0
49 -3687 3685 3688 0
49 -3686 3685 3688 0
49 -3686 -3687 3688 0
49 -3688 0
49 -3690 3687 3691 0
49 -3689 3687 3691 0
49 -3689 -3690 3691 0
49 -3691 0
49 -580 3690 3692 0
49 -579 3690 3692 0
49 -579 -580 3692 0
49 -3692 0
49 -578 3689 3693 0
49 -577 3689 3693 0
49 -577 -578 3693 0
49 -3693 0
49 -3695 3686 3696 0
49 -3694 3686 3696 0
49 -3694 -3695 3696 0
49 -3696 0
49 -576 3695 3697 0
49 -575 3695 3697 0
49 -575 -576 3697 0
49 -3697 0
49 -574 3694 3698 0
49 -573 3694 3698 0
49 -573 -574 3698 0
49 -3698 0
49 581 582 583 584 0
49 -3701 3699 3702 0
49 -3700 3699 3702 0
49 -3700 -3701 3702 0
49 -3702 0
49 -584 3701 3703 0
49 -583 3701 3703 0
49 -583 -584 3703 0
49 -3703 0
49 -582 3700 3704 0
49 -581 3700 3704 0
49 -581 -582 3704 0
49 -3704 0
49 585 586 587 588 0
49 -3707 3705 3708 0
49 -3706 3705 3708 0
49 -3706 -3707 3708 0
49 -3708 0
49 -588 3707 3709 0
49 -587 3707 3709 0
49 -587 -588 3709 0
49 -3709 0
49 -586 3706 3710 0
49 -585 3706 3710 0
49 -585 -586 3710 0
49 -3710 0
49 589 0
49 590 0
49 591 0
49 592 0
49 593 0
49 594 0
49 595 596 597 598 599 600 601 602 603 604 0
49 -3713 3711 3714 0
49 -3712 3711 3714 0
49 -3712 -3713 3714 0
49 -3714 0
49 -3716 3713 3717 0
49 -3715 3713 3717 0
49 -3715 -3716 3717 0
49 -3717 0
49 -604 3716 3718 0
49 -603 3716 3718 0
49 -603 -604 3718 0
49 -3718 0
49 -602 3715 3720 0
49 -3719 3715 3720 0
49 -3719 -602 3720 0
49 -3720 0
49 -601 3719 3721 0
49 -600 3719 3721 0
49 -600 -601 3721 0
49 -3721 0
49 -3723 3712 3724 0
49 -3722 3712 3724 0
49 -3722 -3723 3724 0
49 -3724 0
49 -599 3723 3725 0
49 -598 3723 3725 0
49 -598 -599 3725 0
49 -3725 0
49 -597 3722 3727 0
49 -3726 3722 3727 0
49 -3726 -597 3727 0
49 -3727 0
49 -596 3726 3728 0
49 -595 3726 3728 0
49 -595 -596 3728 0
49 -3728 0
49 605 606 607 608 609 610 611 612 613 614 0
49 -3731 3729 3732 0
49 -3730 3729 3732 0
49 -3730 -3731 3732 0
49 -3732 0
49 -3734 3731 3735 0
49 -3733 3731 3735 0
49 -3733 -3734 3735 0
49 -3735 0
49 -614 3734 3736 0
49 -613 3734 3736 0
49 -613 -614 3736 0
49 -3736 0
49 -612 3733 3738 0
49 -3737 3733 3738 0
49 -3737 -612 3738 0
49 -3738 0
49 -611 3737 3739 0
49 -610 3737 3739 0
49 -610 -611 3739 0
49 -3739 0
49 -3741 3730 3742 0
49 -3740 3730 3742 0
49 -3740 -3741 3742 0
49 -3742 0
49 -609 3741 3743 0
49 -608 3741 3743 0
49 -608 -609 3743 0
49 -3743 0
49 -607 3740 3745 0
49 -3744 3740 3745 0
49 -3744 -607 3745 0
49 -3745 0
49 -606 3744 3746 0
49 -605 3744 3746 0
49 -605 -606 3746 0
49 -3746 0
49 615 616 0
49 -615 -616 0
49 617 618 0
49 -617 -618 0
49 619 620 621 0
49 -621 3747 3749 0
49 -3748 3747 3749 0
49 -3748 -621 3749 0
49 -3749 0
49 -620 3748 3750 0
49 -619 3748 3750 0
49 -619 -620 3750 0
49 -3750 0
49 622 623 624 0
49 -624 3751 3753 0
49 -3752 3751 3753 0
49 -3752 -624 3753 0
49 -3753 0
49 -623 3752 3754 0
49 -622 3752 3754 0
49 -622 -623 3754 0
49 -3754 0
49 625 0
49 626 0
49 627 0
49 628 0
49 629 0
49 630 0
49 631 0
49 632 0
49 633 0
49 634 0
49 635 0
49 636 0
49 637 0
49 638 0
49 639 0
49 640 0
49 641 0
49 642 0
49 643 0
49 644 0
49 645 646 647 648 649 650 651 652 0
49 -3757 3755 3758 0
49 -3756 3755 3758 0
49 -3756 -3757 3758 0
49 -3758 0
49 -3760 3757 3761 0
49 -3759 3757 3761 0
49 -3759 -3760 3761 0
49 -3761 0
49 -652 3760 3762 0
49 -651 3760 3762 0
49 -651 -652 3762 0
49 -3762 0
49 -650 3759 3763 0
49 -649 3759 3763 0
49 -649 -650 3763 0
49 -3763 0
49 -3765 3756 3766 0
49 -3764 3756 3766 0
49 -3764 -3765 3766 0
49 -3766 0
49 -648 3765 3767 0
49 -647 3765 3767 0
49 -647 -648 3767 0
49 -3767 0
49 -646 3764 3768 0
49 -645 3764 3768 0
49 -645 -646 3768 0
49 -3768 0
49 653 654 655 656 657 658 659 660 0
49 -3771 3769 3772 0
49 -3770 3769 3772 0
49 -3770 -3771 3772 0
49 -3772 0
49 -3774 3771 3775 0
49 -3773 3771 3775 0
49 -3773 -3774 3775 0
49 -3775 0
49 -660 3774 3776 0
49 -659 3774 3776 0
49 -659 -660 3776 0
49 -3776 0
49 -658 3773 3777 0
49 -657 3773 3777 0
49 -657 -658 3777 0
49 -3777 0
49 -3779 3770 3780 0
49 -3778 3770 3780 0
49 -3778 -3779 3780 0
49 -3780 0
49 -656 3779 3781 0
49 -655 3779 3781 0
49 -655 -656 3781 0
49 -3781 0
49 -654 3778 3782 0
49 -653 3778 3782 0
49 -653 -654 3782 0
49 -3782 0
49 661 662 663 664 0
49 -3785 3783 3786 0
49 -3784 3783 3786 0
49 -3784 -3785 3786 0
49 -3786 0
49 -664 3785 3787 0
49 -663 3785 3787 0
49 -663 -664 3787 0
49 -3787 0
49 -662 3784 3788 0
49 -661 3784 3788 0
49 -661 -662 3788 0
49 -3788 0
49 665 666 667 668 0
49 -3791 3789 3792 0
49 -3790 3789 3792 0
49 -3790 -3791 3792 0
49 -3792 0
49 -668 3791 3793 0
49 -667 3791 3793 0
49 -667 -668 3793 0
49 -3793 0
49 -666 3790 3794 0
49 -665 3790 3794 0
49 -665 -666 3794 0
49 -3794 0
49 669 0
49 670 0
49 671 672 673 0
49 -673 3795 3797 0
49 -3796 3795 3797 0
49 -3796 -673 3797 0
49 -3797 0
49 -672 3796 3798 0
49 -671 3796 3798 0
49 -671 -672 3798 0
49 -3798 0
49 674 675 676 0
49 -676 3799 3801 0
49 -3800 3799 3801 0
49 -3800 -676 3801 0
49 -3801 0
49 -675 3800 3802 0
49 -674 3800 3802 0
49 -674 -675 3802 0
49 -3802 0
49 677 0
49 678 0
49 679 0
49 680 0
49 681 682 683 684 0
49 -3805 3803 3806 0
49 -3804 3803 3806 0
49 -3804 -3805 3806 0
49 -3806 0
49 -684 3805 3807 0
49 -683 3805 3807 0
49 -683 -684 3807 0
49 -3807 0
49 -682 3804 3808 0
49 -681 3804 3808 0
49 -681 -682 3808 0
49 -3808 0
49 685 686 687 688 0
49 -3811 3809 3812 0
49 -3810 3809 3812 0
49 -3810 -3811 3812 0
49 -3812 0
49 -688 3811 3813 0
49 -687 3811 3813 0
49 -687 -688 3813 0
49 -3813 0
49 -686 3810 3814 0
49 -685 3810 3814 0
49 -685 -686 3814 0
49 -3814 0
49 689 690 691 692 693 694 695 696 0
49 -3817 3815 3818 0
49 -3816 3815 3818 0
49 -3816 -3817 3818 0
49 -3818 0
49 -3820 3817 3821 0
49 -3819 3817 3821 0
49 -3819 -3820 3821 0
49 -3821 0
49 -696 3820 3822 0
49 -695 3820 3822 0
49 -695 -696 3822 0
49 -3822 0
49 -694 3819 3823 0
49 -693 3819 3823 0
49 -693 -694 3823 0
49 -3823 0
49 -3825 3816 3826 0
49 -3824 3816 3826 0
49 -3824 -3825 3826 0
49 -3826 0
49 -692 3825 3827 0
49 -691 3825 3827 0
49 -691 -692 3827 0
49 -3827 0
49 -690 3824 3828 0
49 -689 3824 3828 0
49 -689 -690 3828 0
49 -3828 0
49 697 698 699 700 701 702 703 704 0
49 -3831 3829 3832 0
49 -3830 3829 3832 0
49 -3830 -3831 3832 0
49 -3832 0
49 -3834 3831 3835 0
49 -3833 3831 3835 0
49 -3833 -3834 3835 0
49 -3835 0
49 -704 3834 3836 0
49 -703 3834 3836 0
49 -703 -704 3836 0
49 -3836 0
49 -702 3833 3837 0
49 -701 3833 3837 0
49 -701 -702 3837 0
49 -3837 0
49 -3839 3830 3840 0
49 -3838 3830 3840 0
49 -3838 -3839 3840 0
49 -3840 0
49 -700 3839 3841 0
49 -699 3839 3841 0
49 -699 -700 3841 0
49 -3841 0
49 -698 3838 3842 0
49 -697 3838 3842 0
49 -697 -698 3842 0
49 -3842 0
49 705 0
49 706 0
49 707 0
49 708 0
49 709 0
49 710 0
49 711 0
49 712 0
49 713 0
49 714 0
49 715 0
49 716 0
49 717 0
49 718 0
49 719 0
49 720 0
49 721 0
49 722 0
49 723 724 725 726 0
49 -3845 3843 3846 0
49 -3844 3843 3846 0
49 -3844 -3845 3846 0
49 -3846 0
49 -726 3845 3847 0
49 -725 3845 3847 0
49 -725 -726 3847 0
49 -3847 0
49 -724 3844 3848 0
49 -723 3844 3848 0
49 -723 -724 3848 0
49 -3848 0
49 727 728 729 730 0
49 -3851 3849 3852 0
49 -3850 3849 3852 0
49 -3850 -3851 3852 0
49 -3852 0
49 -730 3851 3853 0
49 -729 3851 3853 0
49 -729 -730 3853 0
49 -3853 0
49 -728 3850 3854 0
49 -727 3850 3854 0
49 -727 -728 3854 0
49 -3854 0
49 731 732 733 734 735 736 0
49 -3857 3855 3858 0
49 -3856 3855 3858 0
49 -3856 -3857 3858 0
49 -3858 0
49 -736 3857 3860 0
49 -3859 3857 3860 0
49 -3859 -736 3860 0
49 -3860 0
49 -735 3859 3861 0
49 -734 3859 3861 0
49 -734 -735 3861 0
49 -3861 0
49 -733 3856 3863 0
49 -3862 3856 3863 0
49 -3862 -733 3863 0
49 -3863 0
49 -732 3862 3864 0
49 -731 3862 3864 0
49 -731 -732 3864 0
49 -3864 0
49 737 738 739 740 741 742 0
49 -3867 3865 3868 0
49 -3866 3865 3868 0
49 -3866 -3867 3868 0
49 -3868 0
49 -742 3867 3870 0
49 -3869 3867 3870 0
49 -3869 -742 3870 0
49 -3870 0
49 -741 3869 3871 0
49 -740 3869 3871 0
49 -740 -741 3871 0
49 -3871 0
49 -739 3866 3873 0
49 -3872 3866 3873 0
49 -3872 -739 3873 0
49 -3873 0
49 -738 3872 3874 0
49 -737 3872 3874 0
49 -737 -738 3874 0
49 -3874 0
49 743 744 745 746 747 748 749 750 751 752 0
49 -3877 3875 3878 0
49 -3876 3875 3878 0
49 -3876 -3877 3878 0
49 -3878 0
49 -3880 3877 3881 0
49 -3879 3877 3881 0
49 -3879 -3880 3881 0
49 -3881 0
49 -752 3880 3882 0
49 -751 3880 3882 0
49 -751 -752 3882 0
49 -3882 0
49 -750 3879 3884 0
49 -3883 3879 3884 0
49 -3883 -750 3884 0
49 -3884 0
49 -749 3883 3885 0
49 -748 3883 3885 0
49 -748 -749 3885 0
49 -3885 0
49 -3887 3876 3888 0
49 -3886 3876 3888 0
49 -3886 -3887 3888 0
49 -3888 0
49 -747 3887 3889 0
49 -746 3887 3889 0
49 -746 -747 3889 0
49 -3889 0
49 -745 3886 3891 0
49 -3890 3886 3891 0
49 -3890 -745 3891 0
49 -3891 0
49 -744 3890 3892 0
49 -743 3890 3892 0
49 -743 -744 3892 0
49 -3892 0
49 753 754 755 756 757 758 759 760 761 762 0
49 -3895 3893 3896 0
49 -3894 3893 3896 0
49 -3894 -3895 3896 0
49 -3896 0
49 -3898 3895 3899 0
49 -3897 3895 3899 0
49 -3897 -3898 3899 0
49 -3899 0
49 -762 3898 3900 0
49 -761 3898 3900 0
49 -761 -762 3900 0
49 -3900 0
49 -760 3897 3902 0
49 -3901 3897 3902 0
49 -3901 -760 3902 0
49 -3902 0
49 -759 3901 3903 0
49 -758 3901 3903 0
49 -758 -759 3903 0
49 -3903 0
49 -3905 3894 3906 0
49 -3904 3894 3906 0
49 -3904 -3905 3906 0
49 -3906 0
49 -757 3905 3907 0
49 -756 3905 3907 0
49 -756 -757 3907 0
49 -3907 0
49 -755 3904 3909 0
49 -3908 3904 3909 0
49 -3908 -755 3909 0
49 -3909 0
49 -754 3908 3910 0
49 -753 3908 3910 0
49 -753 -754 3910 0
49 -3910 0
49 763 764 765 766 0
49 -3913 3911 3914 0
49 -3912 3911 3914 0
49 -3912 -3913 3914 0
49 -3914 0
49 -766 3913 3915 0
49 -765 3913 3915 0
49 -765 -766 3915 0
49 -3915 0
49 -764 3912 3916 0
49 -763 3912 3916 0
49 -763 -764 3916 0
49 -3916 0
49 767 768 769 770 0
49 -3919 3917 3920 0
49 -3918 3917 3920 0
49 -3918 -3919 3920 0
49 -3920 0
49 -770 3919 3921 0
49 -769 3919 3921 0
49 -769 -770 3921 0
49 -3921 0
49 -768 3918 3922 0
49 -767 3918 3922 0
49 -767 -768 3922 0
49 -3922 0
49 771 772 773 774 775 776 777 778 0
49 -3925 3923 3926 0
49 -3924 3923 3926 0
49 -3924 -3925 3926 0
49 -3926 0
49 -3928 3925 3929 0
49 -3927 3925 3929 0
49 -3927 -3928 3929 0
49 -3929 0
49 -778 3928 3930 0
49 -777 3928 3930 0
49 -777 -778 3930 0
49 -3930 0
49 -776 3927 3931 0
49 -775 3927 3931 0
49 -775 -776 3931 0
49 -3931 0
49 -3933 3924 3934 0
49 -3932 3924 3934 0
49 -3932 -3933 3934 0
49 -3934 0
49 -774 3933 3935 0
49 -773 3933 3935 0
49 -773 -774 3935 0
49 -3935 0
49 -772 3932 3936 0
49 -771 3932 3936 0
49 -771 -772 3936 0
49 -3936 0
49 779 780 781 782 783 784 785 786 0
49 -3939 3937 3940 0
49 -3938 3937 3940 0
49 -3938 -3939 3940 0
49 -3940 0
49 -3942 3939 3943 0
49 -3941 3939 3943 0
49 -3941 -3942 3943 0
49 -3943 0
49 -786 3942 3944 0
49 -785 3942 3944 0
49 -785 -786 3944 0
49 -3944 0
49 -784 3941 3945 0
49 -783 3941 3945 0
49 -783 -784 3945 0
49 -3945 0
49 -3947 3938 3948 0
49 -3946 3938 3948 0
49 -3946 -3947 3948 0
49 -3948 0
49 -782 3947 3949 0
49 -781 3947 3949 0
49 -781 -782 3949 0
49 -3949 0
49 -780 3946 3950 0
49 -779 3946 3950 0
49 -779 -780 3950 0
49 -3950 0
49 787 0
49 788 0
49 789 0
49 790 0
49 791 792 793 794 795 796 797 798 0
49 -3953 3951 3954 0
49 -3952 3951 3954 0
49 -3952 -3953 3954 0
49 -3954 0
49 -3956 3953 3957 0
49 -3955 3953 3957 0
49 -3955 -3956 3957 0
49 -3957 0
49 -798 3956 3958 0
49 -797 3956 3958 0
49 -797 -798 3958 0
49 -3958 0
49 -796 3955 3959 0
49 -795 3955 3959 0
49 -795 -796 3959 0
49 -3959 0
49 -3961 3952 3962 0
49 -3960 3952 3962 0
49 -3960 -3961 3962 0
49 -3962 0
49 -794 3961 3963 0
49 -793 3961 3963 0
49 -793 -794 3963 0
49 -3963 0
49 -792 3960 3964 0
49 -791 3960 3964 0
49 -791 -792 3964 0
49 -3964 0
49 799 800 801 802 803 804 805 806 0
49 -3967 3965 3968 0
49 -3966 3965 3968 0
49 -3966 -3967 3968 0
49 -3968 0
49 -3970 3967 3971 0
49 -3969 3967 3971 0
49 -3969 -3970 3971 0
49 -3971 0
49 -806 3970 3972 0
49 -805 3970 3972 0
49 -805 -806 3972 0
49 -3972 0
49 -804 3969 3973 0
49 -803 3969 3973 0
49 -803 -804 3973 0
49 -3973 0
49 -3975 3966 3976 0
49 -3974 3966 3976 0
49 -3974 -3975 3976 0
49 -3976 0
49 -802 3975 3977 0
49 -801 3975 3977 0
49 -801 -802 3977 0
49 -3977 0
49 -800 3974 3978 0
49 -799 3974 3978 0
49 -799 -800 3978 0
49 -3978 0
49 807 0
49 808 0
49 809 0
49 810 0
49 811 0
49 812 0
49 813 0
49 814 0
49 815 0
49 816 0
49 817 818 819 0
49 -819 3979 3981 0
49 -3980 3979 3981 0
49 -3980 -819 3981 0
49 -3981 0
49 -818 3980 3982 0
49 -817 3980 3982 0
49 -817 -818 3982 0
49 -3982 0
49 820 821 822 0
49 -822 3983 3985 0
49 -3984 3983 3985 0
49 -3984 -822 3985 0
49 -3985 0
49 -821 3984 3986 0
49 -820 3984 3986 0
49 -820 -821 3986 0
49 -3986 0
49 823 0
49 824 0
49 825 0
49 826 0
49 827 0
49 828 0
49 829 830 831 832 833 834 835 836 837 838 839 840 841 842 843 0
49 -3989 3987 3990 0
49 -3988 3987 3990 0
49 -3988 -3989 3990 0
49 -3990 0
49 -3992 3989 3993 0
49 -3991 3989 3993 0
49 -3991 -3992 3993 0
49 -3993 0
49 -843 3992 3995 0
49 -3994 3992 3995 0
49 -3994 -843 3995 0
49 -3995 0
49 -842 3994 3996 0
49 -841 3994 3996 0
49 -841 -842 3996 0
49 -3996 0
49 -3998 3991 3999 0
49 -3997 3991 3999 0
49 -3997 -3998 3999 0
49 -3999 0
49 -840 3998 4000 0
49 -839 3998 4000 0
49 -839 -840 4000 0
49 -4000 0
49 -838 3997 4001 0
49 -837 3997 4001 0
49 -837 -838 4001 0
49 -4001 0
49 -4003 3988 4004 0
49 -4002 3988 4004 0
49 -4002 -4003 4004 0
49 -4004 0
49 -4006 4003 4007 0
49 -4005 4003 4007 0
49 -4005 -4006 4007 0
49 -4007 0
49 -836 4006 4008 0
49 -835 4006 4008 0
49 -835 -836 4008 0
49 -4008 0
49 -834 4005 4009 0
49 -833 4005 4009 0
49 -833 -834 4009 0
49 -4009 0
49 -4011 4002 4012 0
49 -4010 4002 4012 0
49 -4010 -4011 4012 0
49 -4012 0
49 -832 4011 4013 0
49 -831 4011 4013 0
49 -831 -832 4013 0
49 -4013 0
49 -830 4010 4014 0
49 -829 4010 4014 0
49 -829 -830 4014 0
49 -4014 0
49 844 845 846 847 848 849 850 851 852 853 854 855 856 857 858 0
49 -4017 4015 4018 0
49 -4016 4015 4018 0
49 -4016 -4017 4018 0
49 -4018 0
49 -4020 4017 4021 0
49 -4019 4017 4021 0
49 -4019 -4020 4021 0
49 -4021 0
49 -858 4020 4023 0
49 -4022 4020 4023 0
49 -4022 -858 4023 0
49 -4023 0
49 -857 4022 4024 0
49 -856 4022 4024 0
49 -856 -857 4024 0
49 -4024 0
49 -4026 4019 4027 0
49 -4025 4019 4027 0
49 -4025 -4026 4027 0
49 -4027 0
49 -855 4026 4028 0
49 -854 4026 4028 0
49 -854 -855 4028 0
49 -4028 0
49 -853 4025 4029 0
49 -852 4025 4029 0
49 -852 -853 4029 0
49 -4029 0
49 -4031 4016 4032 0
49 -4030 4016 4032 0
49 -4030 -4031 4032 0
49 -4032 0
49 -4034 4031 4035 0
49 -4033 4031 4035 0
49 -4033 -4034 4035 0
49 -4035 0
49 -851 4034 4036 0
49 -850 4034 4036 0
49 -850 -851 4036 0
49 -4036 0
49 -849 4033 4037 0
49 -848 4033 4037 0
49 -848 -849 4037 0
49 -4037 0
49 -4039 4030 4040 0
49 -4038 4030 4040 0
49 -4038 -4039 4040 0
49 -4040 0
49 -847 4039 4041 0
49 -846 4039 4041 0
49 -846 -847 4041 0
49 -4041 0
49 -845 4038 4042 0
49 -844 4038 4042 0
49 -844 -845 4042 0
49 -4042 0
49 859 860 861 862 863 0
49 -4045 4043 4046 0
49 -4044 4043 4046 0
49 -4044 -4045 4046 0
49 -4046 0
49 -863 4045 4047 0
49 -862 4045 4047 0
49 -862 -863 4047 0
49 -4047 0
49 -861 4044 4049 0
49 -4048 4044 4049 0
49 -4048 -861 4049 0
49 -4049 0
49 -860 4048 4050 0
49 -859 4048 4050 0
49 -859 -860 4050 0
49 -4050 0
49 864 865 866 867 868 0
49 -4053 4051 4054 0
49 -4052 4051 4054 0
49 -4052 -4053 4054 0
49 -4054 0
49 -868 4053 4055 0
49 -867 4053 4055 0
49 -867 -868 4055 0
49 -4055 0
49 -866 4052 4057 0
49 -4056 4052 4057 0
49 -4056 -866 4057 0
49 -4057 0
49 -865 4056 4058 0
49 -864 4056 4058 0
49 -864 -865 4058 0
49 -4058 0
49 869 0
49 870 0
49 871 0
49 872 0
49 873 0
49 874 0
49 875 876 877 878 879 880 881 882 883 884 885 886 887 888 889 890 891 892 893 894 895 896 897 898 899 900 901 902 0
49 -4061 4059 4062 0
49 -4060 4059 4062 0
49 -4060 -4061 4062 0
49 -4062 0
49 -4064 4061 4065 0
49 -4063 4061 4065 0
49 -4063 -4064 4065 0
49 -4065 0
49 -4067 4064 4068 0
49 -4066 4064 4068 0
49 -4066 -4067 4068 0
49 -4068 0
49 -902 4067 4070 0
49 -4069 4067 4070 0
49 -4069 -902 4070 0
49 -4070 0
49 -901 4069 4071 0
49 -900 4069 4071 0
49 -900 -901 4071 0
49 -4071 0
49 -4073 4066 4074 0
49 -4072 4066 4074 0
49 -4072 -4073 4074 0
49 -4074 0
49 -899 4073 4075 0
49 -898 4073 4075 0
49 -898 -899 4075 0
49 -4075 0
49 -897 4072 4076 0
49 -896 4072 4076 0
49 -896 -897 4076 0
49 -4076 0
49 -4078 4063 4079 0
49 -4077 4063 4079 0
49 -4077 -4078 4079 0
49 -4079 0
49 -895 4078 4081 0
49 -4080 4078 4081 0
49 -4080 -895 4081 0
49 -4081 0
49 -894 4080 4082 0
49 -893 4080 4082 0
49 -893 -894 4082 0
49 -4082 0
49 -4084 4077 4085 0
49 -4083 4077 4085 0
49 -4083 -4084 4085 0
49 -4085 0
49 -892 4084 4086 0
49 -891 4084 4086 0
49 -891 -892 4086 0
49 -4086 0
49 -890 4083 4087 0
49 -889 4083 4087 0
49 -889 -890 4087 0
49 -4087 0
49 -4089 4060 4090 0
49 -4088 4060 4090 0
49 -4088 -4089 4090 0
49 -4090 0
49 -4092 4089 4093 0
49 -4091 4089 4093 0
49 -4091 -4092 4093 0
49 -4093 0
49 -888 4092 4095 0
49 -4094 4092 4095 0
49 -4094 -888 4095 0
49 -4095 0
49 -887 4094 4096 0
49 -886 4094 4096 0
49 -886 -887 4096 0
49 -4096 0
49 -4098 4091 4099 0
49 -4097 4091 4099 0
49 -4097 -4098 4099 0
49 -4099 0
49 -885 4098 4100 0
49 -884 4098 4100 0
49 -884 -885 4100 0
49 -4100 0
49 -883 4097 4101 0
49 -882 4097 4101 0
49 -882 -883 4101 0
49 -4101 0
49 -4103 4088 4104 0
49 -4102 4088 4104 0
49 -4102 -4103 4104 0
49 -4104 0
49 -881 4103 4106 0
49 -4105 4103 4106 0
49 -4105 -881 4106 0
49 -4106 0
49 -880 4105 4107 0
49 -879 4105 4107 0
49 -879 -880 4107 0
49 -4107 0
49 -4109 4102 4110 0
49 -4108 4102 4110 0
49 -4108 -4109 4110 0
49 -4110 0
49 -878 4109 4111 0
49 -877 4109 4111 0
49 -877 -878 4111 0
49 -4111 0
49 -876 4108 4112 0
49 -875 4108 4112 0
49 -875 -876 4112 0
49 -4112 0
49 903 904 905 906 907 908 909 910 911 912 913 914 915 916 917 918 919 920 921 922 923 924 925 926 927 928 929 930 0
49 -4115 4113 4116 0
49 -4114 4113 4116 0
49 -4114 -4115 4116 0
49 -4116 0
49 -4118 4115 4119 0
49 -4117 4115 4119 0
49 -4117 -4118 4119 0
49 -4119 0
49 -4121 4118 4122 0
49 -4120 4118 4122 0
49 -4120 -4121 4122 0
49 -4122 0
49 -930 4121 4124 0
49 -4123 4121 4124 0
49 -4123 -930 4124 0
49 -4124 0
49 -929 4123 4125 0
49 -928 4123 4125 0
49 -928 -929 4125 0
49 -4125 0
49 -4127 4120 4128 0
49 -4126 4120 4128 0
49 -4126 -4127 4128 0
49 -4128 0
49 -927 4127 4129 0
49 -926 4127 4129 0
49 -926 -927 4129 0
49 -4129 0
49 -925 4126 4130 0
49 -924 4126 4130 0
49 -924 -925 4130 0
49 -4130 0
49 -4132 4117 4133 0
49 -4131 4117 4133 0
49 -4131 -4132 4133 0
49 -4133 0
49 -923 4132 4135 0
49 -4134 4132 4135 0
49 -4134 -923 4135 0
49 -4135 0
49 -922 4134 4136 0
49 -921 4134 4136 0
49 -921 -922 4136 0
49 -4136 0
49 -4138 4131 4139 0
49 -4137 4131 4139 0
49 -4137 -4138 4139 0
49 -4139 0
49 -920 4138 4140 0
49 -919 4138 4140 0
49 -919 -920 4140 0
49 -4140 0
49 -918 4137 4141 0
49 -917 4137 4141 0
49 -917 -918 4141 0
49 -4141 0
49 -4143 4114 4144 0
49 -4142 4114 4144 0
49 -4142 -4143 4144 0
49 -4144 0
49 -4146 4143 4147 0
49 -4145 4143 4147 0
49 -4145 -4146 4147 0
49 -4147 0
49 -916 4146 4149 0
49 -4148 4146 4149 0
49 -4148 -916 4149 0
49 -4149 0
49 -915 4148 4150 0
49 -914 4148 4150 0
49 -914 -915 4150 0
49 -4150 0
49 -4152 4145 4153 0
49 -4151 4145 4153 0
49 -4151 -4152 4153 0
49 -4153 0
49 -913 4152 4154 0
49 -912 4152 4154 0
49 -912 -913 4154 0
49 -4154 0
49 -911 4151 4155 0
49 -910 4151 4155 0
49 -910 -911 4155 0
49 -4155 0
49 -4157 4142 4158 0
49 -4156 4142 4158 0
49 -4156 -4157 4158 0
49 -4158 0
49 -909 4157 4160 0
49 -4159 4157 4160 0
49 -4159 -909 4160 0
49 -4160 0
49 -908 4159 4161 0
49 -907 4159 4161 0
49 -907 -908 4161 0
49 -4161 0
49 -4163 4156 4164 0
49 -4162 4156 4164 0
49 -4162 -4163 4164 0
49 -4164 0
49 -906 4163 4165 0
49 -905 4163 4165 0
49 -905 -906 4165 0
49 -4165 0
49 -904 4162 4166 0
49 -903 4162 4166 0
49 -903 -904 4166 0
49 -4166 0
49 931 932 933 934 935 936 0
49 -4169 4167 4170 0
49 -4168 4167 4170 0
49 -4168 -4169 4170 0
49 -4170 0
49 -936 4169 4172 0
49 -4171 4169 4172 0
49 -4171 -936 4172 0
49 -4172 0
49 -935 4171 4173 0
49 -934 4171 4173 0
49 -934 -935 4173 0
49 -4173 0
49 -933 4168 4175 0
49 -4174 4168 4175 0
49 -4174 -933 4175 0
49 -4175 0
49 -932 4174 4176 0
49 -931 4174 4176 0
49 -931 -932 4176 0
49 -4176 0
49 937 938 939 940 941 942 0
49 -4179 4177 4180 0
49 -4178 4177 4180 0
49 -4178 -4179 4180 0
49 -4180 0
49 -942 4179 4182 0
49 -4181 4179 4182 0
49 -4181 -942 4182 0
49 -4182 0
49 -941 4181 4183 0
49 -940 4181 4183 0
49 -940 -941 4183 0
49 -4183 0
49 -939 4178 4185 0
49 -4184 4178 4185 0
49 -4184 -939 4185 0
49 -4185 0
49 -938 4184 4186 0
49 -937 4184 4186 0
49 -937 -938 4186 0
49 -4186 0
49 943 0
49 944 0
49 945 0
49 946 0
49 947 948 949 950 951 952 953 954 0
49 -4189 4187 4190 0
49 -4188 4187 4190 0
49 -4188 -4189 4190 0
49 -4190 0
49 -4192 4189 4193 0
49 -4191 4189 4193 0
49 -4191 -4192 4193 0
49 -4193 0
49 -954 4192 4194 0
49 -953 4192 4194 0
49 -953 -954 4194 0
49 -4194 0
49 -952 4191 4195 0
49 -951 4191 4195 0
49 -951 -952 4195 0
49 -4195 0
49 -4197 4188 4198 0
49 -4196 4188 4198 0
49 -4196 -4197 4198 0
49 -4198 0
49 -950 4197 4199 0
49 -949 4197 4199 0
49 -949 -950 4199 0
49 -4199 0
49 -948 4196 4200 0
49 -947 4196 4200 0
49 -947 -948 4200 0
49 -4200 0
49 955 956 957 958 959 960 961 962 0
49 -4203 4201 4204 0
49 -4202 4201 4204 0
49 -4202 -4203 4204 0
49 -4204 0
49 -4206 4203 4207 0
49 -4205 4203 4207 0
49 -4205 -4206 4207 0
49 -4207 0
49 -962 4206 4208 0
49 -961 4206 4208 0
49 -961 -962 4208 0
49 -4208 0
49 -960 4205 4209 0
49 -959 4205 4209 0
49 -959 -960 4209 0
49 -4209 0
49 -4211 4202 4212 0
49 -4210 4202 4212 0
49 -4210 -4211 4212 0
49 -4212 0
49 -958 4211 4213 0
49 -957 4211 4213 0
49 -957 -958 4213 0
49 -4213 0
49 -956 4210 4214 0
49 -955 4210 4214 0
49 -955 -956 4214 0
49 -4214 0
49 963 964 965 966 967 968 969 970 0
49 -4217 4215 4218 0
49 -4216 4215 4218 0
49 -4216 -4217 4218 0
49 -4218 0
49 -4220 4217 4221 0
49 -4219 4217 4221 0
49 -4219 -4220 4221 0
49 -4221 0
49 -970 4220 4222 0
49 -969 4220 4222 0
49 -969 -970 4222 0
49 -4222 0
49 -968 4219 4223 0
49 -967 4219 4223 0
49 -967 -968 4223 0
49 -4223 0
49 -4225 4216 4226 0
49 -4224 4216 4226 0
49 -4224 -4225 4226 0
49 -4226 0
49 -966 4225 4227 0
49 -965 4225 4227 0
49 -965 -966 4227 0
49 -4227 0
49 -964 4224 4228 0
49 -963 4224 4228 0
49 -963 -964 4228 0
49 -4228 0
49 971 972 973 974 975 976 977 978 0
49 -4231 4229 4232 0
49 -4230 4229 4232 0
49 -4230 -4231 4232 0
49 -4232 0
49 -4234 4231 4235 0
49 -4233 4231 4235 0
49 -4233 -4234 4235 0
49 -4235 0
49 -978 4234 4236 0
49 -977 4234 4236 0
49 -977 -978 4236 0
49 -4236 0
49 -976 4233 4237 0
49 -975 4233 4237 0
49 -975 -976 4237 0
49 -4237 0
49 -4239 4230 4240 0
49 -4238 4230 4240 0
49 -4238 -4239 4240 0
49 -4240 0
49 -974 4239 4241 0
49 -973 4239 4241 0
49 -973 -974 4241 0
49 -4241 0
49 -972 4238 4242 0
49 -971 4238 4242 0
49 -971 -972 4242 0
49 -4242 0
49 979 980 981 982 983 984 985 986 0
49 -4245 4243 4246 0
49 -4244 4243 4246 0
49 -4244 -4245 4246 0
49 -4246 0
49 -4248 4245 4249 0
49 -4247 4245 4249 0
49 -4247 -4248 4249 0
49 -4249 0
49 -986 4248 4250 0
49 -985 4248 4250 0
49 -985 -986 4250 0
49 -4250 0
49 -984 4247 4251 0
49 -983 4247 4251 0
49 -983 -984 4251 0
49 -4251 0
49 -4253 4244 4254 0
49 -4252 4244 4254 0
49 -4252 -4253 4254 0
49 -4254 0
49 -982 4253 4255 0
49 -981 4253 4255 0
49 -981 -982 4255 0
49 -4255 0
49 -980 4252 4256 0
49 -979 4252 4256 0
49 -979 -980 4256 0
49 -4256 0
49 987 988 989 990 991 992 993 994 0
49 -4259 4257 4260 0
49 -4258 4257 4260 0
49 -4258 -4259 4260 0
49 -4260 0
49 -4262 4259 4263 0
49 -4261 4259 4263 0
49 -4261 -4262 4263 0
49 -4263 0
49 -994 4262 4264 0
49 -993 4262 4264 0
49 -993 -994 4264 0
49 -4264 0
49 -992 4261 4265 0
49 -991 4261 4265 0
49 -991 -992 4265 0
49 -4265 0
49 -4267 4258 4268 0
49 -4266 4258 4268 0
49 -4266 -4267 4268 0
49 -4268 0
49 -990 4267 4269 0
49 -989 4267 4269 0
49 -989 -990 4269 0
49 -4269 0
49 -988 4266 4270 0
49 -987 4266 4270 0
49 -987 -988 4270 0
49 -4270 0
49 995 996 997 998 999 1000 1001 1002 0
49 -4273 4271 4274 0
49 -4272 4271 4274 0
49 -4272 -4273 4274 0
49 -4274 0
49 -4276 4273 4277 0
49 -4275 4273 4277 0
49 -4275 -4276 4277 0
49 -4277 0
49 -1002 4276 4278 0
49 -1001 4276 4278 0
49 -1001 -1002 4278 0
49 -4278 0
49 -1000 4275 4279 0
49 -999 4275 4279 0
49 -999 -1000 4279 0
49 -4279 0
49 -4281 4272 4282 0
49 -4280 4272 4282 0
49 -4280 -4281 4282 0
49 -4282 0
49 -998 4281 4283 0
49 -997 4281 4283 0
49 -997 -998 4283 0
49 -4283 0
49 -996 4280 4284 0
49 -995 4280 4284 0
49 -995 -996 4284 0
49 -4284 0
49 1003 1004 1005 1006 1007 1008 1009 1010 0
49 -4287 4285 4288 0
49 -4286 4285 4288 0
49 -4286 -4287 4288 0
49 -4288 0
49 -4290 4287 4291 0
49 -4289 4287 4291 0
49 -4289 -4290 4291 0
49 -4291 0
49 -1010 4290 4292 0
49 -1009 4290 4292 0
49 -1009 -1010 4292 0
49 -4292 0
49 -1008 4289 4293 0
49 -1007 4289 4293 0
49 -1007 -1008 4293 0
49 -4293 0
49 -4295 4286 4296 0
49 -4294 4286 4296 0
49 -4294 -4295 4296 0
49 -4296 0
49 -1006 4295 4297 0
49 -1005 4295 4297 0
49 -1005 -1006 4297 0
49 -4297 0
49 -1004 4294 4298 0
49 -1003 4294 4298 0
49 -1003 -1004 4298 0
49 -4298 0
49 1011 0
49 1012 0
49 1013 0
49 1014 0
49 1015 0
49 1016 0
49 1017 0
49 1018 0
49 1019 0
49 1020 0
49 1021 1022 1023 1024 1025 1026 1027 1028 0
49 -4301 4299 4302 0
49 -4300 4299 4302 0
49 -4300 -4301 4302 0
49 -4302 0
49 -4304 4301 4305 0
49 -4303 4301 4305 0
49 -4303 -4304 4305 0
49 -4305 0
49 -1028 4304 4306 0
49 -1027 4304 4306 0
49 -1027 -1028 4306 0
49 -4306 0
49 -1026 4303 4307 0
49 -1025 4303 4307 0
49 -1025 -1026 4307 0
49 -4307 0
49 -4309 4300 4310 0
49 -4308 4300 4310 0
49 -4308 -4309 4310 0
49 -4310 0
49 -1024 4309 4311 0
49 -1023 4309 4311 0
49 -1023 -1024 4311 0
49 -4311 0
49 -1022 4308 4312 0
49 -1021 4308 4312 0
49 -1021 -1022 4312 0
49 -4312 0
49 1029 1030 1031 1032 1033 1034 1035 1036 0
49 -4315 4313 4316 0
49 -4314 4313 4316 0
49 -4314 -4315 4316 0
49 -4316 0
49 -4318 4315 4319 0
49 -4317 4315 4319 0
49 -4317 -4318 4319 0
49 -4319 0
49 -1036 4318 4320 0
49 -1035 4318 4320 0
49 -1035 -1036 4320 0
49 -4320 0
49 -1034 4317 4321 0
49 -1033 4317 4321 0
49 -1033 -1034 4321 0
49 -4321 0
49 -4323 4314 4324 0
49 -4322 4314 4324 0
49 -4322 -4323 4324 0
49 -4324 0
49 -1032 4323 4325 0
49 -1031 4323 4325 0
49 -1031 -1032 4325 0
49 -4325 0
49 -1030 4322 4326 0
49 -1029 4322 4326 0
49 -1029 -1030 4326 0
49 -4326 0
49 1037 0
49 1038 0
49 1039 1040 1041 1042 1043 1044 1045 1046 0
49 -4329 4327 4330 0
49 -4328 4327 4330 0
49 -4328 -4329 4330 0
49 -4330 0
49 -4332 4329 4333 0
49 -4331 4329 4333 0
49 -4331 -4332 4333 0
49 -4333 0
49 -1046 4332 4334 0
49 -1045 4332 4334 0
49 -1045 -1046 4334 0
49 -4334 0
49 -1044 4331 4335 0
49 -1043 4331 4335 0
49 -1043 -1044 4335 0
49 -4335 0
49 -4337 4328 4338 0
49 -4336 4328 4338 0
49 -4336 -4337 4338 0
49 -4338 0
49 -1042 4337 4339 0
49 -1041 4337 4339 0
49 -1041 -1042 4339 0
49 -4339 0
49 -1040 4336 4340 0
49 -1039 4336 4340 0
49 -1039 -1040 4340 0
49 -4340 0
49 1047 1048 1049 1050 1051 1052 1053 1054 0
49 -4343 4341 4344 0
49 -4342 4341 4344 0
49 -4342 -4343 4344 0
49 -4344 0
49 -4346 4343 4347 0
49 -4345 4343 4347 0
49 -4345 -4346 4347 0
49 -4347 0
49 -1054 4346 4348 0
49 -1053 4346 4348 0
49 -1053 -1054 4348 0
49 -4348 0
49 -1052 4345 4349 0
49 -1051 4345 4349 0
49 -1051 -1052 4349 0
49 -4349 0
49 -4351 4342 4352 0
49 -4350 4342 4352 0
49 -4350 -4351 4352 0
49 -4352 0
49 -1050 4351 4353 0
49 -1049 4351 4353 0
49 -1049 -1050 4353 0
49 -4353 0
49 -1048 4350 4354 0
49 -1047 4350 4354 0
49 -1047 -1048 4354 0
49 -4354 0
49 1055 0
49 1056 0
49 1057 0
49 1058 0
49 1059 0
49 1060 0
49 1061 0
49 1062 0
49 1063 1064 1065 1066 1067 1068 1069 1070 0
49 -4357 4355 4358 0
49 -4356 4355 4358 0
49 -4356 -4357 4358 0
49 -4358 0
49 -4360 4357 4361 0
49 -4359 4357 4361 0
49 -4359 -4360 4361 0
49 -4361 0
49 -1070 4360 4362 0
49 -1069 4360 4362 0
49 -1069 -1070 4362 0
49 -4362 0
49 -1068 4359 4363 0
49 -1067 4359 4363 0
49 -1067 -1068 4363 0
49 -4363 0
49 -4365 4356 4366 0
49 -4364 4356 4366 0
49 -4364 -4365 4366 0
49 -4366 0
49 -1066 4365 4367 0
49 -1065 4365 4367 0
49 -1065 -1066 4367 0
49 -4367 0
49 -1064 4364 4368 0
49 -1063 4364 4368 0
49 -1063 -1064 4368 0
49 -4368 0
49 1071 1072 1073 1074 1075 1076 1077 1078 0
49 -4371 4369 4372 0
49 -4370 4369 4372 0
49 -4370 -4371 4372 0
49 -4372 0
49 -4374 4371 4375 0
49 -4373 4371 4375 0
49 -4373 -4374 4375 0
49 -4375 0
49 -1078 4374 4376 0
49 -1077 4374 4376 0
49 -1077 -1078 4376 0
49 -4376 0
49 -1076 4373 4377 0
49 -1075 4373 4377 0
49 -1075 -1076 4377 0
49 -4377 0
49 -4379 4370 4380 0
49 -4378 4370 4380 0
49 -4378 -4379 4380 0
49 -4380 0
49 -1074 4379 4381 0
49 -1073 4379 4381 0
49 -1073 -1074 4381 0
49 -4381 0
49 -1072 4378 4382 0
49 -1071 4378 4382 0
49 -1071 -1072 4382 0
49 -4382 0
49 1079 1080 1081 1082 1083 1084 1085 1086 0
49 -4385 4383 4386 0
49 -4384 4383 4386 0
49 -4384 -4385 4386 0
49 -4386 0
49 -4388 4385 4389 0
49 -4387 4385 4389 0
49 -4387 -4388 4389 0
49 -4389 0
49 -1086 4388 4390 0
49 -1085 4388 4390 0
49 -1085 -1086 4390 0
49 -4390 0
49 -1084 4387 4391 0
49 -1083 4387 4391 0
49 -1083 -1084 4391 0
49 -4391 0
49 -4393 4384 4394 0
49 -4392 4384 4394 0
49 -4392 -4393 4394 0
49 -4394 0
49 -1082 4393 4395 0
49 -1081 4393 4395 0
49 -1081 -1082 4395 0
49 -4395 0
49 -1080 4392 4396 0
49 -1079 4392 4396 0
49 -1079 -1080 4396 0
49 -4396 0
49 1087 1088 1089 1090 1091 1092 1093 1094 0
49 -4399 4397 4400 0
49 -4398 4397 4400 0
49 -4398 -4399 4400 0
49 -4400 0
49 -4402 4399 4403 0
49 -4401 4399 4403 0
49 -4401 -4402 4403 0
49 -4403 0
49 -1094 4402 4404 0
49 -1093 4402 4404 0
49 -1093 -1094 4404 0
49 -4404 0
49 -1092 4401 4405 0
49 -1091 4401 4405 0
49 -1091 -1092 4405 0
49 -4405 0
49 -4407 4398 4408 0
49 -4406 4398 4408 0
49 -4406 -4407 4408 0
49 -4408 0
49 -1090 4407 4409 0
49 -1089 4407 4409 0
49 -1089 -1090 4409 0
49 -4409 0
49 -1088 4406 4410 0
49 -1087 4406 4410 0
49 -1087 -1088 4410 0
49 -4410 0
49 1095 0
49 1096 0
49 1097 0
49 1098 0
49 1099 0
49 1100 0
49 1101 0
49 1102 0
49 1103 0
49 1104 0
49 1105 0
49 1106 0
49 1107 1108 1109 0
49 -1109 4411 4413 0
49 -4412 4411 4413 0
49 -4412 -1109 4413 0
49 -4413 0
49 -1108 4412 4414 0
49 -1107 4412 4414 0
49 -1107 -1108 4414 0
49 -4414 0
49 1110 1111 1112 0
49 -1112 4415 4417 0
49 -4416 4415 4417 0
49 -4416 -1112 4417 0
49 -4417 0
49 -1111 4416 4418 0
49 -1110 4416 4418 0
49 -1110 -1111 4418 0
49 -4418 0
49 1113 0
49 1114 0
49 1115 1116 1117 1118 1119 1120 1121 1122 0
49 -4421 4419 4422 0
49 -4420 4419 4422 0
49 -4420 -4421 4422 0
49 -4422 0
49 -4424 4421 4425 0
49 -4423 4421 4425 0
49 -4423 -4424 4425 0
49 -4425 0
49 -1122 4424 4426 0
49 -1121 4424 4426 0
49 -1121 -1122 4426 0
49 -4426 0
49 -1120 4423 4427 0
49 -1119 4423 4427 0
49 -1119 -1120 4427 0
49 -4427 0
49 -4429 4420 4430 0
49 -4428 4420 4430 0
49 -4428 -4429 4430 0
49 -4430 0
49 -1118 4429 4431 0
49 -1117 4429 4431 0
49 -1117 -1118 4431 0
49 -4431 0
49 -1116 4428 4432 0
49 -1115 4428 4432 0
49 -1115 -1116 4432 0
49 -4432 0
49 1123 1124 1125 1126 1127 1128 1129 1130 0
49 -4435 4433 4436 0
49 -4434 4433 4436 0
49 -4434 -4435 4436 0
49 -4436 0
49 -4438 4435 4439 0
49 -4437 4435 4439 0
49 -4437 -4438 4439 0
49 -4439 0
49 -1130 4438 4440 0
49 -1129 4438 4440 0
49 -1129 -1130 4440 0
49 -4440 0
49 -1128 4437 4441 0
49 -1127 4437 4441 0
49 -1127 -1128 4441 0
49 -4441 0
49 -4443 4434 4444 0
49 -4442 4434 4444 0
49 -4442 -4443 4444 0
49 -4444 0
49 -1126 4443 4445 0
49 -1125 4443 4445 0
49 -1125 -1126 4445 0
49 -4445 0
49 -1124 4442 4446 0
49 -1123 4442 4446 0
49 -1123 -1124 4446 0
49 -4446 0
49 1131 0
49 1132 0
49 1133 0
49 1134 0
49 1135 1136 1137 1138 1139 1140 1141 1142 0
49 -4449 4447 4450 0
49 -4448 4447 4450 0
49 -4448 -4449 4450 0
49 -4450 0
49 -4452 4449 4453 0
49 -4451 4449 4453 0
49 -4451 -4452 4453 0
49 -4453 0
49 -1142 4452 4454 0
49 -1141 4452 4454 0
49 -1141 -1142 4454 0
49 -4454 0
49 -1140 4451 4455 0
49 -1139 4451 4455 0
49 -1139 -1140 4455 0
49 -4455 0
49 -4457 4448 4458 0
49 -4456 4448 4458 0
49 -4456 -4457 4458 0
49 -4458 0
49 -1138 4457 4459 0
49 -1137 4457 4459 0
49 -1137 -1138 4459 0
49 -4459 0
49 -1136 4456 4460 0
49 -1135 4456 4460 0
49 -1135 -1136 4460 0
49 -4460 0
49 1143 1144 1145 1146 1147 1148 1149 1150 0
49 -4463 4461 4464 0
49 -4462 4461 4464 0
49 -4462 -4463 4464 0
49 -4464 0
49 -4466 4463 4467 0
49 -4465 4463 4467 0
49 -4465 -4466 4467 0
49 -4467 0
49 -1150 4466 4468 0
49 -1149 4466 4468 0
49 -1149 -1150 4468 0
49 -4468 0
49 -1148 4465 4469 0
49 -1147 4465 4469 0
49 -1147 -1148 4469 0
49 -4469 0
49 -4471 4462 4472 0
49 -4470 4462 4472 0
49 -4470 -4471 4472 0
49 -4472 0
49 -1146 4471 4473 0
49 -1145 4471 4473 0
49 -1145 -1146 4473 0
49 -4473 0
49 -1144 4470 4474 0
49 -1143 4470 4474 0
49 -1143 -1144 4474 0
49 -4474 0
49 1151 1152 1153 1154 0
49 -4477 4475 4478 0
49 -4476 4475 4478 0
49 -4476 -4477 4478 0
49 -4478 0
49 -1154 4477 4479 0
49 -1153 4477 4479 0
49 -1153 -1154 4479 0
49 -4479 0
49 -1152 4476 4480 0
49 -1151 4476 4480 0
49 -1151 -1152 4480 0
49 -4480 0
49 1155 1156 1157 1158 0
49 -4483 4481 4484 0
49 -4482 4481 4484 0
49 -4482 -4483 4484 0
49 -4484 0
49 -1158 4483 4485 0
49 -1157 4483 4485 0
49 -1157 -1158 4485 0
49 -4485 0
49 -1156 4482 4486 0
49 -1155 4482 4486 0
49 -1155 -1156 4486 0
49 -4486 0
49 1159 1160 1161 1162 1163 1164 1165 1166 1167 1168 1169 1170 1171 1172 0
49 -4489 4487 4490 0
49 -4488 4487 4490 0
49 -4488 -4489 4490 0
49 -4490 0
49 -4492 4489 4493 0
49 -4491 4489 4493 0
49 -4491 -4492 4493 0
49 -4493 0
49 -1172 4492 4495 0
49 -4494 4492 4495 0
49 -4494 -1172 4495 0
49 -4495 0
49 -1171 4494 4496 0
49 -1170 4494 4496 0
49 -1170 -1171 4496 0
49 -4496 0
49 -4498 4491 4499 0
49 -4497 4491 4499 0
49 -4497 -4498 4499 0
49 -4499 0
49 -1169 4498 4500 0
49 -1168 4498 4500 0
49 -1168 -1169 4500 0
49 -4500 0
49 -1167 4497 4501 0
49 -1166 4497 4501 0
49 -1166 -1167 4501 0
49 -4501 0
49 -4503 4488 4504 0
49 -4502 4488 4504 0
49 -4502 -4503 4504 0
49 -4504 0
49 -1165 4503 4506 0
49 -4505 4503 4506 0
49 -4505 -1165 4506 0
49 -4506 0
49 -1164 4505 4507 0
49 -1163 4505 4507 0
49 -1163 -1164 4507 0
49 -4507 0
49 -4509 4502 4510 0
49 -4508 4502 4510 0
49 -4508 -4509 4510 0
49 -4510 0
49 -1162 4509 4511 0
49 -1161 4509 4511 0
49 -1161 -1162 4511 0
49 -4511 0
49 -1160 4508 4512 0
49 -1159 4508 4512 0
49 -1159 -1160 4512 0
49 -4512 0
49 1173 1174 1175 1176 1177 1178 1179 1180 1181 1182 1183 1184 1185 1186 0
49 -4515 4513 4516 0
49 -4514 4513 4516 0
49 -4514 -4515 4516 0
49 -4516 0
49 -4518 4515 4519 0
49 -4517 4515 4519 0
49 -4517 -4518 4519 0
49 -4519 0
49 -1186 4518 4521 0
49 -4520 4518 4521 0
49 -4520 -1186 4521 0
49 -4521 0
49 -1185 4520 4522 0
49 -1184 4520 4522 0
49 -1184 -1185 4522 0
49 -4522 0
49 -4524 4517 4525 0
49 -4523 4517 4525 0
49 -4523 -4524 4525 0
49 -4525 0
49 -1183 4524 4526 0
49 -1182 4524 4526 0
49 -1182 -1183 4526 0
49 -4526 0
49 -1181 4523 4527 0
49 -1180 4523 4527 0
49 -1180 -1181 4527 0
49 -4527 0
49 -4529 4514 4530 0
49 -4528 4514 4530 0
49 -4528 -4529 4530 0
49 -4530 0
49 -1179 4529 4532 0
49 -4531 4529 4532 0
49 -4531 -1179 4532 0
49 -4532 0
49 -1178 4531 4533 0
49 -1177 4531 4533 0
49 -1177 -1178 4533 0
49 -4533 0
49 -4535 4528 4536 0
49 -4534 4528 4536 0
49 -4534 -4535 4536 0
49 -4536 0
49 -1176 4535 4537 0
49 -1175 4535 4537 0
49 -1175 -1176 4537 0
49 -4537 0
49 -1174 4534 4538 0
49 -1173 4534 4538 0
49 -1173 -1174 4538 0
49 -4538 0
49 1187 1188 1189 0
49 -1189 4539 4541 0
49 -4540 4539 4541 0
49 -4540 -1189 4541 0
49 -4541 0
49 -1188 4540 4542 0
49 -1187 4540 4542 0
49 -1187 -1188 4542 0
49 -4542 0
49 1190 1191 1192 0
49 -1192 4543 4545 0
49 -4544 4543 4545 0
49 -4544 -1192 4545 0
49 -4545 0
49 -1191 4544 4546 0
49 -1190 4544 4546 0
49 -1190 -1191 4546 0
49 -4546 0
49 1193 0
49 1194 0
49 1195 1196 1197 1198 1199 1200 0
49 -4549 4547 4550 0
49 -4548 4547 4550 0
49 -4548 -4549 4550 0
49 -4550 0
49 -1200 4549 4552 0
49 -4551 4549 4552 0
49 -4551 -1200 4552 0
49 -4552 0
49 -1199 4551 4553 0
49 -1198 4551 4553 0
49 -1198 -1199 4553 0
49 -4553 0
49 -1197 4548 4555 0
49 -4554 4548 4555 0
49 -4554 -1197 4555 0
49 -4555 0
49 -1196 4554 4556 0
49 -1195 4554 4556 0
49 -1195 -1196 4556 0
49 -4556 0
49 1201 1202 1203 1204 1205 1206 0
49 -4559 4557 4560 0
49 -4558 4557 4560 0
49 -4558 -4559 4560 0
49 -4560 0
49 -1206 4559 4562 0
49 -4561 4559 4562 0
49 -4561 -1206 4562 0
49 -4562 0
49 -1205 4561 4563 0
49 -1204 4561 4563 0
49 -1204 -1205 4563 0
49 -4563 0
49 -1203 4558 4565 0
49 -4564 4558 4565 0
49 -4564 -1203 4565 0
49 -4565 0
49 -1202 4564 4566 0
49 -1201 4564 4566 0
49 -1201 -1202 4566 0
49 -4566 0
49 1207 0
49 1208 0
49 1209 0
49 1210 0
49 1211 1212 1213 1214 1215 1216 1217 0
49 -4569 4567 4570 0
49 -4568 4567 4570 0
49 -4568 -4569 4570 0
49 -4570 0
49 -1217 4569 4572 0
49 -4571 4569 4572 0
49 -4571 -1217 4572 0
49 -4572 0
49 -1216 4571 4573 0
49 -1215 4571 4573 0
49 -1215 -1216 4573 0
49 -4573 0
49 -4575 4568 4576 0
49 -4574 4568 4576 0
49 -4574 -4575 4576 0
49 -4576 0
49 -1214 4575 4577 0
49 -1213 4575 4577 0
49 -1213 -1214 4577 0
49 -4577 0
49 -1212 4574 4578 0
49 -1211 4574 4578 0
49 -1211 -1212 4578 0
49 -4578 0
49 1218 1219 1220 1221 1222 1223 1224 0
49 -4581 4579 4582 0
49 -4580 4579 4582 0
49 -4580 -4581 4582 0
49 -4582 0
49 -1224 4581 4584 0
49 -4583 4581 4584 0
49 -4583 -1224 4584 0
49 -4584 0
49 -1223 4583 4585 0
49 -1222 4583 4585 0
49 -1222 -1223 4585 0
49 -4585 0
49 -4587 4580 4588 0
49 -4586 4580 4588 0
49 -4586 -4587 4588 0
49 -4588 0
49 -1221 4587 4589 0
49 -1220 4587 4589 0
49 -1220 -1221 4589 0
49 -4589 0
49 -1219 4586 4590 0
49 -1218 4586 4590 0
49 -1218 -1219 4590 0
49 -4590 0
49 1225 0
49 1226 0
49 1227 1228 0
49 -1227 -1228 0
49 1229 1230 0
49 -1229 -1230 0
49 1231 0
49 1232 0
49 1233 0
49 1234 0
49 1235 1236 1237 1238 1239 1240 1241 0
49 -4593 4591 4594 0
49 -4592 4591 4594 0
49 -4592 -4593 4594 0
49 -4594 0
49 -1241 4593 4596 0
49 -4595 4593 4596 0
49 -4595 -1241 4596 0
49 -4596 0
49 -1240 4595 4597 0
49 -1239 4595 4597 0
49 -1239 -1240 4597 0
49 -4597 0
49 -4599 4592 4600 0
49 -4598 4592 4600 0
49 -4598 -4599 4600 0
49 -4600 0
49 -1238 4599 4601 0
49 -1237 4599 4601 0
49 -1237 -1238 4601 0
49 -4601 0
49 -1236 4598 4602 0
49 -1235 4598 4602 0
49 -1235 -1236 4602 0
49 -4602 0
49 1242 1243 1244 1245 1246 1247 1248 0
49 -4605 4603 4606 0
49 -4604 4603 4606 0
49 -4604 -4605 4606 0
49 -4606 0
49 -1248 4605 4608 0
49 -4607 4605 4608 0
49 -4607 -1248 4608 0
49 -4608 0
49 -1247 4607 4609 0
49 -1246 4607 4609 0
49 -1246 -1247 4609 0
49 -4609 0
49 -4611 4604 4612 0
49 -4610 4604 4612 0
49 -4610 -4611 4612 0
49 -4612 0
49 -1245 4611 4613 0
49 -1244 4611 4613 0
49 -1244 -1245 4613 0
49 -4613 0
49 -1243 4610 4614 0
49 -1242 4610 4614 0
49 -1242 -1243 4614 0
49 -4614 0
49 1249 1250 1251 1252 0
49 -4617 4615 4618 0
49 -4616 4615 4618 0
49 -4616 -4617 4618 0
49 -4618 0
49 -1252 4617 4619 0
49 -1251 4617 4619 0
49 -1251 -1252 4619 0
49 -4619 0
49 -1250 4616 4620 0
49 -1249 4616 4620 0
49 -1249 -1250 4620 0
49 -4620 0
49 1253 1254 1255 1256 0
49 -4623 4621 4624 0
49 -4622 4621 4624 0
49 -4622 -4623 4624 0
49 -4624 0
49 -1256 4623 4625 0
49 -1255 4623 4625 0
49 -1255 -1256 4625 0
49 -4625 0
49 -1254 4622 4626 0
49 -1253 4622 4626 0
49 -1253 -1254 4626 0
49 -4626 0
49 1257 0
49 1258 0
49 1259 0
49 1260 0
49 1261 1262 1263 1264 1265 1266 1267 0
49 -4629 4627 4630 0
49 -4628 4627 4630 0
49 -4628 -4629 4630 0
49 -4630 0
49 -1267 4629 4632 0
49 -4631 4629 4632 0
49 -4631 -1267 4632 0
49 -4632 0
49 -1266 4631 4633 0
49 -1265 4631 4633 0
49 -1265 -1266 4633 0
49 -4633 0
49 -4635 4628 4636 0
49 -4634 4628 4636 0
49 -4634 -4635 4636 0
49 -4636 0
49 -1264 4635 4637 0
49 -1263 4635 4637 0
49 -1263 -1264 4637 0
49 -4637 0
49 -1262 4634 4638 0
49 -1261 4634 4638 0
49 -1261 -1262 4638 0
49 -4638 0
49 1268 1269 1270 1271 1272 1273 1274 0
49 -4641 4639 4642 0
49 -4640 4639 4642 0
49 -4640 -4641 4642 0
49 -4642 0
49 -1274 4641 4644 0
49 -4643 4641 4644 0
49 -4643 -1274 4644 0
49 -4644 0
49 -1273 4643 4645 0
49 -1272 4643 4645 0
49 -1272 -1273 4645 0
49 -4645 0
49 -4647 4640 4648 0
49 -4646 4640 4648 0
49 -4646 -4647 4648 0
49 -4648 0
49 -1271 4647 4649 0
49 -1270 4647 4649 0
49 -1270 -1271 4649 0
49 -4649 0
49 -1269 4646 4650 0
49 -1268 4646 4650 0
49 -1268 -1269 4650 0
49 -4650 0
49 1275 1276 1277 1278 1279 1280 1281 1282 0
49 -4653 4651 4654 0
49 -4652 4651 4654 0
49 -4652 -4653 4654 0
49 -4654 0
49 -4656 4653 4657 0
49 -4655 4653 4657 0
49 -4655 -4656 4657 0
49 -4657 0
49 -1282 4656 4658 0
49 -1281 4656 4658 0
49 -1281 -1282 4658 0
49 -4658 0
49 -1280 4655 4659 0
49 -1279 4655 4659 0
49 -1279 -1280 4659 0
49 -4659 0
49 -4661 4652 4662 0
49 -4660 4652 4662 0
49 -4660 -4661 4662 0
49 -4662 0
49 -1278 4661 4663 0
49 -1277 4661 4663 0
49 -1277 -1278 4663 0
49 -4663 0
49 -1276 4660 4664 0
49 -1275 4660 4664 0
49 -1275 -1276 4664 0
49 -4664 0
49 1283 1284 1285 1286 1287 1288 1289 1290 0
49 -4667 4665 4668 0
49 -4666 4665 4668 0
49 -4666 -4667 4668 0
49 -4668 0
49 -4670 4667 4671 0
49 -4669 4667 4671 0
49 -4669 -4670 4671 0
49 -4671 0
49 -1290 4670 4672 0
49 -1289 4670 4672 0
49 -1289 -1290 4672 0
49 -4672 0
49 -1288 4669 4673 0
49 -1287 4669 4673 0
49 -1287 -1288 4673 0
49 -4673 0
49 -4675 4666 4676 0
49 -4674 4666 4676 0
49 -4674 -4675 4676 0
49 -4676 0
49 -1286 4675 4677 0
49 -1285 4675 4677 0
49 -1285 -1286 4677 0
49 -4677 0
49 -1284 4674 4678 0
49 -1283 4674 4678 0
49 -1283 -1284 4678 0
49 -4678 0
49 1291 1292 1293 1294 1295 1296 0
49 -4681 4679 4682 0
49 -4680 4679 4682 0
49 -4680 -4681 4682 0
49 -4682 0
49 -1296 4681 4684 0
49 -4683 4681 4684 0
49 -4683 -1296 4684 0
49 -4684 0
49 -1295 4683 4685 0
49 -1294 4683 4685 0
49 -1294 -1295 4685 0
49 -4685 0
49 -1293 4680 4687 0
49 -4686 4680 4687 0
49 -4686 -1293 4687 0
49 -4687 0
49 -1292 4686 4688 0
49 -1291 4686 4688 0
49 -1291 -1292 4688 0
49 -4688 0
49 1297 1298 1299 1300 1301 1302 0
49 -4691 4689 4692 0
49 -4690 4689 4692 0
49 -4690 -4691 4692 0
49 -4692 0
49 -1302 4691 4694 0
49 -4693 4691 4694 0
49 -4693 -1302 4694 0
49 -4694 0
49 -1301 4693 4695 0
49 -1300 4693 4695 0
49 -1300 -1301 4695 0
49 -4695 0
49 -1299 4690 4697 0
49 -4696 4690 4697 0
49 -4696 -1299 4697 0
49 -4697 0
49 -1298 4696 4698 0
49 -1297 4696 4698 0
49 -1297 -1298 4698 0
49 -4698 0
49 1303 0
49 1304 0
49 1305 1306 1307 1308 0
49 -4701 4699 4702 0
49 -4700 4699 4702 0
49 -4700 -4701 4702 0
49 -4702 0
49 -1308 4701 4703 0
49 -1307 4701 4703 0
49 -1307 -1308 4703 0
49 -4703 0
49 -1306 4700 4704 0
49 -1305 4700 4704 0
49 -1305 -1306 4704 0
49 -4704 0
49 1309 1310 1311 1312 0
49 -4707 4705 4708 0
49 -4706 4705 4708 0
49 -4706 -4707 4708 0
49 -4708 0
49 -1312 4707 4709 0
49 -1311 4707 4709 0
49 -1311 -1312 4709 0
49 -4709 0
49 -1310 4706 4710 0
49 -1309 4706 4710 0
49 -1309 -1310 4710 0
49 -4710 0
49 1313 0
49 1314 0
49 1315 0
49 1316 0
49 1317 0
49 1318 0
49 1319 0
49 1320 0
49 1321 1322 1323 1324 1325 1326 0
49 -4713 4711 4714 0
49 -4712 4711 4714 0
49 -4712 -4713 4714 0
49 -4714 0
49 -1326 4713 4716 0
49 -4715 4713 4716 0
49 -4715 -1326 4716 0
49 -4716 0
49 -1325 4715 4717 0
49 -1324 4715 4717 0
49 -1324 -1325 4717 0
49 -4717 0
49 -1323 4712 4719 0
49 -4718 4712 4719 0
49 -4718 -1323 4719 0
49 -4719 0
49 -1322 4718 4720 0
49 -1321 4718 4720 0
49 -1321 -1322 4720 0
49 -4720 0
49 1327 1328 1329 1330 1331 1332 0
49 -4723 4721 4724 0
49 -4722 4721 4724 0
49 -4722 -4723 4724 0
49 -4724 0
49 -1332 4723 4726 0
49 -4725 4723 4726 0
49 -4725 -1332 4726 0
49 -4726 0
49 -1331 4725 4727 0
49 -1330 4725 4727 0
49 -1330 -1331 4727 0
49 -4727 0
49 -1329 4722 4729 0
49 -4728 4722 4729 0
49 -4728 -1329 4729 0
49 -4729 0
49 -1328 4728 4730 0
49 -1327 4728 4730 0
49 -1327 -1328 4730 0
49 -4730 0
49 1333 0
49 1334 0
49 1335 0
49 1336 0
49 1337 0
49 1338 0
49 1339 0
49 1340 0
49 1341 1342 1343 1344 1345 1346 1347 1348 0
49 -4733 4731 4734 0
49 -4732 4731 4734 0
49 -4732 -4733 4734 0
49 -4734 0
49 -4736 4733 4737 0
49 -4735 4733 4737 0
49 -4735 -4736 4737 0
49 -4737 0
49 -1348 4736 4738 0
49 -1347 4736 4738 0
49 -1347 -1348 4738 0
49 -4738 0
49 -1346 4735 4739 0
49 -1345 4735 4739 0
49 -1345 -1346 4739 0
49 -4739 0
49 -4741 4732 4742 0
49 -4740 4732 4742 0
49 -4740 -4741 4742 0
49 -4742 0
49 -1344 4741 4743 0
49 -1343 4741 4743 0
49 -1343 -1344 4743 0
49 -4743 0
49 -1342 4740 4744 0
49 -1341 4740 4744 0
49 -1341 -1342 4744 0
49 -4744 0
49 1349 1350 1351 1352 1353 1354 1355 1356 0
49 -4747 4745 4748 0
49 -4746 4745 4748 0
49 -4746 -4747 4748 0
49 -4748 0
49 -4750 4747 4751 0
49 -4749 4747 4751 0
49 -4749 -4750 4751 0
49 -4751 0
49 -1356 4750 4752 0
49 -1355 4750 4752 0
49 -1355 -1356 4752 0
49 -4752 0
49 -1354 4749 4753 0
49 -1353 4749 4753 0
49 -1353 -1354 4753 0
49 -4753 0
49 -4755 4746 4756 0
49 -4754 4746 4756 0
49 -4754 -4755 4756 0
49 -4756 0
49 -1352 4755 4757 0
49 -1351 4755 4757 0
49 -1351 -1352 4757 0
49 -4757 0
49 -1350 4754 4758 0
49 -1349 4754 4758 0
49 -1349 -1350 4758 0
49 -4758 0
49 1357 0
49 1358 0
49 1359 0
49 1360 0
49 1361 0
49 1362 0
49 1363 0
49 1364 0
49 1365 1366 1367 0
49 -1367 4759 4761 0
49 -4760 4759 4761 0
49 -4760 -1367 4761 0
49 -4761 0
49 -1366 4760 4762 0
49 -1365 4760 4762 0
49 -1365 -1366 4762 0
49 -4762 0
49 1368 1369 1370 0
49 -1370 4763 4765 0
49 -4764 4763 4765 0
49 -4764 -1370 4765 0
49 -4765 0
49 -1369 4764 4766 0
49 -1368 4764 4766 0
49 -1368 -1369 4766 0
49 -4766 0
49 1371 1372 1373 1374 1375 1376 1377 1378 1379 1380 1381 0
49 -4769 4767 4770 0
49 -4768 4767 4770 0
49 -4768 -4769 4770 0
49 -4770 0
49 -4772 4769 4773 0
49 -4771 4769 4773 0
49 -4771 -4772 4773 0
49 -4773 0
49 -1381 4772 4774 0
49 -1380 4772 4774 0
49 -1380 -1381 4774 0
49 -4774 0
49 -1379 4771 4776 0
49 -4775 4771 4776 0
49 -4775 -1379 4776 0
49 -4776 0
49 -1378 4775 4777 0
49 -1377 4775 4777 0
49 -1377 -1378 4777 0
49 -4777 0
49 -4779 4768 4780 0
49 -4778 4768 4780 0
49 -4778 -4779 4780 0
49 -4780 0
49 -1376 4779 4782 0
49 -4781 4779 4782 0
49 -4781 -1376 4782 0
49 -4782 0
49 -1375 4781 4783 0
49 -1374 4781 4783 0
49 -1374 -1375 4783 0
49 -4783 0
49 -1373 4778 4785 0
49 -4784 4778 4785 0
49 -4784 -1373 4785 0
49 -4785 0
49 -1372 4784 4786 0
49 -1371 4784 4786 0
49 -1371 -1372 4786 0
49 -4786 0
49 1382 1383 1384 1385 1386 1387 1388 1389 1390 1391 1392 0
49 -4789 4787 4790 0
49 -4788 4787 4790 0
49 -4788 -4789 4790 0
49 -4790 0
49 -4792 4789 4793 0
49 -4791 4789 4793 0
49 -4791 -4792 4793 0
49 -4793 0
49 -1392 4792 4794 0
49 -1391 4792 4794 0
49 -1391 -1392 4794 0
49 -4794 0
49 -1390 4791 4796 0
49 -4795 4791 4796 0
49 -4795 -1390 4796 0
49 -4796 0
49 -1389 4795 4797 0
49 -1388 4795 4797 0
49 -1388 -1389 4797 0
49 -4797 0
49 -4799 4788 4800 0
49 -4798 4788 4800 0
49 -4798 -4799 4800 0
49 -4800 0
49 -1387 4799 4802 0
49 -4801 4799 4802 0
49 -4801 -1387 4802 0
49 -4802 0
49 -1386 4801 4803 0
49 -1385 4801 4803 0
49 -1385 -1386 4803 0
49 -4803 0
49 -1384 4798 4805 0
49 -4804 4798 4805 0
49 -4804 -1384 4805 0
49 -4805 0
49 -1383 4804 4806 0
49 -1382 4804 4806 0
49 -1382 -1383 4806 0
49 -4806 0
49 1393 0
49 1394 0
49 1395 1396 1397 1398 1399 1400 1401 1402 1403 1404 1405 1406 1407 1408 0
49 -4809 4807 4810 0
49 -4808 4807 4810 0
49 -4808 -4809 4810 0
49 -4810 0
49 -4812 4809 4813 0
49 -4811 4809 4813 0
49 -4811 -4812 4813 0
49 -4813 0
49 -1408 4812 4815 0
49 -4814 4812 4815 0
49 -4814 -1408 4815 0
49 -4815 0
49 -1407 4814 4816 0
49 -1406 4814 4816 0
49 -1406 -1407 4816 0
49 -4816 0
49 -4818 4811 4819 0
49 -4817 4811 4819 0
49 -4817 -4818 4819 0
49 -4819 0
49 -1405 4818 4820 0
49 -1404 4818 4820 0
49 -1404 -1405 4820 0
49 -4820 0
49 -1403 4817 4821 0
49 -1402 4817 4821 0
49 -1402 -1403 4821 0
49 -4821 0
49 -4823 4808 4824 0
49 -4822 4808 4824 0
49 -4822 -4823 4824 0
49 -4824 0
49 -1401 4823 4826 0
49 -4825 4823 4826 0
49 -4825 -1401 4826 0
49 -4826 0
49 -1400 4825 4827 0
49 -1399 4825 4827 0
49 -1399 -1400 4827 0
49 -4827 0
49 -4829 4822 4830 0
49 -4828 4822 4830 0
49 -4828 -4829 4830 0
49 -4830 0
49 -1398 4829 4831 0
49 -1397 4829 4831 0
49 -1397 -1398 4831 0
49 -4831 0
49 -1396 4828 4832 0
49 -1395 4828 4832 0
49 -1395 -1396 4832 0
49 -4832 0
49 1409 1410 1411 1412 1413 1414 1415 1416 1417 1418 1419 1420 1421 1422 0
49 -4835 4833 4836 0
49 -4834 4833 4836 0
49 -4834 -4835 4836 0
49 -4836 0
49 -4838 4835 4839 0
49 -4837 4835 4839 0
49 -4837 -4838 4839 0
49 -4839 0
49 -1422 4838 4841 0
49 -4840 4838 4841 0
49 -4840 -1422 4841 0
49 -4841 0
49 -1421 4840 4842 0
49 -1420 4840 4842 0
49 -1420 -1421 4842 0
49 -4842 0
49 -4844 4837 4845 0
49 -4843 4837 4845 0
49 -4843 -4844 4845 0
49 -4845 0
49 -1419 4844 4846 0
49 -1418 4844 4846 0
49 -1418 -1419 4846 0
49 -4846 0
49 -1417 4843 4847 0
49 -1416 4843 4847 0
49 -1416 -1417 4847 0
49 -4847 0
49 -4849 4834 4850 0
49 -4848 4834 4850 0
49 -4848 -4849 4850 0
49 -4850 0
49 -1415 4849 4852 0
49 -4851 4849 4852 0
49 -4851 -1415 4852 0
49 -4852 0
49 -1414 4851 4853 0
49 -1413 4851 4853 0
49 -1413 -1414 4853 0
49 -4853 0
49 -4855 4848 4856 0
49 -4854 4848 4856 0
49 -4854 -4855 4856 0
49 -4856 0
49 -1412 4855 4857 0
49 -1411 4855 4857 0
49 -1411 -1412 4857 0
49 -4857 0
49 -1410 4854 4858 0
49 -1409 4854 4858 0
49 -1409 -1410 4858 0
49 -4858 0
49 1423 0
49 1424 0
49 1425 0
49 1426 0
49 1427 0
49 1428 0
49 1429 1430 1431 1432 1433 0
49 -4861 4859 4862 0
49 -4860 4859 4862 0
49 -4860 -4861 4862 0
49 -4862 0
49 -1433 4861 4863 0
49 -1432 4861 4863 0
49 -1432 -1433 4863 0
49 -4863 0
49 -1431 4860 4865 0
49 -4864 4860 4865 0
49 -4864 -1431 4865 0
49 -4865 0
49 -1430 4864 4866 0
49 -1429 4864 4866 0
49 -1429 -1430 4866 0
49 -4866 0
49 1434 1435 1436 1437 1438 0
49 -4869 4867 4870 0
49 -4868 4867 4870 0
49 -4868 -4869 4870 0
49 -4870 0
49 -1438 4869 4871 0
49 -1437 4869 4871 0
49 -1437 -1438 4871 0
49 -4871 0
49 -1436 4868 4873 0
49 -4872 4868 4873 0
49 -4872 -1436 4873 0
49 -4873 0
49 -1435 4872 4874 0
49 -1434 4872 4874 0
49 -1434 -1435 4874 0
49 -4874 0
49 1439 0
49 1440 0
49 1441 0
49 1442 0
49 1443 1444 1445 1446 1447 1448 0
49 -4877 4875 4878 0
49 -4876 4875 4878 0
49 -4876 -4877 4878 0
49 -4878 0
49 -1448 4877 4880 0
49 -4879 4877 4880 0
49 -4879 -1448 4880 0
49 -4880 0
49 -1447 4879 4881 0
49 -1446 4879 4881 0
49 -1446 -1447 4881 0
49 -4881 0
49 -1445 4876 4883 0
49 -4882 4876 4883 0
49 -4882 -1445 4883 0
49 -4883 0
49 -1444 4882 4884 0
49 -1443 4882 4884 0
49 -1443 -1444 4884 0
49 -4884 0
49 1449 1450 1451 1452 1453 1454 0
49 -4887 4885 4888 0
49 -4886 4885 4888 0
49 -4886 -4887 4888 0
49 -4888 0
49 -1454 4887 4890 0
49 -4889 4887 4890 0
49 -4889 -1454 4890 0
49 -4890 0
49 -1453 4889 4891 0
49 -1452 4889 4891 0
49 -1452 -1453 4891 0
49 -4891 0
49 -1451 4886 4893 0
49 -4892 4886 4893 0
49 -4892 -1451 4893 0
49 -4893 0
49 -1450 4892 4894 0
49 -1449 4892 4894 0
49 -1449 -1450 4894 0
49 -4894 0
49 1455 1456 1457 1458 1459 1460 1461 0
49 -4897 4895 4898 0
49 -4896 4895 4898 0
49 -4896 -4897 4898 0
49 -4898 0
49 -1461 4897 4900 0
49 -4899 4897 4900 0
49 -4899 -1461 4900 0
49 -4900 0
49 -1460 4899 4901 0
49 -1459 4899 4901 0
49 -1459 -1460 4901 0
49 -4901 0
49 -4903 4896 4904 0
49 -4902 4896 4904 0
49 -4902 -4903 4904 0
49 -4904 0
49 -1458 4903 4905 0
49 -1457 4903 4905 0
49 -1457 -1458 4905 0
49 -4905 0
49 -1456 4902 4906 0
49 -1455 4902 4906 0
49 -1455 -1456 4906 0
49 -4906 0
49 1462 1463 1464 1465 1466 1467 1468 0
49 -4909 4907 4910 0
49 -4908 4907 4910 0
49 -4908 -4909 4910 0
49 -4910 0
49 -1468 4909 4912 0
49 -4911 4909 4912 0
49 -4911 -1468 4912 0
49 -4912 0
49 -1467 4911 4913 0
49 -1466 4911 4913 0
49 -1466 -1467 4913 0
49 -4913 0
49 -4915 4908 4916 0
49 -4914 4908 4916 0
49 -4914 -4915 4916 0
49 -4916 0
49 -1465 4915 4917 0
49 -1464 4915 4917 0
49 -1464 -1465 4917 0
49 -4917 0
49 -1463 4914 4918 0
49 -1462 4914 4918 0
49 -1462 -1463 4918 0
49 -4918 0
49 1469 0
49 1470 0
49 1471 0
49 1472 0
49 1473 1474 1475 1476 1477 1478 1479 1480 0
49 -4921 4919 4922 0
49 -4920 4919 4922 0
49 -4920 -4921 4922 0
49 -4922 0
49 -4924 4921 4925 0
49 -4923 4921 4925 0
49 -4923 -4924 4925 0
49 -4925 0
49 -1480 4924 4926 0
49 -1479 4924 4926 0
49 -1479 -1480 4926 0
49 -4926 0
49 -1478 4923 4927 0
49 -1477 4923 4927 0
49 -1477 -1478 4927 0
49 -4927 0
49 -4929 4920 4930 0
49 -4928 4920 4930 0
49 -4928 -4929 4930 0
49 -4930 0
49 -1476 4929 4931 0
49 -1475 4929 4931 0
49 -1475 -1476 4931 0
49 -4931 0
49 -1474 4928 4932 0
49 -1473 4928 4932 0
49 -1473 -1474 4932 0
49 -4932 0
49 1481 1482 1483 1484 1485 1486 1487 1488 0
49 -4935 4933 4936 0
49 -4934 4933 4936 0
49 -4934 -4935 4936 0
49 -4936 0
49 -4938 4935 4939 0
49 -4937 4935 4939 0
49 -4937 -4938 4939 0
49 -4939 0
49 -1488 4938 4940 0
49 -1487 4938 4940 0
49 -1487 -1488 4940 0
49 -4940 0
49 -1486 4937 4941 0
49 -1485 4937 4941 0
49 -1485 -1486 4941 0
49 -4941 0
49 -4943 4934 4944 0
49 -4942 4934 4944 0
49 -4942 -4943 4944 0
49 -4944 0
49 -1484 4943 4945 0
49 -1483 4943 4945 0
49 -1483 -1484 4945 0
49 -4945 0
49 -1482 4942 4946 0
49 -1481 4942 4946 0
49 -1481 -1482 4946 0
49 -4946 0
49 1489 1490 1491 1492 1493 1494 1495 1496 0
49 -4949 4947 4950 0
49 -4948 4947 4950 0
49 -4948 -4949 4950 0
49 -4950 0
49 -4952 4949 4953 0
49 -4951 4949 4953 0
49 -4951 -4952 4953 0
49 -4953 0
49 -1496 4952 4954 0
49 -1495 4952 4954 0
49 -1495 -1496 4954 0
49 -4954 0
49 -1494 4951 4955 0
49 -1493 4951 4955 0
49 -1493 -1494 4955 0
49 -4955 0
49 -4957 4948 4958 0
49 -4956 4948 4958 0
49 -4956 -4957 4958 0
49 -4958 0
49 -1492 4957 4959 0
49 -1491 4957 4959 0
49 -1491 -1492 4959 0
49 -4959 0
49 -1490 4956 4960 0
49 -1489 4956 4960 0
49 -1489 -1490 4960 0
49 -4960 0
49 1497 1498 1499 1500 1501 1502 1503 1504 0
49 -4963 4961 4964 0
49 -4962 4961 4964 0
49 -4962 -4963 4964 0
49 -4964 0
49 -4966 4963 4967 0
49 -4965 4963 4967 0
49 -4965 -4966 4967 0
49 -4967 0
49 -1504 4966 4968 0
49 -1503 4966 4968 0
49 -1503 -1504 4968 0
49 -4968 0
49 -1502 4965 4969 0
49 -1501 4965 4969 0
49 -1501 -1502 4969 0
49 -4969 0
49 -4971 4962 4972 0
49 -4970 4962 4972 0
49 -4970 -4971 4972 0
49 -4972 0
49 -1500 4971 4973 0
49 -1499 4971 4973 0
49 -1499 -1500 4973 0
49 -4973 0
49 -1498 4970 4974 0
49 -1497 4970 4974 0
49 -1497 -1498 4974 0
49 -4974 0
49 1505 0
49 1506 0
49 1507 1508 1509 1510 1511 1512 1513 1514 1515 1516 0
49 -4977 4975 4978 0
49 -4976 4975 4978 0
49 -4976 -4977 4978 0
49 -4978 0
49 -4980 4977 4981 0
49 -4979 4977 4981 0
49 -4979 -4980 4981 0
49 -4981 0
49 -1516 4980 4982 0
49 -1515 4980 4982 0
49 -1515 -1516 4982 0
49 -4982 0
49 -1514 4979 4984 0
49 -4983 4979 4984 0
49 -4983 -1514 4984 0
49 -4984 0
49 -1513 4983 4985 0
49 -1512 4983 4985 0
49 -1512 -1513 4985 0
49 -4985 0
49 -4987 4976 4988 0
49 -4986 4976 4988 0
49 -4986 -4987 4988 0
49 -4988 0
49 -1511 4987 4989 0
49 -1510 4987 4989 0
49 -1510 -1511 4989 0
49 -4989 0
49 -1509 4986 4991 0
49 -4990 4986 4991 0
49 -4990 -1509 4991 0
49 -4991 0
49 -1508 4990 4992 0
49 -1507 4990 4992 0
49 -1507 -1508 4992 0
49 -4992 0
49 1517 1518 1519 1520 1521 1522 1523 1524 1525 1526 0
49 -4995 4993 4996 0
49 -4994 4993 4996 0
49 -4994 -4995 4996 0
49 -4996 0
49 -4998 4995 4999 0
49 -4997 4995 4999 0
49 -4997 -4998 4999 0
49 -4999 0
49 -1526 4998 5000 0
49 -1525 4998 5000 0
49 -1525 -1526 5000 0
49 -5000 0
49 -1524 4997 5002 0
49 -5001 4997 5002 0
49 -5001 -1524 5002 0
49 -5002 0
49 -1523 5001 5003 0
49 -1522 5001 5003 0
49 -1522 -1523 5003 0
49 -5003 0
49 -5005 4994 5006 0
49 -5004 4994 5006 0
49 -5004 -5005 5006 0
49 -5006 0
49 -1521 5005 5007 0
49 -1520 5005 5007 0
49 -1520 -1521 5007 0
49 -5007 0
49 -1519 5004 5009 0
49 -5008 5004 5009 0
49 -5008 -1519 5009 0
49 -5009 0
49 -1518 5008 5010 0
49 -1517 5008 5010 0
49 -1517 -1518 5010 0
49 -5010 0
49 1527 1528 1529 1530 1531 1532 1533 1534 1535 1536 1537 1538 1539 1540 1541 1542 1543 1544 1545 1546 0
49 -5013 5011 5014 0
49 -5012 5011 5014 0
49 -5012 -5013 5014 0
49 -5014 0
49 -5016 5013 5017 0
49 -5015 5013 5017 0
49 -5015 -5016 5017 0
49 -5017 0
49 -5019 5016 5020 0
49 -5018 5016 5020 0
49 -5018 -5019 5020 0
49 -5020 0
49 -1546 5019 5021 0
49 -1545 5019 5021 0
49 -1545 -1546 5021 0
49 -5021 0
49 -1544 5018 5023 0
49 -5022 5018 5023 0
49 -5022 -1544 5023 0
49 -5023 0
49 -1543 5022 5024 0
49 -1542 5022 5024 0
49 -1542 -1543 5024 0
49 -5024 0
49 -5026 5015 5027 0
49 -5025 5015 5027 0
49 -5025 -5026 5027 0
49 -5027 0
49 -1541 5026 5028 0
49 -1540 5026 5028 0
49 -1540 -1541 5028 0
49 -5028 0
49 -1539 5025 5030 0
49 -5029 5025 5030 0
49 -5029 -1539 5030 0
49 -5030 0
49 -1538 5029 5031 0
49 -1537 5029 5031 0
49 -1537 -1538 5031 0
49 -5031 0
49 -5033 5012 5034 0
49 -5032 5012 5034 0
49 -5032 -5033 5034 0
49 -5034 0
49 -5036 5033 5037 0
49 -5035 5033 5037 0
49 -5035 -5036 5037 0
49 -5037 0
49 -1536 5036 5038 0
49 -1535 5036 5038 0
49 -1535 -1536 5038 0
49 -5038 0
49 -1534 5035 5040 0
49 -5039 5035 5040 0
49 -5039 -1534 5040 0
49 -5040 0
49 -1533 5039 5041 0
49 -1532 5039 5041 0
49 -1532 -1533 5041 0
49 -5041 0
49 -5043 5032 5044 0
49 -5042 5032 5044 0
49 -5042 -5043 5044 0
49 -5044 0
49 -1531 5043 5045 0
49 -1530 5043 5045 0
49 -1530 -1531 5045 0
49 -5045 0
49 -1529 5042 5047 0
49 -5046 5042 5047 0
49 -5046 -1529 5047 0
49 -5047 0
49 -1528 5046 5048 0
49 -1527 5046 5048 0
49 -1527 -1528 5048 0
49 -5048 0
49 1547 1548 1549 1550 1551 1552 1553 1554 1555 1556 1557 1558 1559 1560 1561 1562 1563 1564 1565 1566 0
49 -5051 5049 5052 0
49 -5050 5049 5052 0
49 -5050 -5051 5052 0
49 -5052 0
49 -5054 5051 5055 0
49 -5053 5051 5055 0
49 -5053 -5054 5055 0
49 -5055 0
49 -5057 5054 5058 0
49 -5056 5054 5058 0
49 -5056 -5057 5058 0
49 -5058 0
49 -1566 5057 5059 0
49 -1565 5057 5059 0
49 -1565 -1566 5059 0
49 -5059 0
49 -1564 5056 5061 0
49 -5060 5056 5061 0
49 -5060 -1564 5061 0
49 -5061 0
49 -1563 5060 5062 0
49 -1562 5060 5062 0
49 -1562 -1563 5062 0
49 -5062 0
49 -5064 5053 5065 0
49 -5063 5053 5065 0
49 -5063 -5064 5065 0
49 -5065 0
49 -1561 5064 5066 0
49 -1560 5064 5066 0
49 -1560 -1561 5066 0
49 -5066 0
49 -1559 5063 5068 0
49 -5067 5063 5068 0
49 -5067 -1559 5068 0
49 -5068 0
49 -1558 5067 5069 0
49 -1557 5067 5069 0
49 -1557 -1558 5069 0
49 -5069 0
49 -5071 5050 5072 0
49 -5070 5050 5072 0
49 -5070 -5071 5072 0
49 -5072 0
49 -5074 5071 5075 0
49 -5073 5071 5075 0
49 -5073 -5074 5075 0
49 -5075 0
49 -1556 5074 5076 0
49 -1555 5074 5076 0
49 -1555 -1556 5076 0
49 -5076 0
49 -1554 5073 5078 0
49 -5077 5073 5078 0
49 -5077 -1554 5078 0
49 -5078 0
49 -1553 5077 5079 0
49 -1552 5077 5079 0
49 -1552 -1553 5079 0
49 -5079 0
49 -5081 5070 5082 0
49 -5080 5070 5082 0
49 -5080 -5081 5082 0
49 -5082 0
49 -1551 5081 5083 0
49 -1550 5081 5083 0
49 -1550 -1551 5083 0
49 -5083 0
49 -1549 5080 5085 0
49 -5084 5080 5085 0
49 -5084 -1549 5085 0
49 -5085 0
49 -1548 5084 5086 0
49 -1547 5084 5086 0
49 -1547 -1548 5086 0
49 -5086 0
49 1567 1568 1569 1570 1571 1572 1573 1574 0
49 -5089 5087 5090 0
49 -5088 5087 5090 0
49 -5088 -5089 5090 0
49 -5090 0
49 -5092 5089 5093 0
49 -5091 5089 5093 0
49 -5091 -5092 5093 0
49 -5093 0
49 -1574 5092 5094 0
49 -1573 5092 5094 0
49 -1573 -1574 5094 0
49 -5094 0
49 -1572 5091 5095 0
49 -1571 5091 5095 0
49 -1571 -1572 5095 0
49 -5095 0
49 -5097 5088 5098 0
49 -5096 5088 5098 0
49 -5096 -5097 5098 0
49 -5098 0
49 -1570 5097 5099 0
49 -1569 5097 5099 0
49 -1569 -1570 5099 0
49 -5099 0
49 -1568 5096 5100 0
49 -1567 5096 5100 0
49 -1567 -1568 5100 0
49 -5100 0
49 1575 1576 1577 1578 1579 1580 1581 1582 0
49 -5103 5101 5104 0
49 -5102 5101 5104 0
49 -5102 -5103 5104 0
49 -5104 0
49 -5106 5103 5107 0
49 -5105 5103 5107 0
49 -5105 -5106 5107 0
49 -5107 0
49 -1582 5106 5108 0
49 -1581 5106 5108 0
49 -1581 -1582 5108 0
49 -5108 0
49 -1580 5105 5109 0
49 -1579 5105 5109 0
49 -1579 -1580 5109 0
49 -5109 0
49 -5111 5102 5112 0
49 -5110 5102 5112 0
49 -5110 -5111 5112 0
49 -5112 0
49 -1578 5111 5113 0
49 -1577 5111 5113 0
49 -1577 -1578 5113 0
49 -5113 0
49 -1576 5110 5114 0
49 -1575 5110 5114 0
49 -1575 -1576 5114 0
49 -5114 0
49 1583 1584 1585 1586 1587 1588 1589 1590 0
49 -5117 5115 5118 0
49 -5116 5115 5118 0
49 -5116 -5117 5118 0
49 -5118 0
49 -5120 5117 5121 0
49 -5119 5117 5121 0
49 -5119 -5120 5121 0
49 -5121 0
49 -1590 5120 5122 0
49 -1589 5120 5122 0
49 -1589 -1590 5122 0
49 -5122 0
49 -1588 5119 5123 0
49 -1587 5119 5123 0
49 -1587 -1588 5123 0
49 -5123 0
49 -5125 5116 5126 0
49 -5124 5116 5126 0
49 -5124 -5125 5126 0
49 -5126 0
49 -1586 5125 5127 0
49 -1585 5125 5127 0
49 -1585 -1586 5127 0
49 -5127 0
49 -1584 5124 5128 0
49 -1583 5124 5128 0
49 -1583 -1584 5128 0
49 -5128 0
49 1591 1592 1593 1594 1595 1596 1597 1598 0
49 -5131 5129 5132 0
49 -5130 5129 5132 0
49 -5130 -5131 5132 0
49 -5132 0
49 -5134 5131 5135 0
49 -5133 5131 5135 0
49 -5133 -5134 5135 0
49 -5135 0
49 -1598 5134 5136 0
49 -1597 5134 5136 0
49 -1597 -1598 5136 0
49 -5136 0
49 -1596 5133 5137 0
49 -1595 5133 5137 0
49 -1595 -1596 5137 0
49 -5137 0
49 -5139 5130 5140 0
49 -5138 5130 5140 0
49 -5138 -5139 5140 0
49 -5140 0
49 -1594 5139 5141 0
49 -1593 5139 5141 0
49 -1593 -1594 5141 0
49 -5141 0
49 -1592 5138 5142 0
49 -1591 5138 5142 0
49 -1591 -1592 5142 0
49 -5142 0
49 1599 0
49 1600 0
49 1601 1602 1603 1604 1605 1606 0
49 -5145 5143 5146 0
49 -5144 5143 5146 0
49 -5144 -5145 5146 0
49 -5146 0
49 -1606 5145 5148 0
49 -5147 5145 5148 0
49 -5147 -1606 5148 0
49 -5148 0
49 -1605 5147 5149 0
49 -1604 5147 5149 0
49 -1604 -1605 5149 0
49 -5149 0
49 -1603 5144 5151 0
49 -5150 5144 5151 0
49 -5150 -1603 5151 0
49 -5151 0
49 -1602 5150 5152 0
49 -1601 5150 5152 0
49 -1601 -1602 5152 0
49 -5152 0
49 1607 1608 1609 1610 1611 1612 0
49 -5155 5153 5156 0
49 -5154 5153 5156 0
49 -5154 -5155 5156 0
49 -5156 0
49 -1612 5155 5158 0
49 -5157 5155 5158 0
49 -5157 -1612 5158 0
49 -5158 0
49 -1611 5157 5159 0
49 -1610 5157 5159 0
49 -1610 -1611 5159 0
49 -5159 0
49 -1609 5154 5161 0
49 -5160 5154 5161 0
49 -5160 -1609 5161 0
49 -5161 0
49 -1608 5160 5162 0
49 -1607 5160 5162 0
49 -1607 -1608 5162 0
49 -5162 0
49 1613 0
49 1614 0
49 1615 1616 1617 1618 1619 1620 1621 1622 0
49 -5165 5163 5166 0
49 -5164 5163 5166 0
49 -5164 -5165 5166 0
49 -5166 0
49 -5168 5165 5169 0
49 -5167 5165 5169 0
49 -5167 -5168 5169 0
49 -5169 0
49 -1622 5168 5170 0
49 -1621 5168 5170 0
49 -1621 -1622 5170 0
49 -5170 0
49 -1620 5167 5171 0
49 -1619 5167 5171 0
49 -1619 -1620 5171 0
49 -5171 0
49 -5173 5164 5174 0
49 -5172 5164 5174 0
49 -5172 -5173 5174 0
49 -5174 0
49 -1618 5173 5175 0
49 -1617 5173 5175 0
49 -1617 -1618 5175 0
49 -5175 0
49 -1616 5172 5176 0
49 -1615 5172 5176 0
49 -1615 -1616 5176 0
49 -5176 0
49 1623 1624 1625 1626 1627 1628 1629 1630 0
49 -5179 5177 5180 0
49 -5178 5177 5180 0
49 -5178 -5179 5180 0
49 -5180 0
49 -5182 5179 5183 0
49 -5181 5179 5183 0
49 -5181 -5182 5183 0
49 -5183 0
49 -1630 5182 5184 0
49 -1629 5182 5184 0
49 -1629 -1630 5184 0
49 -5184 0
49 -1628 5181 5185 0
49 -1627 5181 5185 0
49 -1627 -1628 5185 0
49 -5185 0
49 -5187 5178 5188 0
49 -5186 5178 5188 0
49 -5186 -5187 5188 0
49 -5188 0
49 -1626 5187 5189 0
49 -1625 5187 5189 0
49 -1625 -1626 5189 0
49 -5189 0
49 -1624 5186 5190 0
49 -1623 5186 5190 0
49 -1623 -1624 5190 0
49 -5190 0
49 1631 0
49 1632 0
49 1633 0
49 1634 0
49 1635 0
49 1636 0
49 1637 0
49 1638 0
49 1639 0
49 1640 0
49 1641 1642 1643 1644 1645 1646 0
49 -5193 5191 5194 0
49 -5192 5191 5194 0
49 -5192 -5193 5194 0
49 -5194 0
49 -1646 5193 5196 0
49 -5195 5193 5196 0
49 -5195 -1646 5196 0
49 -5196 0
49 -1645 5195 5197 0
49 -1644 5195 5197 0
49 -1644 -1645 5197 0
49 -5197 0
49 -1643 5192 5199 0
49 -5198 5192 5199 0
49 -5198 -1643 5199 0
49 -5199 0
49 -1642 5198 5200 0
49 -1641 5198 5200 0
49 -1641 -1642 5200 0
49 -5200 0
49 1647 1648 1649 1650 1651 1652 0
49 -5203 5201 5204 0
49 -5202 5201 5204 0
49 -5202 -5203 5204 0
49 -5204 0
49 -1652 5203 5206 0
49 -5205 5203 5206 0
49 -5205 -1652 5206 0
49 -5206 0
49 -1651 5205 5207 0
49 -1650 5205 5207 0
49 -1650 -1651 5207 0
49 -5207 0
49 -1649 5202 5209 0
49 -5208 5202 5209 0
49 -5208 -1649 5209 0
49 -5209 0
49 -1648 5208 5210 0
49 -1647 5208 5210 0
49 -1647 -1648 5210 0
49 -5210 0
49 1653 0
49 1654 0
49 1655 1656 1657 1658 1659 1660 1661 1662 0
49 -5213 5211 5214 0
49 -5212 5211 5214 0
49 -5212 -5213 5214 0
49 -5214 0
49 -5216 5213 5217 0
49 -5215 5213 5217 0
49 -5215 -5216 5217 0
49 -5217 0
49 -1662 5216 5218 0
49 -1661 5216 5218 0
49 -1661 -1662 5218 0
49 -5218 0
49 -1660 5215 5219 0
49 -1659 5215 5219 0
49 -1659 -1660 5219 0
49 -5219 0
49 -5221 5212 5222 0
49 -5220 5212 5222 0
49 -5220 -5221 5222 0
49 -5222 0
49 -1658 5221 5223 0
49 -1657 5221 5223 0
49 -1657 -1658 5223 0
49 -5223 0
49 -1656 5220 5224 0
49 -1655 5220 5224 0
49 -1655 -1656 5224 0
49 -5224 0
49 1663 1664 1665 1666 1667 1668 1669 1670 0
49 -5227 5225 5228 0
49 -5226 5225 5228 0
49 -5226 -5227 5228 0
49 -5228 0
49 -5230 5227 5231 0
49 -5229 5227 5231 0
49 -5229 -5230 5231 0
49 -5231 0
49 -1670 5230 5232 0
49 -1669 5230 5232 0
49 -1669 -1670 5232 0
49 -5232 0
49 -1668 5229 5233 0
49 -1667 5229 5233 0
49 -1667 -1668 5233 0
49 -5233 0
49 -5235 5226 5236 0
49 -5234 5226 5236 0
49 -5234 -5235 5236 0
49 -5236 0
49 -1666 5235 5237 0
49 -1665 5235 5237 0
49 -1665 -1666 5237 0
49 -5237 0
49 -1664 5234 5238 0
49 -1663 5234 5238 0
49 -1663 -1664 5238 0
49 -5238 0
49 1671 0
49 1672 0
49 1673 1674 0
49 -1673 -1674 0
49 1675 1676 0
49 -1675 -1676 0
49 1677 1678 1679 1680 1681 1682 1683 1684 0
49 -5241 5239 5242 0
49 -5240 5239 5242 0
49 -5240 -5241 5242 0
49 -5242 0
49 -5244 5241 5245 0
49 -5243 5241 5245 0
49 -5243 -5244 5245 0
49 -5245 0
49 -1684 5244 5246 0
49 -1683 5244 5246 0
49 -1683 -1684 5246 0
49 -5246 0
49 -1682 5243 5247 0
49 -1681 5243 5247 0
49 -1681 -1682 5247 0
49 -5247 0
49 -5249 5240 5250 0
49 -5248 5240 5250 0
49 -5248 -5249 5250 0
49 -5250 0
49 -1680 5249 5251 0
49 -1679 5249 5251 0
49 -1679 -1680 5251 0
49 -5251 0
49 -1678 5248 5252 0
49 -1677 5248 5252 0
49 -1677 -1678 5252 0
49 -5252 0
49 1685 1686 1687 1688 1689 1690 1691 1692 0
49 -5255 5253 5256 0
49 -5254 5253 5256 0
49 -5254 -5255 5256 0
49 -5256 0
49 -5258 5255 5259 0
49 -5257 5255 5259 0
49 -5257 -5258 5259 0
49 -5259 0
49 -1692 5258 5260 0
49 -1691 5258 5260 0
49 -1691 -1692 5260 0
49 -5260 0
49 -1690 5257 5261 0
49 -1689 5257 5261 0
49 -1689 -1690 5261 0
49 -5261 0
49 -5263 5254 5264 0
49 -5262 5254 5264 0
49 -5262 -5263 5264 0
49 -5264 0
49 -1688 5263 5265 0
49 -1687 5263 5265 0
49 -1687 -1688 5265 0
49 -5265 0
49 -1686 5262 5266 0
49 -1685 5262 5266 0
49 -1685 -1686 5266 0
49 -5266 0
49 1693 0
49 1694 0
49 1695 0
49 1696 0
49 1697 1698 0
49 -1697 -1698 0
49 1699 1700 0
49 -1699 -1700 0
49 1701 1702 1703 1704 1705 1706 1707 1708 0
49 -5269 5267 5270 0
49 -5268 5267 5270 0
49 -5268 -5269 5270 0
49 -5270 0
49 -5272 5269 5273 0
49 -5271 5269 5273 0
49 -5271 -5272 5273 0
49 -5273 0
49 -1708 5272 5274 0
49 -1707 5272 5274 0
49 -1707 -1708 5274 0
49 -5274 0
49 -1706 5271 5275 0
49 -1705 5271 5275 0
49 -1705 -1706 5275 0
49 -5275 0
49 -5277 5268 5278 0
49 -5276 5268 5278 0
49 -5276 -5277 5278 0
49 -5278 0
49 -1704 5277 5279 0
49 -1703 5277 5279 0
49 -1703 -1704 5279 0
49 -5279 0
49 -1702 5276 5280 0
49 -1701 5276 5280 0
49 -1701 -1702 5280 0
49 -5280 0
49 1709 1710 1711 1712 1713 1714 1715 1716 0
49 -5283 5281 5284 0
49 -5282 5281 5284 0
49 -5282 -5283 5284 0
49 -5284 0
49 -5286 5283 5287 0
49 -5285 5283 5287 0
49 -5285 -5286 5287 0
49 -5287 0
49 -1716 5286 5288 0
49 -1715 5286 5288 0
49 -1715 -1716 5288 0
49 -5288 0
49 -1714 5285 5289 0
49 -1713 5285 5289 0
49 -1713 -1714 5289 0
49 -5289 0
49 -5291 5282 5292 0
49 -5290 5282 5292 0
49 -5290 -5291 5292 0
49 -5292 0
49 -1712 5291 5293 0
49 -1711 5291 5293 0
49 -1711 -1712 5293 0
49 -5293 0
49 -1710 5290 5294 0
49 -1709 5290 5294 0
49 -1709 -1710 5294 0
49 -5294 0
49 1717 0
49 1718 0
49 1719 0
49 1720 0
49 1721 0
49 1722 0
49 1723 0
49 1724 0
49 1725 0
49 1726 0
49 1727 0
49 1728 0
49 1729 1730 1731 1732 1733 1734 1735 1736 0
49 -5297 5295 5298 0
49 -5296 5295 5298 0
49 -5296 -5297 5298 0
49 -5298 0
49 -5300 5297 5301 0
49 -5299 5297 5301 0
49 -5299 -5300 5301 0
49 -5301 0
49 -1736 5300 5302 0
49 -1735 5300 5302 0
49 -1735 -1736 5302 0
49 -5302 0
49 -1734 5299 5303 0
49 -1733 5299 5303 0
49 -1733 -1734 5303 0
49 -5303 0
49 -5305 5296 5306 0
49 -5304 5296 5306 0
49 -5304 -5305 5306 0
49 -5306 0
49 -1732 5305 5307 0
49 -1731 5305 5307 0
49 -1731 -1732 5307 0
49 -5307 0
49 -1730 5304 5308 0
49 -1729 5304 5308 0
49 -1729 -1730 5308 0
49 -5308 0
49 1737 1738 1739 1740 1741 1742 1743 1744 0
49 -5311 5309 5312 0
49 -5310 5309 5312 0
49 -5310 -5311 5312 0
49 -5312 0
49 -5314 5311 5315 0
49 -5313 5311 5315 0
49 -5313 -5314 5315 0
49 -5315 0
49 -1744 5314 5316 0
49 -1743 5314 5316 0
49 -1743 -1744 5316 0
49 -5316 0
49 -1742 5313 5317 0
49 -1741 5313 5317 0
49 -1741 -1742 5317 0
49 -5317 0
49 -5319 5310 5320 0
49 -5318 5310 5320 0
49 -5318 -5319 5320 0
49 -5320 0
49 -1740 5319 5321 0
49 -1739 5319 5321 0
49 -1739 -1740 5321 0
49 -5321 0
49 -1738 5318 5322 0
49 -1737 5318 5322 0
49 -1737 -1738 5322 0
49 -5322 0
49 1745 0
49 1746 0
49 1747 0
49 1748 0
49 1749 1750 1751 1752 1753 1754 1755 1756 0
49 -5325 5323 5326 0
49 -5324 5323 5326 0
49 -5324 -5325 5326 0
49 -5326 0
49 -5328 5325 5329 0
49 -5327 5325 5329 0
49 -5327 -5328 5329 0
49 -5329 0
49 -1756 5328 5330 0
49 -1755 5328 5330 0
49 -1755 -1756 5330 0
49 -5330 0
49 -1754 5327 5331 0
49 -1753 5327 5331 0
49 -1753 -1754 5331 0
49 -5331 0
49 -5333 5324 5334 0
49 -5332 5324 5334 0
49 -5332 -5333 5334 0
49 -5334 0
49 -1752 5333 5335 0
49 -1751 5333 5335 0
49 -1751 -1752 5335 0
49 -5335 0
49 -1750 5332 5336 0
49 -1749 5332 5336 0
49 -1749 -1750 5336 0
49 -5336 0
49 1757 1758 1759 1760 1761 1762 1763 1764 0
49 -5339 5337 5340 0
49 -5338 5337 5340 0
49 -5338 -5339 5340 0
49 -5340 0
49 -5342 5339 5343 0
49 -5341 5339 5343 0
49 -5341 -5342 5343 0
49 -5343 0
49 -1764 5342 5344 0
49 -1763 5342 5344 0
49 -1763 -1764 5344 0
49 -5344 0
49 -1762 5341 5345 0
49 -1761 5341 5345 0
49 -1761 -1762 5345 0
49 -5345 0
49 -5347 5338 5348 0
49 -5346 5338 5348 0
49 -5346 -5347 5348 0
49 -5348 0
49 -1760 5347 5349 0
49 -1759 5347 5349 0
49 -1759 -1760 5349 0
49 -5349 0
49 -1758 5346 5350 0
49 -1757 5346 5350 0
49 -1757 -1758 5350 0
49 -5350 0
49 1765 0
49 1766 0
49 1767 0
49 1768 0
49 1769 1770 0
49 -1769 -1770 0
49 1771 1772 0
49 -1771 -1772 0
49 1773 0
49 1774 0
49 1775 0
49 1776 0
49 1777 1778 1779 1780 1781 1782 1783 1784 1785 0
49 -5353 5351 5354 0
49 -5352 5351 5354 0
49 -5352 -5353 5354 0
49 -5354 0
49 -5356 5353 5357 0
49 -5355 5353 5357 0
49 -5355 -5356 5357 0
49 -5357 0
49 -1785 5356 5358 0
49 -1784 5356 5358 0
49 -1784 -1785 5358 0
49 -5358 0
49 -1783 5355 5359 0
49 -1782 5355 5359 0
49 -1782 -1783 5359 0
49 -5359 0
49 -5361 5352 5362 0
49 -5360 5352 5362 0
49 -5360 -5361 5362 0
49 -5362 0
49 -1781 5361 5363 0
49 -1780 5361 5363 0
49 -1780 -1781 5363 0
49 -5363 0
49 -1779 5360 5365 0
49 -5364 5360 5365 0
49 -5364 -1779 5365 0
49 -5365 0
49 -1778 5364 5366 0
49 -1777 5364 5366 0
49 -1777 -1778 5366 0
49 -5366 0
49 1786 1787 1788 1789 1790 1791 1792 1793 1794 0
49 -5369 5367 5370 0
49 -5368 5367 5370 0
49 -5368 -5369 5370 0
49 -5370 0
49 -5372 5369 5373 0
49 -5371 5369 5373 0
49 -5371 -5372 5373 0
49 -5373 0
49 -1794 5372 5374 0
49 -1793 5372 5374 0
49 -1793 -1794 5374 0
49 -5374 0
49 -1792 5371 5375 0
49 -1791 5371 5375 0
49 -1791 -1792 5375 0
49 -5375 0
49 -5377 5368 5378 0
49 -5376 5368 5378 0
49 -5376 -5377 5378 0
49 -5378 0
49 -1790 5377 5379 0
49 -1789 5377 5379 0
49 -1789 -1790 5379 0
49 -5379 0
49 -1788 5376 5381 0
49 -5380 5376 5381 0
49 -5380 -1788 5381 0
49 -5381 0
49 -1787 5380 5382 0
49 -1786 5380 5382 0
49 -1786 -1787 5382 0
49 -5382 0
49 1795 1796 1797 1798 1799 0
49 -5385 5383 5386 0
49 -5384 5383 5386 0
49 -5384 -5385 5386 0
49 -5386 0
49 -1799 5385 5387 0
49 -1798 5385 5387 0
49 -1798 -1799 5387 0
49 -5387 0
49 -1797 5384 5389 0
49 -5388 5384 5389 0
49 -5388 -1797 5389 0
49 -5389 0
49 -1796 5388 5390 0
49 -1795 5388 5390 0
49 -1795 -1796 5390 0
49 -5390 0
49 1800 1801 1802 1803 1804 0
49 -5393 5391 5394 0
49 -5392 5391 5394 0
49 -5392 -5393 5394 0
49 -5394 0
49 -1804 5393 5395 0
49 -1803 5393 5395 0
49 -1803 -1804 5395 0
49 -5395 0
49 -1802 5392 5397 0
49 -5396 5392 5397 0
49 -5396 -1802 5397 0
49 -5397 0
49 -1801 5396 5398 0
49 -1800 5396 5398 0
49 -1800 -1801 5398 0
49 -5398 0
49 1805 1806 0
49 -1805 -1806 0
49 1807 1808 0
49 -1807 -1808 0
49 1809 0
49 1810 0
49 1811 0
49 1812 0
49 1813 0
49 1814 0
49 1815 0
49 1816 0
49 1817 1818 1819 1820 1821 1822 1823 1824 1825 1826 1827 0
49 -5401 5399 5402 0
49 -5400 5399 5402 0
49 -5400 -5401 5402 0
49 -5402 0
49 -5404 5401 5405 0
49 -5403 5401 5405 0
49 -5403 -5404 5405 0
49 -5405 0
49 -1827 5404 5406 0
49 -1826 5404 5406 0
49 -1826 -1827 5406 0
49 -5406 0
49 -1825 5403 5408 0
49 -5407 5403 5408 0
49 -5407 -1825 5408 0
49 -5408 0
49 -1824 5407 5409 0
49 -1823 5407 5409 0
49 -1823 -1824 5409 0
49 -5409 0
49 -5411 5400 5412 0
49 -5410 5400 5412 0
49 -5410 -5411 5412 0
49 -5412 0
49 -1822 5411 5414 0
49 -5413 5411 5414 0
49 -5413 -1822 5414 0
49 -5414 0
49 -1821 5413 5415 0
49 -1820 5413 5415 0
49 -1820 -1821 5415 0
49 -5415 0
49 -1819 5410 5417 0
49 -5416 5410 5417 0
49 -5416 -1819 5417 0
49 -5417 0
49 -1818 5416 5418 0
49 -1817 5416 5418 0
49 -1817 -1818 5418 0
49 -5418 0
49 1828 1829 1830 1831 1832 1833 1834 1835 1836 1837 1838 0
49 -5421 5419 5422 0
49 -5420 5419 5422 0
49 -5420 -5421 5422 0
49 -5422 0
49 -5424 5421 5425 0
49 -5423 5421 5425 0
49 -5423 -5424 5425 0
49 -5425 0
49 -1838 5424 5426 0
49 -1837 5424 5426 0
49 -1837 -1838 5426 0
49 -5426 0
49 -1836 5423 5428 0
49 -5427 5423 5428 0
49 -5427 -1836 5428 0
49 -5428 0
49 -1835 5427 5429 0
49 -1834 5427 5429 0
49 -1834 -1835 5429 0
49 -5429 0
49 -5431 5420 5432 0
49 -5430 5420 5432 0
49 -5430 -5431 5432 0
49 -5432 0
49 -1833 5431 5434 0
49 -5433 5431 5434 0
49 -5433 -1833 5434 0
49 -5434 0
49 -1832 5433 5435 0
49 -1831 5433 5435 0
49 -1831 -1832 5435 0
49 -5435 0
49 -1830 5430 5437 0
49 -5436 5430 5437 0
49 -5436 -1830 5437 0
49 -5437 0
49 -1829 5436 5438 0
49 -1828 5436 5438 0
49 -1828 -1829 5438 0
49 -5438 0
49 1839 0
49 1840 0
49 1841 0
49 1842 0
49 1843 0
49 1844 0
49 1845 0
49 1846 0
49 1847 0
49 1848 0
49 1849 1850 1851 1852 1853 1854 1855 1856 0
49 -5441 5439 5442 0
49 -5440 5439 5442 0
49 -5440 -5441 5442 0
49 -5442 0
49 -5444 5441 5445 0
49 -5443 5441 5445 0
49 -5443 -5444 5445 0
49 -5445 0
49 -1856 5444 5446 0
49 -1855 5444 5446 0
49 -1855 -1856 5446 0
49 -5446 0
49 -1854 5443 5447 0
49 -1853 5443 5447 0
49 -1853 -1854 5447 0
49 -5447 0
49 -5449 5440 5450 0
49 -5448 5440 5450 0
49 -5448 -5449 5450 0
49 -5450 0
49 -1852 5449 5451 0
49 -1851 5449 5451 0
49 -1851 -1852 5451 0
49 -5451 0
49 -1850 5448 5452 0
49 -1849 5448 5452 0
49 -1849 -1850 5452 0
49 -5452 0
49 1857 1858 1859 1860 1861 1862 1863 1864 0
49 -5455 5453 5456 0
49 -5454 5453 5456 0
49 -5454 -5455 5456 0
49 -5456 0
49 -5458 5455 5459 0
49 -5457 5455 5459 0
49 -5457 -5458 5459 0
49 -5459 0
49 -1864 5458 5460 0
49 -1863 5458 5460 0
49 -1863 -1864 5460 0
49 -5460 0
49 -1862 5457 5461 0
49 -1861 5457 5461 0
49 -1861 -1862 5461 0
49 -5461 0
49 -5463 5454 5464 0
49 -5462 5454 5464 0
49 -5462 -5463 5464 0
49 -5464 0
49 -1860 5463 5465 0
49 -1859 5463 5465 0
49 -1859 -1860 5465 0
49 -5465 0
49 -1858 5462 5466 0
49 -1857 5462 5466 0
49 -1857 -1858 5466 0
49 -5466 0
49 1865 0
49 1866 0
49 1867 1868 1869 0
49 -1869 5467 5469 0
49 -5468 5467 5469 0
49 -5468 -1869 5469 0
49 -5469 0
49 -1868 5468 5470 0
49 -1867 5468 5470 0
49 -1867 -1868 5470 0
49 -5470 0
49 1870 1871 1872 0
49 -1872 5471 5473 0
49 -5472 5471 5473 0
49 -5472 -1872 5473 0
49 -5473 0
49 -1871 5472 5474 0
49 -1870 5472 5474 0
49 -1870 -1871 5474 0
49 -5474 0
49 1873 0
49 1874 0
49 1875 0
49 1876 0
49 1877 0
49 1878 0
49 1879 0
49 1880 0
49 1881 1882 1883 0
49 -1883 5475 5477 0
49 -5476 5475 5477 0
49 -5476 -1883 5477 0
49 -5477 0
49 -1882 5476 5478 0
49 -1881 5476 5478 0
49 -1881 -1882 5478 0
49 -5478 0
49 1884 1885 1886 0
49 -1886 5479 5481 0
49 -5480 5479 5481 0
49 -5480 -1886 5481 0
49 -5481 0
49 -1885 5480 5482 0
49 -1884 5480 5482 0
49 -1884 -1885 5482 0
49 -5482 0
49 1887 0
49 1888 0
49 1889 0
49 1890 0
49 1891 0
49 1892 0
49 1893 0
49 1894 0
49 1895 0
49 1896 0
49 1897 0
49 1898 0
49 1899 0
49 1900 0
49 1901 0
49 1902 0
49 1903 0
49 1904 0
49 1905 0
49 1906 0
49 1907 0
49 1908 0
49 1909 1910 1911 1912 1913 1914 1915 1916 1917 1918 1919 0
49 -5485 5483 5486 0
49 -5484 5483 5486 0
49 -5484 -5485 5486 0
49 -5486 0
49 -5488 5485 5489 0
49 -5487 5485 5489 0
49 -5487 -5488 5489 0
49 -5489 0
49 -1919 5488 5490 0
49 -1918 5488 5490 0
49 -1918 -1919 5490 0
49 -5490 0
49 -1917 5487 5492 0
49 -5491 5487 5492 0
49 -5491 -1917 5492 0
49 -5492 0
49 -1916 5491 5493 0
49 -1915 5491 5493 0
49 -1915 -1916 5493 0
49 -5493 0
49 -5495 5484 5496 0
49 -5494 5484 5496 0
49 -5494 -5495 5496 0
49 -5496 0
49 -1914 5495 5498 0
49 -5497 5495 5498 0
49 -5497 -1914 5498 0
49 -5498 0
49 -1913 5497 5499 0
49 -1912 5497 5499 0
49 -1912 -1913 5499 0
49 -5499 0
49 -1911 5494 5501 0
49 -5500 5494 5501 0
49 -5500 -1911 5501 0
49 -5501 0
49 -1910 5500 5502 0
49 -1909 5500 5502 0
49 -1909 -1910 5502 0
49 -5502 0
49 1920 1921 1922 1923 1924 1925 1926 1927 1928 1929 1930 0
49 -5505 5503 5506 0
49 -5504 5503 5506 0
49 -5504 -5505 5506 0
49 -5506 0
49 -5508 5505 5509 0
49 -5507 5505 5509 0
49 -5507 -5508 5509 0
49 -5509 0
49 -1930 5508 5510 0
49 -1929 5508 5510 0
49 -1929 -1930 5510 0
49 -5510 0
49 -1928 5507 5512 0
49 -5511 5507 5512 0
49 -5511 -1928 5512 0
49 -5512 0
49 -1927 5511 5513 0
49 -1926 5511 5513 0
49 -1926 -1927 5513 0
49 -5513 0
49 -5515 5504 5516 0
49 -5514 5504 5516 0
49 -5514 -5515 5516 0
49 -5516 0
49 -1925 5515 5518 0
49 -5517 5515 5518 0
49 -5517 -1925 5518 0
49 -5518 0
49 -1924 5517 5519 0
49 -1923 5517 5519 0
49 -1923 -1924 5519 0
49 -5519 0
49 -1922 5514 5521 0
49 -5520 5514 5521 0
49 -5520 -1922 5521 0
49 -5521 0
49 -1921 5520 5522 0
49 -1920 5520 5522 0
49 -1920 -1921 5522 0
49 -5522 0
49 1931 0
49 1932 0
49 1933 0
49 1934 0
49 1935 0
49 1936 0
49 1937 0
49 1938 0
49 1939 0
49 1940 0
49 1941 0
49 1942 0
49 1943 1944 1945 1946 1947 0
49 -5525 5523 5526 0
49 -5524 5523 5526 0
49 -5524 -5525 5526 0
49 -5526 0
49 -1947 5525 5527 0
49 -1946 5525 5527 0
49 -1946 -1947 5527 0
49 -5527 0
49 -1945 5524 5529 0
49 -5528 5524 5529 0
49 -5528 -1945 5529 0
49 -5529 0
49 -1944 5528 5530 0
49 -1943 5528 5530 0
49 -1943 -1944 5530 0
49 -5530 0
49 1948 1949 1950 1951 1952 0
49 -5533 5531 5534 0
49 -5532 5531 5534 0
49 -5532 -5533 5534 0
49 -5534 0
49 -1952 5533 5535 0
49 -1951 5533 5535 0
49 -1951 -1952 5535 0
49 -5535 0
49 -1950 5532 5537 0
49 -5536 5532 5537 0
49 -5536 -1950 5537 0
49 -5537 0
49 -1949 5536 5538 0
49 -1948 5536 5538 0
49 -1948 -1949 5538 0
49 -5538 0
49 1953 1954 1955 1956 1957 1958 1959 1960 0
49 -5541 5539 5542 0
49 -5540 5539 5542 0
49 -5540 -5541 5542 0
49 -5542 0
49 -5544 5541 5545 0
49 -5543 5541 5545 0
49 -5543 -5544 5545 0
49 -5545 0
49 -1960 5544 5546 0
49 -1959 5544 5546 0
49 -1959 -1960 5546 0
49 -5546 0
49 -1958 5543 5547 0
49 -1957 5543 5547 0
49 -1957 -1958 5547 0
49 -5547 0
49 -5549 5540 5550 0
49 -5548 5540 5550 0
49 -5548 -5549 5550 0
49 -5550 0
49 -1956 5549 5551 0
49 -1955 5549 5551 0
49 -1955 -1956 5551 0
49 -5551 0
49 -1954 5548 5552 0
49 -1953 5548 5552 0
49 -1953 -1954 5552 0
49 -5552 0
49 1961 1962 1963 1964 1965 1966 1967 1968 0
49 -5555 5553 5556 0
49 -5554 5553 5556 0
49 -5554 -5555 5556 0
49 -5556 0
49 -5558 5555 5559 0
49 -5557 5555 5559 0
49 -5557 -5558 5559 0
49 -5559 0
49 -1968 5558 5560 0
49 -1967 5558 5560 0
49 -1967 -1968 5560 0
49 -5560 0
49 -1966 5557 5561 0
49 -1965 5557 5561 0
49 -1965 -1966 5561 0
49 -5561 0
49 -5563 5554 5564 0
49 -5562 5554 5564 0
49 -5562 -5563 5564 0
49 -5564 0
49 -1964 5563 5565 0
49 -1963 5563 5565 0
49 -1963 -1964 5565 0
49 -5565 0
49 -1962 5562 5566 0
49 -1961 5562 5566 0
49 -1961 -1962 5566 0
49 -5566 0
49 1969 1970 1971 0
49 -1971 5567 5569 0
49 -5568 5567 5569 0
49 -5568 -1971 5569 0
49 -5569 0
49 -1970 5568 5570 0
49 -1969 5568 5570 0
49 -1969 -1970 5570 0
49 -5570 0
49 1972 1973 1974 0
49 -1974 5571 5573 0
49 -5572 5571 5573 0
49 -5572 -1974 5573 0
49 -5573 0
49 -1973 5572 5574 0
49 -1972 5572 5574 0
49 -1972 -1973 5574 0
49 -5574 0
49 1975 0
49 1976 0
49 1977 0
49 1978 0
49 1979 1980 1981 1982 1983 1984 1985 1986 0
49 -5577 5575 5578 0
49 -5576 5575 5578 0
49 -5576 -5577 5578 0
49 -5578 0
49 -5580 5577 5581 0
49 -5579 5577 5581 0
49 -5579 -5580 5581 0
49 -5581 0
49 -1986 5580 5582 0
49 -1985 5580 5582 0
49 -1985 -1986 5582 0
49 -5582 0
49 -1984 5579 5583 0
49 -1983 5579 5583 0
49 -1983 -1984 5583 0
49 -5583 0
49 -5585 5576 5586 0
49 -5584 5576 5586 0
49 -5584 -5585 5586 0
49 -5586 0
49 -1982 5585 5587 0
49 -1981 5585 5587 0
49 -1981 -1982 5587 0
49 -5587 0
49 -1980 5584 5588 0
49 -1979 5584 5588 0
49 -1979 -1980 5588 0
49 -5588 0
49 1987 1988 1989 1990 1991 1992 1993 1994 0
49 -5591 5589 5592 0
49 -5590 5589 5592 0
49 -5590 -5591 5592 0
49 -5592 0
49 -5594 5591 5595 0
49 -5593 5591 5595 0
49 -5593 -5594 5595 0
49 -5595 0
49 -1994 5594 5596 0
49 -1993 5594 5596 0
49 -1993 -1994 5596 0
49 -5596 0
49 -1992 5593 5597 0
49 -1991 5593 5597 0
49 -1991 -1992 5597 0
49 -5597 0
49 -5599 5590 5600 0
49 -5598 5590 5600 0
49 -5598 -5599 5600 0
49 -5600 0
49 -1990 5599 5601 0
49 -1989 5599 5601 0
49 -1989 -1990 5601 0
49 -5601 0
49 -1988 5598 5602 0
49 -1987 5598 5602 0
49 -1987 -1988 5602 0
49 -5602 0
49 1995 0
49 1996 0
49 1997 1998 1999 2000 2001 2002 2003 2004 2005 2006 2007 2008 2009 2010 0
49 -5605 5603 5606 0
49 -5604 5603 5606 0
49 -5604 -5605 5606 0
49 -5606 0
49 -5608 5605 5609 0
49 -5607 5605 5609 0
49 -5607 -5608 5609 0
49 -5609 0
49 -2010 5608 5611 0
49 -5610 5608 5611 0
49 -5610 -2010 5611 0
49 -5611 0
49 -2009 5610 5612 0
49 -2008 5610 5612 0
49 -2008 -2009 5612 0
49 -5612 0
49 -5614 5607 5615 0
49 -5613 5607 5615 0
49 -5613 -5614 5615 0
49 -5615 0
49 -2007 5614 5616 0
49 -2006 5614 5616 0
49 -2006 -2007 5616 0
49 -5616 0
49 -2005 5613 5617 0
49 -2004 5613 5617 0
49 -2004 -2005 5617 0
49 -5617 0
49 -5619 5604 5620 0
49 -5618 5604 5620 0
49 -5618 -5619 5620 0
49 -5620 0
49 -2003 5619 5622 0
49 -5621 5619 5622 0
49 -5621 -2003 5622 0
49 -5622 0
49 -2002 5621 5623 0
49 -2001 5621 5623 0
49 -2001 -2002 5623 0
49 -5623 0
49 -5625 5618 5626 0
49 -5624 5618 5626 0
49 -5624 -5625 5626 0
49 -5626 0
49 -2000 5625 5627 0
49 -1999 5625 5627 0
49 -1999 -2000 5627 0
49 -5627 0
49 -1998 5624 5628 0
49 -1997 5624 5628 0
49 -1997 -1998 5628 0
49 -5628 0
49 2011 2012 2013 2014 2015 2016 2017 2018 2019 2020 2021 2022 2023 2024 0
49 -5631 5629 5632 0
49 -5630 5629 5632 0
49 -5630 -5631 5632 0
49 -5632 0
49 -5634 5631 5635 0
49 -5633 5631 5635 0
49 -5633 -5634 5635 0
49 -5635 0
49 -2024 5634 5637 0
49 -5636 5634 5637 0
49 -5636 -2024 5637 0
49 -5637 0
49 -2023 5636 5638 0
49 -2022 5636 5638 0
49 -2022 -2023 5638 0
49 -5638 0
49 -5640 5633 5641 0
49 -5639 5633 5641 0
49 -5639 -5640 5641 0
49 -5641 0
49 -2021 5640 5642 0
49 -2020 5640 5642 0
49 -2020 -2021 5642 0
49 -5642 0
49 -2019 5639 5643 0
49 -2018 5639 5643 0
49 -2018 -2019 5643 0
49 -5643 0
49 -5645 5630 5646 0
49 -5644 5630 5646 0
49 -5644 -5645 5646 0
49 -5646 0
49 -2017 5645 5648 0
49 -5647 5645 5648 0
49 -5647 -2017 5648 0
49 -5648 0
49 -2016 5647 5649 0
49 -2015 5647 5649 0
49 -2015 -2016 5649 0
49 -5649 0
49 -5651 5644 5652 0
49 -5650 5644 5652 0
49 -5650 -5651 5652 0
49 -5652 0
49 -2014 5651 5653 0
49 -2013 5651 5653 0
49 -2013 -2014 5653 0
49 -5653 0
49 -2012 5650 5654 0
49 -2011 5650 5654 0
49 -2011 -2012 5654 0
49 -5654 0
49 2025 0
49 2026 0
49 2027 2028 2029 2030 2031 2032 2033 2034 0
49 -5657 5655 5658 0
49 -5656 5655 5658 0
49 -5656 -5657 5658 0
49 -5658 0
49 -5660 5657 5661 0
49 -5659 5657 5661 0
49 -5659 -5660 5661 0
49 -5661 0
49 -2034 5660 5662 0
49 -2033 5660 5662 0
49 -2033 -2034 5662 0
49 -5662 0
49 -2032 5659 5663 0
49 -2031 5659 5663 0
49 -2031 -2032 5663 0
49 -5663 0
49 -5665 5656 5666 0
49 -5664 5656 5666 0
49 -5664 -5665 5666 0
49 -5666 0
49 -2030 5665 5667 0
49 -2029 5665 5667 0
49 -2029 -2030 5667 0
49 -5667 0
49 -2028 5664 5668 0
49 -2027 5664 5668 0
49 -2027 -2028 5668 0
49 -5668 0
49 2035 2036 2037 2038 2039 2040 2041 2042 0
49 -5671 5669 5672 0
49 -5670 5669 5672 0
49 -5670 -5671 5672 0
49 -5672 0
49 -5674 5671 5675 0
49 -5673 5671 5675 0
49 -5673 -5674 5675 0
49 -5675 0
49 -2042 5674 5676 0
49 -2041 5674 5676 0
49 -2041 -2042 5676 0
49 -5676 0
49 -2040 5673 5677 0
49 -2039 5673 5677 0
49 -2039 -2040 5677 0
49 -5677 0
49 -5679 5670 5680 0
49 -5678 5670 5680 0
49 -5678 -5679 5680 0
49 -5680 0
49 -2038 5679 5681 0
49 -2037 5679 5681 0
49 -2037 -2038 5681 0
49 -5681 0
49 -2036 5678 5682 0
49 -2035 5678 5682 0
49 -2035 -2036 5682 0
49 -5682 0
49 2043 0
49 2044 0
49 2045 2046 2047 2048 0
49 -5685 5683 5686 0
49 -5684 5683 5686 0
49 -5684 -5685 5686 0
49 -5686 0
49 -2048 5685 5687 0
49 -2047 5685 5687 0
49 -2047 -2048 5687 0
49 -5687 0
49 -2046 5684 5688 0
49 -2045 5684 5688 0
49 -2045 -2046 5688 0
49 -5688 0
49 2049 2050 2051 2052 0
49 -5691 5689 5692 0
49 -5690 5689 5692 0
49 -5690 -5691 5692 0
49 -5692 0
49 -2052 5691 5693 0
49 -2051 5691 5693 0
49 -2051 -2052 5693 0
49 -5693 0
49 -2050 5690 5694 0
49 -2049 5690 5694 0
49 -2049 -2050 5694 0
49 -5694 0
49 2053 0
49 2054 0
49 2055 0
49 2056 0
49 2057 0
49 2058 0
49 2059 0
49 2060 0
49 2061 0
49 2062 0
49 2063 0
49 2064 0
49 2065 2066 2067 2068 2069 2070 2071 2072 2073 0
49 -5697 5695 5698 0
49 -5696 5695 5698 0
49 -5696 -5697 5698 0
49 -5698 0
49 -5700 5697 5701 0
49 -5699 5697 5701 0
49 -5699 -5700 5701 0
49 -5701 0
49 -2073 5700 5702 0
49 -2072 5700 5702 0
49 -2072 -2073 5702 0
49 -5702 0
49 -2071 5699 5703 0
49 -2070 5699 5703 0
49 -2070 -2071 5703 0
49 -5703 0
49 -5705 5696 5706 0
49 -5704 5696 5706 0
49 -5704 -5705 5706 0
49 -5706 0
49 -2069 5705 5707 0
49 -2068 5705 5707 0
49 -2068 -2069 5707 0
49 -5707 0
49 -2067 5704 5709 0
49 -5708 5704 5709 0
49 -5708 -2067 5709 0
49 -5709 0
49 -2066 5708 5710 0
49 -2065 5708 5710 0
49 -2065 -2066 5710 0
49 -5710 0
49 2074 2075 2076 2077 2078 2079 2080 2081 2082 0
49 -5713 5711 5714 0
49 -5712 5711 5714 0
49 -5712 -5713 5714 0
49 -5714 0
49 -5716 5713 5717 0
49 -5715 5713 5717 0
49 -5715 -5716 5717 0
49 -5717 0
49 -2082 5716 5718 0
49 -2081 5716 5718 0
49 -2081 -2082 5718 0
49 -5718 0
49 -2080 5715 5719 0
49 -2079 5715 5719 0
49 -2079 -2080 5719 0
49 -5719 0
49 -5721 5712 5722 0
49 -5720 5712 5722 0
49 -5720 -5721 5722 0
49 -5722 0
49 -2078 5721 5723 0
49 -2077 5721 5723 0
49 -2077 -2078 5723 0
49 -5723 0
49 -2076 5720 5725 0
49 -5724 5720 5725 0
49 -5724 -2076 5725 0
49 -5725 0
49 -2075 5724 5726 0
49 -2074 5724 5726 0
49 -2074 -2075 5726 0
49 -5726 0
49 2083 0
49 2084 0
49 2085 0
49 2086 0
49 2087 2088 2089 2090 2091 2092 2093 2094 0
49 -5729 5727 5730 0
49 -5728 5727 5730 0
49 -5728 -5729 5730 0
49 -5730 0
49 -5732 5729 5733 0
49 -5731 5729 5733 0
49 -5731 -5732 5733 0
49 -5733 0
49 -2094 5732 5734 0
49 -2093 5732 5734 0
49 -2093 -2094 5734 0
49 -5734 0
49 -2092 5731 5735 0
49 -2091 5731 5735 0
49 -2091 -2092 5735 0
49 -5735 0
49 -5737 5728 5738 0
49 -5736 5728 5738 0
49 -5736 -5737 5738 0
49 -5738 0
49 -2090 5737 5739 0
49 -2089 5737 5739 0
49 -2089 -2090 5739 0
49 -5739 0
49 -2088 5736 5740 0
49 -2087 5736 5740 0
49 -2087 -2088 5740 0
49 -5740 0
49 2095 2096 2097 2098 2099 2100 2101 2102 0
49 -5743 5741 5744 0
49 -5742 5741 5744 0
49 -5742 -5743 5744 0
49 -5744 0
49 -5746 5743 5747 0
49 -5745 5743 5747 0
49 -5745 -5746 5747 0
49 -5747 0
49 -2102 5746 5748 0
49 -2101 5746 5748 0
49 -2101 -2102 5748 0
49 -5748 0
49 -2100 5745 5749 0
49 -2099 5745 5749 0
49 -2099 -2100 5749 0
49 -5749 0
49 -5751 5742 5752 0
49 -5750 5742 5752 0
49 -5750 -5751 5752 0
49 -5752 0
49 -2098 5751 5753 0
49 -2097 5751 5753 0
49 -2097 -2098 5753 0
49 -5753 0
49 -2096 5750 5754 0
49 -2095 5750 5754 0
49 -2095 -2096 5754 0
49 -5754 0
49 2103 0
49 2104 0
49 2105 0
49 2106 0
49 2107 0
49 2108 0
49 2109 0
49 2110 0
49 2111 2112 2113 2114 2115 2116 2117 0
49 -5757 5755 5758 0
49 -5756 5755 5758 0
49 -5756 -5757 5758 0
49 -5758 0
49 -2117 5757 5760 0
49 -5759 5757 5760 0
49 -5759 -2117 5760 0
49 -5760 0
49 -2116 5759 5761 0
49 -2115 5759 5761 0
49 -2115 -2116 5761 0
49 -5761 0
49 -5763 5756 5764 0
49 -5762 5756 5764 0
49 -5762 -5763 5764 0
49 -5764 0
49 -2114 5763 5765 0
49 -2113 5763 5765 0
49 -2113 -2114 5765 0
49 -5765 0
49 -2112 5762 5766 0
49 -2111 5762 5766 0
49 -2111 -2112 5766 0
49 -5766 0
49 2118 2119 2120 2121 2122 2123 2124 0
49 -5769 5767 5770 0
49 -5768 5767 5770 0
49 -5768 -5769 5770 0
49 -5770 0
49 -2124 5769 5772 0
49 -5771 5769 5772 0
49 -5771 -2124 5772 0
49 -5772 0
49 -2123 5771 5773 0
49 -2122 5771 5773 0
49 -2122 -2123 5773 0
49 -5773 0
49 -5775 5768 5776 0
49 -5774 5768 5776 0
49 -5774 -5775 5776 0
49 -5776 0
49 -2121 5775 5777 0
49 -2120 5775 5777 0
49 -2120 -2121 5777 0
49 -5777 0
49 -2119 5774 5778 0
49 -2118 5774 5778 0
49 -2118 -2119 5778 0
49 -5778 0
49 2125 2126 2127 2128 0
49 -5781 5779 5782 0
49 -5780 5779 5782 0
49 -5780 -5781 5782 0
49 -5782 0
49 -2128 5781 5783 0
49 -2127 5781 5783 0
49 -2127 -2128 5783 0
49 -5783 0
49 -2126 5780 5784 0
49 -2125 5780 5784 0
49 -2125 -2126 5784 0
49 -5784 0
49 2129 2130 2131 2132 0
49 -5787 5785 5788 0
49 -5786 5785 5788 0
49 -5786 -5787 5788 0
49 -5788 0
49 -2132 5787 5789 0
49 -2131 5787 5789 0
49 -2131 -2132 5789 0
49 -5789 0
49 -2130 5786 5790 0
49 -2129 5786 5790 0
49 -2129 -2130 5790 0
49 -5790 0
49 2133 2134 2135 2136 2137 2138 2139 2140 0
49 -5793 5791 5794 0
49 -5792 5791 5794 0
49 -5792 -5793 5794 0
49 -5794 0
49 -5796 5793 5797 0
49 -5795 5793 5797 0
49 -5795 -5796 5797 0
49 -5797 0
49 -2140 5796 5798 0
49 -2139 5796 5798 0
49 -2139 -2140 5798 0
49 -5798 0
49 -2138 5795 5799 0
49 -2137 5795 5799 0
49 -2137 -2138 5799 0
49 -5799 0
49 -5801 5792 5802 0
49 -5800 5792 5802 0
49 -5800 -5801 5802 0
49 -5802 0
49 -2136 5801 5803 0
49 -2135 5801 5803 0
49 -2135 -2136 5803 0
49 -5803 0
49 -2134 5800 5804 0
49 -2133 5800 5804 0
49 -2133 -2134 5804 0
49 -5804 0
49 2141 2142 2143 2144 2145 2146 2147 2148 0
49 -5807 5805 5808 0
49 -5806 5805 5808 0
49 -5806 -5807 5808 0
49 -5808 0
49 -5810 5807 5811 0
49 -5809 5807 5811 0
49 -5809 -5810 5811 0
49 -5811 0
49 -2148 5810 5812 0
49 -2147 5810 5812 0
49 -2147 -2148 5812 0
49 -5812 0
49 -2146 5809 5813 0
49 -2145 5809 5813 0
49 -2145 -2146 5813 0
49 -5813 0
49 -5815 5806 5816 0
49 -5814 5806 5816 0
49 -5814 -5815 5816 0
49 -5816 0
49 -2144 5815 5817 0
49 -2143 5815 5817 0
49 -2143 -2144 5817 0
49 -5817 0
49 -2142 5814 5818 0
49 -2141 5814 5818 0
49 -2141 -2142 5818 0
49 -5818 0
49 2149 0
49 2150 0
49 2151 0
49 2152 0
49 2153 0
49 2154 0
49 2155 0
49 2156 0
49 2157 0
49 2158 0
49 2159 0
49 2160 0
49 2161 0
49 2162 0
49 2163 2164 2165 2166 2167 2168 2169 2170 0
49 -5821 5819 5822 0
49 -5820 5819 5822 0
49 -5820 -5821 5822 0
49 -5822 0
49 -5824 5821 5825 0
49 -5823 5821 5825 0
49 -5823 -5824 5825 0
49 -5825 0
49 -2170 5824 5826 0
49 -2169 5824 5826 0
49 -2169 -2170 5826 0
49 -5826 0
49 -2168 5823 5827 0
49 -2167 5823 5827 0
49 -2167 -2168 5827 0
49 -5827 0
49 -5829 5820 5830 0
49 -5828 5820 5830 0
49 -5828 -5829 5830 0
49 -5830 0
49 -2166 5829 5831 0
49 -2165 5829 5831 0
49 -2165 -2166 5831 0
49 -5831 0
49 -2164 5828 5832 0
49 -2163 5828 5832 0
49 -2163 -2164 5832 0
49 -5832 0
49 2171 2172 2173 2174 2175 2176 2177 2178 0
49 -5835 5833 5836 0
49 -5834 5833 5836 0
49 -5834 -5835 5836 0
49 -5836 0
49 -5838 5835 5839 0
49 -5837 5835 5839 0
49 -5837 -5838 5839 0
49 -5839 0
49 -2178 5838 5840 0
49 -2177 5838 5840 0
49 -2177 -2178 5840 0
49 -5840 0
49 -2176 5837 5841 0
49 -2175 5837 5841 0
49 -2175 -2176 5841 0
49 -5841 0
49 -5843 5834 5844 0
49 -5842 5834 5844 0
49 -5842 -5843 5844 0
49 -5844 0
49 -2174 5843 5845 0
49 -2173 5843 5845 0
49 -2173 -2174 5845 0
49 -5845 0
49 -2172 5842 5846 0
49 -2171 5842 5846 0
49 -2171 -2172 5846 0
49 -5846 0
49 2179 0
49 2180 0
49 2181 0
49 2182 0
49 2183 2184 2185 0
49 -2185 5847 5849 0
49 -5848 5847 5849 0
49 -5848 -2185 5849 0
49 -5849 0
49 -2184 5848 5850 0
49 -2183 5848 5850 0
49 -2183 -2184 5850 0
49 -5850 0
49 2186 2187 2188 0
49 -2188 5851 5853 0
49 -5852 5851 5853 0
49 -5852 -2188 5853 0
49 -5853 0
49 -2187 5852 5854 0
49 -2186 5852 5854 0
49 -2186 -2187 5854 0
49 -5854 0
49 2189 0
49 2190 0
49 2191 0
49 2192 0
49 2193 0
49 2194 0
49 2195 0
49 2196 0
49 2197 2198 2199 2200 2201 2202 0
49 -5857 5855 5858 0
49 -5856 5855 5858 0
49 -5856 -5857 5858 0
49 -5858 0
49 -2202 5857 5860 0
49 -5859 5857 5860 0
49 -5859 -2202 5860 0
49 -5860 0
49 -2201 5859 5861 0
49 -2200 5859 5861 0
49 -2200 -2201 5861 0
49 -5861 0
49 -2199 5856 5863 0
49 -5862 5856 5863 0
49 -5862 -2199 5863 0
49 -5863 0
49 -2198 5862 5864 0
49 -2197 5862 5864 0
49 -2197 -2198 5864 0
49 -5864 0
49 2203 2204 2205 2206 2207 2208 0
49 -5867 5865 5868 0
49 -5866 5865 5868 0
49 -5866 -5867 5868 0
49 -5868 0
49 -2208 5867 5870 0
49 -5869 5867 5870 0
49 -5869 -2208 5870 0
49 -5870 0
49 -2207 5869 5871 0
49 -2206 5869 5871 0
49 -2206 -2207 5871 0
49 -5871 0
49 -2205 5866 5873 0
49 -5872 5866 5873 0
49 -5872 -2205 5873 0
49 -5873 0
49 -2204 5872 5874 0
49 -2203 5872 5874 0
49 -2203 -2204 5874 0
49 -5874 0
49 2209 0
49 2210 0
49 2211 0
49 2212 0
49 2213 0
49 2214 0
49 2215 2216 2217 2218 2219 2220 2221 2222 0
49 -5877 5875 5878 0
49 -5876 5875 5878 0
49 -5876 -5877 5878 0
49 -5878 0
49 -5880 5877 5881 0
49 -5879 5877 5881 0
49 -5879 -5880 5881 0
49 -5881 0
49 -2222 5880 5882 0
49 -2221 5880 5882 0
49 -2221 -2222 5882 0
49 -5882 0
49 -2220 5879 5883 0
49 -2219 5879 5883 0
49 -2219 -2220 5883 0
49 -5883 0
49 -5885 5876 5886 0
49 -5884 5876 5886 0
49 -5884 -5885 5886 0
49 -5886 0
49 -2218 5885 5887 0
49 -2217 5885 5887 0
49 -2217 -2218 5887 0
49 -5887 0
49 -2216 5884 5888 0
49 -2215 5884 5888 0
49 -2215 -2216 5888 0
49 -5888 0
49 2223 2224 2225 2226 2227 2228 2229 2230 0
49 -5891 5889 5892 0
49 -5890 5889 5892 0
49 -5890 -5891 5892 0
49 -5892 0
49 -5894 5891 5895 0
49 -5893 5891 5895 0
49 -5893 -5894 5895 0
49 -5895 0
49 -2230 5894 5896 0
49 -2229 5894 5896 0
49 -2229 -2230 5896 0
49 -5896 0
49 -2228 5893 5897 0
49 -2227 5893 5897 0
49 -2227 -2228 5897 0
49 -5897 0
49 -5899 5890 5900 0
49 -5898 5890 5900 0
49 -5898 -5899 5900 0
49 -5900 0
49 -2226 5899 5901 0
49 -2225 5899 5901 0
49 -2225 -2226 5901 0
49 -5901 0
49 -2224 5898 5902 0
49 -2223 5898 5902 0
49 -2223 -2224 5902 0
49 -5902 0
49 2231 0
49 2232 0
49 2233 0
49 2234 0
49 2235 0
49 2236 0
49 2237 2238 2239 2240 2241 2242 2243 2244 0
49 -5905 5903 5906 0
49 -5904 5903 5906 0
49 -5904 -5905 5906 0
49 -5906 0
49 -5908 5905 5909 0
49 -5907 5905 5909 0
49 -5907 -5908 5909 0
49 -5909 0
49 -2244 5908 5910 0
49 -2243 5908 5910 0
49 -2243 -2244 5910 0
49 -5910 0
49 -2242 5907 5911 0
49 -2241 5907 5911 0
49 -2241 -2242 5911 0
49 -5911 0
49 -5913 5904 5914 0
49 -5912 5904 5914 0
49 -5912 -5913 5914 0
49 -5914 0
49 -2240 5913 5915 0
49 -2239 5913 5915 0
49 -2239 -2240 5915 0
49 -5915 0
49 -2238 5912 5916 0
49 -2237 5912 5916 0
49 -2237 -2238 5916 0
49 -5916 0
49 2245 2246 2247 2248 2249 2250 2251 2252 0
49 -5919 5917 5920 0
49 -5918 5917 5920 0
49 -5918 -5919 5920 0
49 -5920 0
49 -5922 5919 5923 0
49 -5921 5919 5923 0
49 -5921 -5922 5923 0
49 -5923 0
49 -2252 5922 5924 0
49 -2251 5922 5924 0
49 -2251 -2252 5924 0
49 -5924 0
49 -2250 5921 5925 0
49 -2249 5921 5925 0
49 -2249 -2250 5925 0
49 -5925 0
49 -5927 5918 5928 0
49 -5926 5918 5928 0
49 -5926 -5927 5928 0
49 -5928 0
49 -2248 5927 5929 0
49 -2247 5927 5929 0
49 -2247 -2248 5929 0
49 -5929 0
49 -2246 5926 5930 0
49 -2245 5926 5930 0
49 -2245 -2246 5930 0
49 -5930 0
49 2253 0
49 2254 0
49 2255 0
49 2256 0
49 2257 0
49 2258 0
49 2259 0
49 2260 0
49 2261 0
49 2262 0
49 2263 2264 2265 2266 2267 2268 2269 2270 0
49 -5933 5931 5934 0
49 -5932 5931 5934 0
49 -5932 -5933 5934 0
49 -5934 0
49 -5936 5933 5937 0
49 -5935 5933 5937 0
49 -5935 -5936 5937 0
49 -5937 0
49 -2270 5936 5938 0
49 -2269 5936 5938 0
49 -2269 -2270 5938 0
49 -5938 0
49 -2268 5935 5939 0
49 -2267 5935 5939 0
49 -2267 -2268 5939 0
49 -5939 0
49 -5941 5932 5942 0
49 -5940 5932 5942 0
49 -5940 -5941 5942 0
49 -5942 0
49 -2266 5941 5943 0
49 -2265 5941 5943 0
49 -2265 -2266 5943 0
49 -5943 0
49 -2264 5940 5944 0
49 -2263 5940 5944 0
49 -2263 -2264 5944 0
49 -5944 0
49 2271 2272 2273 2274 2275 2276 2277 2278 0
49 -5947 5945 5948 0
49 -5946 5945 5948 0
49 -5946 -5947 5948 0
49 -5948 0
49 -5950 5947 5951 0
49 -5949 5947 5951 0
49 -5949 -5950 5951 0
49 -5951 0
49 -2278 5950 5952 0
49 -2277 5950 5952 0
49 -2277 -2278 5952 0
49 -5952 0
49 -2276 5949 5953 0
49 -2275 5949 5953 0
49 -2275 -2276 5953 0
49 -5953 0
49 -5955 5946 5956 0
49 -5954 5946 5956 0
49 -5954 -5955 5956 0
49 -5956 0
49 -2274 5955 5957 0
49 -2273 5955 5957 0
49 -2273 -2274 5957 0
49 -5957 0
49 -2272 5954 5958 0
49 -2271 5954 5958 0
49 -2271 -2272 5958 0
49 -5958 0
49 2279 2280 0
49 -2279 -2280 0
49 2281 2282 0
49 -2281 -2282 0
49 2283 0
49 2284 0
49 2285 0
49 2286 0
49 2287 0
49 2288 0
49 2289 0
49 2290 0
49 2291 0
49 2292 0
49 2293 0
49 2294 0
49 2295 2296 2297 2298 2299 2300 2301 2302 2303 0
49 -5961 5959 5962 0
49 -5960 5959 5962 0
49 -5960 -5961 5962 0
49 -5962 0
49 -5964 5961 5965 0
49 -5963 5961 5965 0
49 -5963 -5964 5965 0
49 -5965 0
49 -2303 5964 5966 0
49 -2302 5964 5966 0
49 -2302 -2303 5966 0
49 -5966 0
49 -2301 5963 5967 0
49 -2300 5963 5967 0
49 -2300 -2301 5967 0
49 -5967 0
49 -5969 5960 5970 0
49 -5968 5960 5970 0
49 -5968 -5969 5970 0
49 -5970 0
49 -2299 5969 5971 0
49 -2298 5969 5971 0
49 -2298 -2299 5971 0
49 -5971 0
49 -2297 5968 5973 0
49 -5972 5968 5973 0
49 -5972 -2297 5973 0
49 -5973 0
49 -2296 5972 5974 0
49 -2295 5972 5974 0
49 -2295 -2296 5974 0
49 -5974 0
49 2304 2305 2306 2307 2308 2309 2310 2311 2312 0
49 -5977 5975 5978 0
49 -5976 5975 5978 0
49 -5976 -5977 5978 0
49 -5978 0
49 -5980 5977 5981 0
49 -5979 5977 5981 0
49 -5979 -5980 5981 0
49 -5981 0
49 -2312 5980 5982 0
49 -2311 5980 5982 0
49 -2311 -2312 5982 0
49 -5982 0
49 -2310 5979 5983 0
49 -2309 5979 5983 0
49 -2309 -2310 5983 0
49 -5983 0
49 -5985 5976 5986 0
49 -5984 5976 5986 0
49 -5984 -5985 5986 0
49 -5986 0
49 -2308 5985 5987 0
49 -2307 5985 5987 0
49 -2307 -2308 5987 0
49 -5987 0
49 -2306 5984 5989 0
49 -5988 5984 5989 0
49 -5988 -2306 5989 0
49 -5989 0
49 -2305 5988 5990 0
49 -2304 5988 5990 0
49 -2304 -2305 5990 0
49 -5990 0
49 2313 0
49 2314 0
49 2315 0
49 2316 0
49 2317 2318 2319 2320 2321 2322 2323 2324 0
49 -5993 5991 5994 0
49 -5992 5991 5994 0
49 -5992 -5993 5994 0
49 -5994 0
49 -5996 5993 5997 0
49 -5995 5993 5997 0
49 -5995 -5996 5997 0
49 -5997 0
49 -2324 5996 5998 0
49 -2323 5996 5998 0
49 -2323 -2324 5998 0
49 -5998 0
49 -2322 5995 5999 0
49 -2321 5995 5999 0
49 -2321 -2322 5999 0
49 -5999 0
49 -6001 5992 6002 0
49 -6000 5992 6002 0
49 -6000 -6001 6002 0
49 -6002 0
49 -2320 6001 6003 0
49 -2319 6001 6003 0
49 -2319 -2320 6003 0
49 -6003 0
49 -2318 6000 6004 0
49 -2317 6000 6004 0
49 -2317 -2318 6004 0
49 -6004 0
49 2325 2326 2327 2328 2329 2330 2331 2332 0
49 -6007 6005 6008 0
49 -6006 6005 6008 0
49 -6006 -6007 6008 0
49 -6008 0
49 -6010 6007 6011 0
49 -6009 6007 6011 0
49 -6009 -6010 6011 0
49 -6011 0
49 -2332 6010 6012 0
49 -2331 6010 6012 0
49 -2331 -2332 6012 0
49 -6012 0
49 -2330 6009 6013 0
49 -2329 6009 6013 0
49 -2329 -2330 6013 0
49 -6013 0
49 -6015 6006 6016 0
49 -6014 6006 6016 0
49 -6014 -6015 6016 0
49 -6016 0
49 -2328 6015 6017 0
49 -2327 6015 6017 0
49 -2327 -2328 6017 0
49 -6017 0
49 -2326 6014 6018 0
49 -2325 6014 6018 0
49 -2325 -2326 6018 0
49 -6018 0
49 2333 0
49 2334 0
49 2335 2336 2337 2338 2339 2340 2341 2342 0
49 -6021 6019 6022 0
49 -6020 6019 6022 0
49 -6020 -6021 6022 0
49 -6022 0
49 -6024 6021 6025 0
49 -6023 6021 6025 0
49 -6023 -6024 6025 0
49 -6025 0
49 -2342 6024 6026 0
49 -2341 6024 6026 0
49 -2341 -2342 6026 0
49 -6026 0
49 -2340 6023 6027 0
49 -2339 6023 6027 0
49 -2339 -2340 6027 0
49 -6027 0
49 -6029 6020 6030 0
49 -6028 6020 6030 0
49 -6028 -6029 6030 0
49 -6030 0
49 -2338 6029 6031 0
49 -2337 6029 6031 0
49 -2337 -2338 6031 0
49 -6031 0
49 -2336 6028 6032 0
49 -2335 6028 6032 0
49 -2335 -2336 6032 0
49 -6032 0
49 2343 2344 2345 2346 2347 2348 2349 2350 0
49 -6035 6033 6036 0
49 -6034 6033 6036 0
49 -6034 -6035 6036 0
49 -6036 0
49 -6038 6035 6039 0
49 -6037 6035 6039 0
49 -6037 -6038 6039 0
49 -6039 0
49 -2350 6038 6040 0
49 -2349 6038 6040 0
49 -2349 -2350 6040 0
49 -6040 0
49 -2348 6037 6041 0
49 -2347 6037 6041 0
49 -2347 -2348 6041 0
49 -6041 0
49 -6043 6034 6044 0
49 -6042 6034 6044 0
49 -6042 -6043 6044 0
49 -6044 0
49 -2346 6043 6045 0
49 -2345 6043 6045 0
49 -2345 -2346 6045 0
49 -6045 0
49 -2344 6042 6046 0
49 -2343 6042 6046 0
49 -2343 -2344 6046 0
49 -6046 0
49 2351 0
49 2352 0
49 2353 0
49 2354 0
49 2355 0
49 2356 0
49 2357 2358 2359 2360 2361 2362 2363 2364 0
49 -6049 6047 6050 0
49 -6048 6047 6050 0
49 -6048 -6049 6050 0
49 -6050 0
49 -6052 6049 6053 0
49 -6051 6049 6053 0
49 -6051 -6052 6053 0
49 -6053 0
49 -2364 6052 6054 0
49 -2363 6052 6054 0
49 -2363 -2364 6054 0
49 -6054 0
49 -2362 6051 6055 0
49 -2361 6051 6055 0
49 -2361 -2362 6055 0
49 -6055 0
49 -6057 6048 6058 0
49 -6056 6048 6058 0
49 -6056 -6057 6058 0
49 -6058 0
49 -2360 6057 6059 0
49 -2359 6057 6059 0
49 -2359 -2360 6059 0
49 -6059 0
49 -2358 6056 6060 0
49 -2357 6056 6060 0
49 -2357 -2358 6060 0
49 -6060 0
49 2365 2366 2367 2368 2369 2370 2371 2372 0
49 -6063 6061 6064 0
49 -6062 6061 6064 0
49 -6062 -6063 6064 0
49 -6064 0
49 -6066 6063 6067 0
49 -6065 6063 6067 0
49 -6065 -6066 6067 0
49 -6067 0
49 -2372 6066 6068 0
49 -2371 6066 6068 0
49 -2371 -2372 6068 0
49 -6068 0
49 -2370 6065 6069 0
49 -2369 6065 6069 0
49 -2369 -2370 6069 0
49 -6069 0
49 -6071 6062 6072 0
49 -6070 6062 6072 0
49 -6070 -6071 6072 0
49 -6072 0
49 -2368 6071 6073 0
49 -2367 6071 6073 0
49 -2367 -2368 6073 0
49 -6073 0
49 -2366 6070 6074 0
49 -2365 6070 6074 0
49 -2365 -2366 6074 0
49 -6074 0
49 2373 0
49 2374 0
49 2375 0
49 2376 0
49 2377 2378 2379 2380 2381 2382 2383 2384 0
49 -6077 6075 6078 0
49 -6076 6075 6078 0
49 -6076 -6077 6078 0
49 -6078 0
49 -6080 6077 6081 0
49 -6079 6077 6081 0
49 -6079 -6080 6081 0
49 -6081 0
49 -2384 6080 6082 0
49 -2383 6080 6082 0
49 -2383 -2384 6082 0
49 -6082 0
49 -2382 6079 6083 0
49 -2381 6079 6083 0
49 -2381 -2382 6083 0
49 -6083 0
49 -6085 6076 6086 0
49 -6084 6076 6086 0
49 -6084 -6085 6086 0
49 -6086 0
49 -2380 6085 6087 0
49 -2379 6085 6087 0
49 -2379 -2380 6087 0
49 -6087 0
49 -2378 6084 6088 0
49 -2377 6084 6088 0
49 -2377 -2378 6088 0
49 -6088 0
49 2385 2386 2387 2388 2389 2390 2391 2392 0
49 -6091 6089 6092 0
49 -6090 6089 6092 0
49 -6090 -6091 6092 0
49 -6092 0
49 -6094 6091 6095 0
49 -6093 6091 6095 0
49 -6093 -6094 6095 0
49 -6095 0
49 -2392 6094 6096 0
49 -2391 6094 6096 0
49 -2391 -2392 6096 0
49 -6096 0
49 -2390 6093 6097 0
49 -2389 6093 6097 0
49 -2389 -2390 6097 0
49 -6097 0
49 -6099 6090 6100 0
49 -6098 6090 6100 0
49 -6098 -6099 6100 0
49 -6100 0
49 -2388 6099 6101 0
49 -2387 6099 6101 0
49 -2387 -2388 6101 0
49 -6101 0
49 -2386 6098 6102 0
49 -2385 6098 6102 0
49 -2385 -2386 6102 0
49 -6102 0
49 2393 0
49 2394 0
49 2395 0
49 2396 0
49 2397 2398 2399 2400 2401 2402 0
49 -6105 6103 6106 0
49 -6104 6103 6106 0
49 -6104 -6105 6106 0
49 -6106 0
49 -2402 6105 6108 0
49 -6107 6105 6108 0
49 -6107 -2402 6108 0
49 -6108 0
49 -2401 6107 6109 0
49 -2400 6107 6109 0
49 -2400 -2401 6109 0
49 -6109 0
49 -2399 6104 6111 0
49 -6110 6104 6111 0
49 -6110 -2399 6111 0
49 -6111 0
49 -2398 6110 6112 0
49 -2397 6110 6112 0
49 -2397 -2398 6112 0
49 -6112 0
49 2403 2404 2405 2406 2407 2408 0
49 -6115 6113 6116 0
49 -6114 6113 6116 0
49 -6114 -6115 6116 0
49 -6116 0
49 -2408 6115 6118 0
49 -6117 6115 6118 0
49 -6117 -2408 6118 0
49 -6118 0
49 -2407 6117 6119 0
49 -2406 6117 6119 0
49 -2406 -2407 6119 0
49 -6119 0
49 -2405 6114 6121 0
49 -6120 6114 6121 0
49 -6120 -2405 6121 0
49 -6121 0
49 -2404 6120 6122 0
49 -2403 6120 6122 0
49 -2403 -2404 6122 0
49 -6122 0
49 2409 0
49 2410 0
49 2411 0
49 2412 0
49 2413 0
49 2414 0
49 2415 2416 2417 2418 2419 2420 2421 2422 0
49 -6125 6123 6126 0
49 -6124 6123 6126 0
49 -6124 -6125 6126 0
49 -6126 0
49 -6128 6125 6129 0
49 -6127 6125 6129 0
49 -6127 -6128 6129 0
49 -6129 0
49 -2422 6128 6130 0
49 -2421 6128 6130 0
49 -2421 -2422 6130 0
49 -6130 0
49 -2420 6127 6131 0
49 -2419 6127 6131 0
49 -2419 -2420 6131 0
49 -6131 0
49 -6133 6124 6134 0
49 -6132 6124 6134 0
49 -6132 -6133 6134 0
49 -6134 0
49 -2418 6133 6135 0
49 -2417 6133 6135 0
49 -2417 -2418 6135 0
49 -6135 0
49 -2416 6132 6136 0
49 -2415 6132 6136 0
49 -2415 -2416 6136 0
49 -6136 0
49 2423 2424 2425 2426 2427 2428 2429 2430 0
49 -6139 6137 6140 0
49 -6138 6137 6140 0
49 -6138 -6139 6140 0
49 -6140 0
49 -6142 6139 6143 0
49 -6141 6139 6143 0
49 -6141 -6142 6143 0
49 -6143 0
49 -2430 6142 6144 0
49 -2429 6142 6144 0
49 -2429 -2430 6144 0
49 -6144 0
49 -2428 6141 6145 0
49 -2427 6141 6145 0
49 -2427 -2428 6145 0
49 -6145 0
49 -6147 6138 6148 0
49 -6146 6138 6148 0
49 -6146 -6147 6148 0
49 -6148 0
49 -2426 6147 6149 0
49 -2425 6147 6149 0
49 -2425 -2426 6149 0
49 -6149 0
49 -2424 6146 6150 0
49 -2423 6146 6150 0
49 -2423 -2424 6150 0
49 -6150 0
49 2431 0
49 2432 0
49 2433 2434 2435 2436 0
49 -6153 6151 6154 0
49 -6152 6151 6154 0
49 -6152 -6153 6154 0
49 -6154 0
49 -2436 6153 6155 0
49 -2435 6153 6155 0
49 -2435 -2436 6155 0
49 -6155 0
49 -2434 6152 6156 0
49 -2433 6152 6156 0
49 -2433 -2434 6156 0
49 -6156 0
49 2437 2438 2439 2440 0
49 -6159 6157 6160 0
49 -6158 6157 6160 0
49 -6158 -6159 6160 0
49 -6160 0
49 -2440 6159 6161 0
49 -2439 6159 6161 0
49 -2439 -2440 6161 0
49 -6161 0
49 -2438 6158 6162 0
49 -2437 6158 6162 0
49 -2437 -2438 6162 0
49 -6162 0
49 2441 0
49 2442 0
49 2443 0
49 2444 0
49 2445 0
49 2446 0
49 2447 0
49 2448 0
49 2449 2450 2451 2452 2453 2454 2455 2456 0
49 -6165 6163 6166 0
49 -6164 6163 6166 0
49 -6164 -6165 6166 0
49 -6166 0
49 -6168 6165 6169 0
49 -6167 6165 6169 0
49 -6167 -6168 6169 0
49 -6169 0
49 -2456 6168 6170 0
49 -2455 6168 6170 0
49 -2455 -2456 6170 0
49 -6170 0
49 -2454 6167 6171 0
49 -2453 6167 6171 0
49 -2453 -2454 6171 0
49 -6171 0
49 -6173 6164 6174 0
49 -6172 6164 6174 0
49 -6172 -6173 6174 0
49 -6174 0
49 -2452 6173 6175 0
49 -2451 6173 6175 0
49 -2451 -2452 6175 0
49 -6175 0
49 -2450 6172 6176 0
49 -2449 6172 6176 0
49 -2449 -2450 6176 0
49 -6176 0
49 2457 2458 2459 2460 2461 2462 2463 2464 0
49 -6179 6177 6180 0
49 -6178 6177 6180 0
49 -6178 -6179 6180 0
49 -6180 0
49 -6182 6179 6183 0
49 -6181 6179 6183 0
49 -6181 -6182 6183 0
49 -6183 0
49 -2464 6182 6184 0
49 -2463 6182 6184 0
49 -2463 -2464 6184 0
49 -6184 0
49 -2462 6181 6185 0
49 -2461 6181 6185 0
49 -2461 -2462 6185 0
49 -6185 0
49 -6187 6178 6188 0
49 -6186 6178 6188 0
49 -6186 -6187 6188 0
49 -6188 0
49 -2460 6187 6189 0
49 -2459 6187 6189 0
49 -2459 -2460 6189 0
49 -6189 0
49 -2458 6186 6190 0
49 -2457 6186 6190 0
49 -2457 -2458 6190 0
49 -6190 0
49 2465 0
49 2466 0
49 2467 0
49 2468 0
49 2469 2470 0
49 -2469 -2470 0
49 2471 2472 0
49 -2471 -2472 0
49 2473 2474 2475 2476 2477 2478 2479 2480 0
49 -6193 6191 6194 0
49 -6192 6191 6194 0
49 -6192 -6193 6194 0
49 -6194 0
49 -6196 6193 6197 0
49 -6195 6193 6197 0
49 -6195 -6196 6197 0
49 -6197 0
49 -2480 6196 6198 0
49 -2479 6196 6198 0
49 -2479 -2480 6198 0
49 -6198 0
49 -2478 6195 6199 0
49 -2477 6195 6199 0
49 -2477 -2478 6199 0
49 -6199 0
49 -6201 6192 6202 0
49 -6200 6192 6202 0
49 -6200 -6201 6202 0
49 -6202 0
49 -2476 6201 6203 0
49 -2475 6201 6203 0
49 -2475 -2476 6203 0
49 -6203 0
49 -2474 6200 6204 0
49 -2473 6200 6204 0
49 -2473 -2474 6204 0
49 -6204 0
49 2481 2482 2483 2484 2485 2486 2487 2488 0
49 -6207 6205 6208 0
49 -6206 6205 6208 0
49 -6206 -6207 6208 0
49 -6208 0
49 -6210 6207 6211 0
49 -6209 6207 6211 0
49 -6209 -6210 6211 0
49 -6211 0
49 -2488 6210 6212 0
49 -2487 6210 6212 0
49 -2487 -2488 6212 0
49 -6212 0
49 -2486 6209 6213 0
49 -2485 6209 6213 0
49 -2485 -2486 6213 0
49 -6213 0
49 -6215 6206 6216 0
49 -6214 6206 6216 0
49 -6214 -6215 6216 0
49 -6216 0
49 -2484 6215 6217 0
49 -2483 6215 6217 0
49 -2483 -2484 6217 0
49 -6217 0
49 -2482 6214 6218 0
49 -2481 6214 6218 0
49 -2481 -2482 6218 0
49 -6218 0
49 2489 2490 2491 2492 2493 2494 2495 2496 2497 2498 2499 0
49 -6221 6219 6222 0
49 -6220 6219 6222 0
49 -6220 -6221 6222 0
49 -6222 0
49 -6224 6221 6225 0
49 -6223 6221 6225 0
49 -6223 -6224 6225 0
49 -6225 0
49 -2499 6224 6226 0
49 -2498 6224 6226 0
49 -2498 -2499 6226 0
49 -6226 0
49 -2497 6223 6228 0
49 -6227 6223 6228 0
49 -6227 -2497 6228 0
49 -6228 0
49 -2496 6227 6229 0
49 -2495 6227 6229 0
49 -2495 -2496 6229 0
49 -6229 0
49 -6231 6220 6232 0
49 -6230 6220 6232 0
49 -6230 -6231 6232 0
49 -6232 0
49 -2494 6231 6234 0
49 -6233 6231 6234 0
49 -6233 -2494 6234 0
49 -6234 0
49 -2493 6233 6235 0
49 -2492 6233 6235 0
49 -2492 -2493 6235 0
49 -6235 0
49 -2491 6230 6237 0
49 -6236 6230 6237 0
49 -6236 -2491 6237 0
49 -6237 0
49 -2490 6236 6238 0
49 -2489 6236 6238 0
49 -2489 -2490 6238 0
49 -6238 0
49 2500 2501 2502 2503 2504 2505 2506 2507 2508 2509 2510 0
49 -6241 6239 6242 0
49 -6240 6239 6242 0
49 -6240 -6241 6242 0
49 -6242 0
49 -6244 6241 6245 0
49 -6243 6241 6245 0
49 -6243 -6244 6245 0
49 -6245 0
49 -2510 6244 6246 0
49 -2509 6244 6246 0
49 -2509 -2510 6246 0
49 -6246 0
49 -2508 6243 6248 0
49 -6247 6243 6248 0
49 -6247 -2508 6248 0
49 -6248 0
49 -2507 6247 6249 0
49 -2506 6247 6249 0
49 -2506 -2507 6249 0
49 -6249 0
49 -6251 6240 6252 0
49 -6250 6240 6252 0
49 -6250 -6251 6252 0
49 -6252 0
49 -2505 6251 6254 0
49 -6253 6251 6254 0
49 -6253 -2505 6254 0
49 -6254 0
49 -2504 6253 6255 0
49 -2503 6253 6255 0
49 -2503 -2504 6255 0
49 -6255 0
49 -2502 6250 6257 0
49 -6256 6250 6257 0
49 -6256 -2502 6257 0
49 -6257 0
49 -2501 6256 6258 0
49 -2500 6256 6258 0
49 -2500 -2501 6258 0
49 -6258 0
49 2511 0
49 2512 0
49 2513 0
49 2514 0
49 2515 0
49 2516 0
49 2517 2518 2519 2520 2521 2522 2523 2524 0
49 -6261 6259 6262 0
49 -6260 6259 6262 0
49 -6260 -6261 6262 0
49 -6262 0
49 -6264 6261 6265 0
49 -6263 6261 6265 0
49 -6263 -6264 6265 0
49 -6265 0
49 -2524 6264 6266 0
49 -2523 6264 6266 0
49 -2523 -2524 6266 0
49 -6266 0
49 -2522 6263 6267 0
49 -2521 6263 6267 0
49 -2521 -2522 6267 0
49 -6267 0
49 -6269 6260 6270 0
49 -6268 6260 6270 0
49 -6268 -6269 6270 0
49 -6270 0
49 -2520 6269 6271 0
49 -2519 6269 6271 0
49 -2519 -2520 6271 0
49 -6271 0
49 -2518 6268 6272 0
49 -2517 6268 6272 0
49 -2517 -2518 6272 0
49 -6272 0
49 2525 2526 2527 2528 2529 2530 2531 2532 0
49 -6275 6273 6276 0
49 -6274 6273 6276 0
49 -6274 -6275 6276 0
49 -6276 0
49 -6278 6275 6279 0
49 -6277 6275 6279 0
49 -6277 -6278 6279 0
49 -6279 0
49 -2532 6278 6280 0
49 -2531 6278 6280 0
49 -2531 -2532 6280 0
49 -6280 0
49 -2530 6277 6281 0
49 -2529 6277 6281 0
49 -2529 -2530 6281 0
49 -6281 0
49 -6283 6274 6284 0
49 -6282 6274 6284 0
49 -6282 -6283 6284 0
49 -6284 0
49 -2528 6283 6285 0
49 -2527 6283 6285 0
49 -2527 -2528 6285 0
49 -6285 0
49 -2526 6282 6286 0
49 -2525 6282 6286 0
49 -2525 -2526 6286 0
49 -6286 0
49 2533 0
49 2534 0
49 2535 0
49 2536 0
49 2537 2538 2539 2540 0
49 -6289 6287 6290 0
49 -6288 6287 6290 0
49 -6288 -6289 6290 0
49 -6290 0
49 -2540 6289 6291 0
49 -2539 6289 6291 0
49 -2539 -2540 6291 0
49 -6291 0
49 -2538 6288 6292 0
49 -2537 6288 6292 0
49 -2537 -2538 6292 0
49 -6292 0
49 2541 2542 2543 2544 0
49 -6295 6293 6296 0
49 -6294 6293 6296 0
49 -6294 -6295 6296 0
49 -6296 0
49 -2544 6295 6297 0
49 -2543 6295 6297 0
49 -2543 -2544 6297 0
49 -6297 0
49 -2542 6294 6298 0
49 -2541 6294 6298 0
49 -2541 -2542 6298 0
49 -6298 0
49 2545 0
49 2546 0
49 2547 2548 2549 0
49 -2549 6299 6301 0
49 -6300 6299 6301 0
49 -6300 -2549 6301 0
49 -6301 0
49 -2548 6300 6302 0
49 -2547 6300 6302 0
49 -2547 -2548 6302 0
49 -6302 0
49 2550 2551 2552 0
49 -2552 6303 6305 0
49 -6304 6303 6305 0
49 -6304 -2552 6305 0
49 -6305 0
49 -2551 6304 6306 0
49 -2550 6304 6306 0
49 -2550 -2551 6306 0
49 -6306 0
49 2553 0
49 2554 0
49 2555 0
49 2556 0
49 2557 0
49 2558 0
49 2559 2560 2561 2562 2563 2564 2565 2566 0
49 -6309 6307 6310 0
49 -6308 6307 6310 0
49 -6308 -6309 6310 0
49 -6310 0
49 -6312 6309 6313 0
49 -6311 6309 6313 0
49 -6311 -6312 6313 0
49 -6313 0
49 -2566 6312 6314 0
49 -2565 6312 6314 0
49 -2565 -2566 6314 0
49 -6314 0
49 -2564 6311 6315 0
49 -2563 6311 6315 0
49 -2563 -2564 6315 0
49 -6315 0
49 -6317 6308 6318 0
49 -6316 6308 6318 0
49 -6316 -6317 6318 0
49 -6318 0
49 -2562 6317 6319 0
49 -2561 6317 6319 0
49 -2561 -2562 6319 0
49 -6319 0
49 -2560 6316 6320 0
49 -2559 6316 6320 0
49 -2559 -2560 6320 0
49 -6320 0
49 2567 2568 2569 2570 2571 2572 2573 2574 0
49 -6323 6321 6324 0
49 -6322 6321 6324 0
49 -6322 -6323 6324 0
49 -6324 0
49 -6326 6323 6327 0
49 -6325 6323 6327 0
49 -6325 -6326 6327 0
49 -6327 0
49 -2574 6326 6328 0
49 -2573 6326 6328 0
49 -2573 -2574 6328 0
49 -6328 0
49 -2572 6325 6329 0
49 -2571 6325 6329 0
49 -2571 -2572 6329 0
49 -6329 0
49 -6331 6322 6332 0
49 -6330 6322 6332 0
49 -6330 -6331 6332 0
49 -6332 0
49 -2570 6331 6333 0
49 -2569 6331 6333 0
49 -2569 -2570 6333 0
49 -6333 0
49 -2568 6330 6334 0
49 -2567 6330 6334 0
49 -2567 -2568 6334 0
49 -6334 0
49 2575 0
49 2576 0
49 2577 0
49 2578 0
49 2579 0
49 2580 0
49 2581 0
49 2582 0
49 2583 0
49 2584 0
49 2585 0
49 2586 0
49 2587 2588 2589 2590 2591 2592 2593 2594 0
49 -6337 6335 6338 0
49 -6336 6335 6338 0
49 -6336 -6337 6338 0
49 -6338 0
49 -6340 6337 6341 0
49 -6339 6337 6341 0
49 -6339 -6340 6341 0
49 -6341 0
49 -2594 6340 6342 0
49 -2593 6340 6342 0
49 -2593 -2594 6342 0
49 -6342 0
49 -2592 6339 6343 0
49 -2591 6339 6343 0
49 -2591 -2592 6343 0
49 -6343 0
49 -6345 6336 6346 0
49 -6344 6336 6346 0
49 -6344 -6345 6346 0
49 -6346 0
49 -2590 6345 6347 0
49 -2589 6345 6347 0
49 -2589 -2590 6347 0
49 -6347 0
49 -2588 6344 6348 0
49 -2587 6344 6348 0
49 -2587 -2588 6348 0
49 -6348 0
49 2595 2596 2597 2598 2599 2600 2601 2602 0
49 -6351 6349 6352 0
49 -6350 6349 6352 0
49 -6350 -6351 6352 0
49 -6352 0
49 -6354 6351 6355 0
49 -6353 6351 6355 0
49 -6353 -6354 6355 0
49 -6355 0
49 -2602 6354 6356 0
49 -2601 6354 6356 0
49 -2601 -2602 6356 0
49 -6356 0
49 -2600 6353 6357 0
49 -2599 6353 6357 0
49 -2599 -2600 6357 0
49 -6357 0
49 -6359 6350 6360 0
49 -6358 6350 6360 0
49 -6358 -6359 6360 0
49 -6360 0
49 -2598 6359 6361 0
49 -2597 6359 6361 0
49 -2597 -2598 6361 0
49 -6361 0
49 -2596 6358 6362 0
49 -2595 6358 6362 0
49 -2595 -2596 6362 0
49 -6362 0
49 2603 0
49 2604 0
49 2605 0
49 2606 0
49 2607 2608 2609 2610 2611 2612 2613 2614 2615 2616 0
49 -6365 6363 6366 0
49 -6364 6363 6366 0
49 -6364 -6365 6366 0
49 -6366 0
49 -6368 6365 6369 0
49 -6367 6365 6369 0
49 -6367 -6368 6369 0
49 -6369 0
49 -2616 6368 6370 0
49 -2615 6368 6370 0
49 -2615 -2616 6370 0
49 -6370 0
49 -2614 6367 6372 0
49 -6371 6367 6372 0
49 -6371 -2614 6372 0
49 -6372 0
49 -2613 6371 6373 0
49 -2612 6371 6373 0
49 -2612 -2613 6373 0
49 -6373 0
49 -6375 6364 6376 0
49 -6374 6364 6376 0
49 -6374 -6375 6376 0
49 -6376 0
49 -2611 6375 6377 0
49 -2610 6375 6377 0
49 -2610 -2611 6377 0
49 -6377 0
49 -2609 6374 6379 0
49 -6378 6374 6379 0
49 -6378 -2609 6379 0
49 -6379 0
49 -2608 6378 6380 0
49 -2607 6378 6380 0
49 -2607 -2608 6380 0
49 -6380 0
49 2617 2618 2619 2620 2621 2622 2623 2624 2625 2626 0
49 -6383 6381 6384 0
49 -6382 6381 6384 0
49 -6382 -6383 6384 0
49 -6384 0
49 -6386 6383 6387 0
49 -6385 6383 6387 0
49 -6385 -6386 6387 0
49 -6387 0
49 -2626 6386 6388 0
49 -2625 6386 6388 0
49 -2625 -2626 6388 0
49 -6388 0
49 -2624 6385 6390 0
49 -6389 6385 6390 0
49 -6389 -2624 6390 0
49 -6390 0
49 -2623 6389 6391 0
49 -2622 6389 6391 0
49 -2622 -2623 6391 0
49 -6391 0
49 -6393 6382 6394 0
49 -6392 6382 6394 0
49 -6392 -6393 6394 0
49 -6394 0
49 -2621 6393 6395 0
49 -2620 6393 6395 0
49 -2620 -2621 6395 0
49 -6395 0
49 -2619 6392 6397 0
49 -6396 6392 6397 0
49 -6396 -2619 6397 0
49 -6397 0
49 -2618 6396 6398 0
49 -2617 6396 6398 0
49 -2617 -2618 6398 0
49 -6398 0
49 2627 2628 2629 2630 2631 2632 2633 2634 0
49 -6401 6399 6402 0
49 -6400 6399 6402 0
49 -6400 -6401 6402 0
49 -6402 0
49 -6404 6401 6405 0
49 -6403 6401 6405 0
49 -6403 -6404 6405 0
49 -6405 0
49 -2634 6404 6406 0
49 -2633 6404 6406 0
49 -2633 -2634 6406 0
49 -6406 0
49 -2632 6403 6407 0
49 -2631 6403 6407 0
49 -2631 -2632 6407 0
49 -6407 0
49 -6409 6400 6410 0
49 -6408 6400 6410 0
49 -6408 -6409 6410 0
49 -6410 0
49 -2630 6409 6411 0
49 -2629 6409 6411 0
49 -2629 -2630 6411 0
49 -6411 0
49 -2628 6408 6412 0
49 -2627 6408 6412 0
49 -2627 -2628 6412 0
49 -6412 0
49 2635 2636 2637 2638 2639 2640 2641 2642 0
49 -6415 6413 6416 0
49 -6414 6413 6416 0
49 -6414 -6415 6416 0
49 -6416 0
49 -6418 6415 6419 0
49 -6417 6415 6419 0
49 -6417 -6418 6419 0
49 -6419 0
49 -2642 6418 6420 0
49 -2641 6418 6420 0
49 -2641 -2642 6420 0
49 -6420 0
49 -2640 6417 6421 0
49 -2639 6417 6421 0
49 -2639 -2640 6421 0
49 -6421 0
49 -6423 6414 6424 0
49 -6422 6414 6424 0
49 -6422 -6423 6424 0
49 -6424 0
49 -2638 6423 6425 0
49 -2637 6423 6425 0
49 -2637 -2638 6425 0
49 -6425 0
49 -2636 6422 6426 0
49 -2635 6422 6426 0
49 -2635 -2636 6426 0
49 -6426 0
49 2643 2644 2645 2646 2647 2648 2649 2650 0
49 -6429 6427 6430 0
49 -6428 6427 6430 0
49 -6428 -6429 6430 0
49 -6430 0
49 -6432 6429 6433 0
49 -6431 6429 6433 0
49 -6431 -6432 6433 0
49 -6433 0
49 -2650 6432 6434 0
49 -2649 6432 6434 0
49 -2649 -2650 6434 0
49 -6434 0
49 -2648 6431 6435 0
49 -2647 6431 6435 0
49 -2647 -2648 6435 0
49 -6435 0
49 -6437 6428 6438 0
49 -6436 6428 6438 0
49 -6436 -6437 6438 0
49 -6438 0
49 -2646 6437 6439 0
49 -2645 6437 6439 0
49 -2645 -2646 6439 0
49 -6439 0
49 -2644 6436 6440 0
49 -2643 6436 6440 0
49 -2643 -2644 6440 0
49 -6440 0
49 2651 2652 2653 2654 2655 2656 2657 2658 0
49 -6443 6441 6444 0
49 -6442 6441 6444 0
49 -6442 -6443 6444 0
49 -6444 0
49 -6446 6443 6447 0
49 -6445 6443 6447 0
49 -6445 -6446 6447 0
49 -6447 0
49 -2658 6446 6448 0
49 -2657 6446 6448 0
49 -2657 -2658 6448 0
49 -6448 0
49 -2656 6445 6449 0
49 -2655 6445 6449 0
49 -2655 -2656 6449 0
49 -6449 0
49 -6451 6442 6452 0
49 -6450 6442 6452 0
49 -6450 -6451 6452 0
49 -6452 0
49 -2654 6451 6453 0
49 -2653 6451 6453 0
49 -2653 -2654 6453 0
49 -6453 0
49 -2652 6450 6454 0
49 -2651 6450 6454 0
49 -2651 -2652 6454 0
49 -6454 0
49 2659 0
49 2660 0
49 2661 0
49 2662 0
49 2663 0
49 2664 0
49 2665 2666 2667 2668 2669 2670 2671 2672 2673 2674 2675 2676 0
49 -6457 6455 6458 0
49 -6456 6455 6458 0
49 -6456 -6457 6458 0
49 -6458 0
49 -6460 6457 6461 0
49 -6459 6457 6461 0
49 -6459 -6460 6461 0
49 -6461 0
49 -2676 6460 6463 0
49 -6462 6460 6463 0
49 -6462 -2676 6463 0
49 -6463 0
49 -2675 6462 6464 0
49 -2674 6462 6464 0
49 -2674 -2675 6464 0
49 -6464 0
49 -2673 6459 6466 0
49 -6465 6459 6466 0
49 -6465 -2673 6466 0
49 -6466 0
49 -2672 6465 6467 0
49 -2671 6465 6467 0
49 -2671 -2672 6467 0
49 -6467 0
49 -6469 6456 6470 0
49 -6468 6456 6470 0
49 -6468 -6469 6470 0
49 -6470 0
49 -2670 6469 6472 0
49 -6471 6469 6472 0
49 -6471 -2670 6472 0
49 -6472 0
49 -2669 6471 6473 0
49 -2668 6471 6473 0
49 -2668 -2669 6473 0
49 -6473 0
49 -2667 6468 6475 0
49 -6474 6468 6475 0
49 -6474 -2667 6475 0
49 -6475 0
49 -2666 6474 6476 0
49 -2665 6474 6476 0
49 -2665 -2666 6476 0
49 -6476 0
49 2677 2678 2679 2680 2681 2682 2683 2684 2685 2686 2687 2688 0
49 -6479 6477 6480 0
49 -6478 6477 6480 0
49 -6478 -6479 6480 0
49 -6480 0
49 -6482 6479 6483 0
49 -6481 6479 6483 0
49 -6481 -6482 6483 0
49 -6483 0
49 -2688 6482 6485 0
49 -6484 6482 6485 0
49 -6484 -2688 6485 0
49 -6485 0
49 -2687 6484 6486 0
49 -2686 6484 6486 0
49 -2686 -2687 6486 0
49 -6486 0
49 -2685 6481 6488 0
49 -6487 6481 6488 0
49 -6487 -2685 6488 0
49 -6488 0
49 -2684 6487 6489 0
49 -2683 6487 6489 0
49 -2683 -2684 6489 0
49 -6489 0
49 -6491 6478 6492 0
49 -6490 6478 6492 0
49 -6490 -6491 6492 0
49 -6492 0
49 -2682 6491 6494 0
49 -6493 6491 6494 0
49 -6493 -2682 6494 0
49 -6494 0
49 -2681 6493 6495 0
49 -2680 6493 6495 0
49 -2680 -2681 6495 0
49 -6495 0
49 -2679 6490 6497 0
49 -6496 6490 6497 0
49 -6496 -2679 6497 0
49 -6497 0
49 -2678 6496 6498 0
49 -2677 6496 6498 0
49 -2677 -2678 6498 0
49 -6498 0
49 2689 2690 2691 2692 2693 2694 2695 2696 0
49 -6501 6499 6502 0
49 -6500 6499 6502 0
49 -6500 -6501 6502 0
49 -6502 0
49 -6504 6501 6505 0
49 -6503 6501 6505 0
49 -6503 -6504 6505 0
49 -6505 0
49 -2696 6504 6506 0
49 -2695 6504 6506 0
49 -2695 -2696 6506 0
49 -6506 0
49 -2694 6503 6507 0
49 -2693 6503 6507 0
49 -2693 -2694 6507 0
49 -6507 0
49 -6509 6500 6510 0
49 -6508 6500 6510 0
49 -6508 -6509 6510 0
49 -6510 0
49 -2692 6509 6511 0
49 -2691 6509 6511 0
49 -2691 -2692 6511 0
49 -6511 0
49 -2690 6508 6512 0
49 -2689 6508 6512 0
49 -2689 -2690 6512 0
49 -6512 0
49 2697 2698 2699 2700 2701 2702 2703 2704 0
49 -6515 6513 6516 0
49 -6514 6513 6516 0
49 -6514 -6515 6516 0
49 -6516 0
49 -6518 6515 6519 0
49 -6517 6515 6519 0
49 -6517 -6518 6519 0
49 -6519 0
49 -2704 6518 6520 0
49 -2703 6518 6520 0
49 -2703 -2704 6520 0
49 -6520 0
49 -2702 6517 6521 0
49 -2701 6517 6521 0
49 -2701 -2702 6521 0
49 -6521 0
49 -6523 6514 6524 0
49 -6522 6514 6524 0
49 -6522 -6523 6524 0
49 -6524 0
49 -2700 6523 6525 0
49 -2699 6523 6525 0
49 -2699 -2700 6525 0
49 -6525 0
49 -2698 6522 6526 0
49 -2697 6522 6526 0
49 -2697 -2698 6526 0
49 -6526 0
49 2705 0
49 2706 0
49 2707 2708 2709 2710 2711 2712 2713 0
49 -6529 6527 6530 0
49 -6528 6527 6530 0
49 -6528 -6529 6530 0
49 -6530 0
49 -2713 6529 6532 0
49 -6531 6529 6532 0
49 -6531 -2713 6532 0
49 -6532 0
49 -2712 6531 6533 0
49 -2711 6531 6533 0
49 -2711 -2712 6533 0
49 -6533 0
49 -6535 6528 6536 0
49 -6534 6528 6536 0
49 -6534 -6535 6536 0
49 -6536 0
49 -2710 6535 6537 0
49 -2709 6535 6537 0
49 -2709 -2710 6537 0
49 -6537 0
49 -2708 6534 6538 0
49 -2707 6534 6538 0
49 -2707 -2708 6538 0
49 -6538 0
49 2714 2715 2716 2717 2718 2719 2720 0
49 -6541 6539 6542 0
49 -6540 6539 6542 0
49 -6540 -6541 6542 0
49 -6542 0
49 -2720 6541 6544 0
49 -6543 6541 6544 0
49 -6543 -2720 6544 0
49 -6544 0
49 -2719 6543 6545 0
49 -2718 6543 6545 0
49 -2718 -2719 6545 0
49 -6545 0
49 -6547 6540 6548 0
49 -6546 6540 6548 0
49 -6546 -6547 6548 0
49 -6548 0
49 -2717 6547 6549 0
49 -2716 6547 6549 0
49 -2716 -2717 6549 0
49 -6549 0
49 -2715 6546 6550 0
49 -2714 6546 6550 0
49 -2714 -2715 6550 0
49 -6550 0
49 2721 0
49 2722 0
49 2723 0
49 2724 0
49 2725 0
49 2726 0
49 2727 2728 2729 2730 2731 2732 2733 2734 0
49 -6553 6551 6554 0
49 -6552 6551 6554 0
49 -6552 -6553 6554 0
49 -6554 0
49 -6556 6553 6557 0
49 -6555 6553 6557 0
49 -6555 -6556 6557 0
49 -6557 0
49 -2734 6556 6558 0
49 -2733 6556 6558 0
49 -2733 -2734 6558 0
49 -6558 0
49 -2732 6555 6559 0
49 -2731 6555 6559 0
49 -2731 -2732 6559 0
49 -6559 0
49 -6561 6552 6562 0
49 -6560 6552 6562 0
49 -6560 -6561 6562 0
49 -6562 0
49 -2730 6561 6563 0
49 -2729 6561 6563 0
49 -2729 -2730 6563 0
49 -6563 0
49 -2728 6560 6564 0
49 -2727 6560 6564 0
49 -2727 -2728 6564 0
49 -6564 0
49 2735 2736 2737 2738 2739 2740 2741 2742 0
49 -6567 6565 6568 0
49 -6566 6565 6568 0
49 -6566 -6567 6568 0
49 -6568 0
49 -6570 6567 6571 0
49 -6569 6567 6571 0
49 -6569 -6570 6571 0
49 -6571 0
49 -2742 6570 6572 0
49 -2741 6570 6572 0
49 -2741 -2742 6572 0
49 -6572 0
49 -2740 6569 6573 0
49 -2739 6569 6573 0
49 -2739 -2740 6573 0
49 -6573 0
49 -6575 6566 6576 0
49 -6574 6566 6576 0
49 -6574 -6575 6576 0
49 -6576 0
49 -2738 6575 6577 0
49 -2737 6575 6577 0
49 -2737 -2738 6577 0
49 -6577 0
49 -2736 6574 6578 0
49 -2735 6574 6578 0
49 -2735 -2736 6578 0
49 -6578 0
49 2743 2744 2745 2746 2747 2748 2749 2750 0
49 -6581 6579 6582 0
49 -6580 6579 6582 0
49 -6580 -6581 6582 0
49 -6582 0
49 -6584 6581 6585 0
49 -6583 6581 6585 0
49 -6583 -6584 6585 0
49 -6585 0
49 -2750 6584 6586 0
49 -2749 6584 6586 0
49 -2749 -2750 6586 0
49 -6586 0
49 -2748 6583 6587 0
49 -2747 6583 6587 0
49 -2747 -2748 6587 0
49 -6587 0
49 -6589 6580 6590 0
49 -6588 6580 6590 0
49 -6588 -6589 6590 0
49 -6590 0
49 -2746 6589 6591 0
49 -2745 6589 6591 0
49 -2745 -2746 6591 0
49 -6591 0
49 -2744 6588 6592 0
49 -2743 6588 6592 0
49 -2743 -2744 6592 0
49 -6592 0
49 2751 2752 2753 2754 2755 2756 2757 2758 0
49 -6595 6593 6596 0
49 -6594 6593 6596 0
49 -6594 -6595 6596 0
49 -6596 0
49 -6598 6595 6599 0
49 -6597 6595 6599 0
49 -6597 -6598 6599 0
49 -6599 0
49 -2758 6598 6600 0
49 -2757 6598 6600 0
49 -2757 -2758 6600 0
49 -6600 0
49 -2756 6597 6601 0
49 -2755 6597 6601 0
49 -2755 -2756 6601 0
49 -6601 0
49 -6603 6594 6604 0
49 -6602 6594 6604 0
49 -6602 -6603 6604 0
49 -6604 0
49 -2754 6603 6605 0
49 -2753 6603 6605 0
49 -2753 -2754 6605 0
49 -6605 0
49 -2752 6602 6606 0
49 -2751 6602 6606 0
49 -2751 -2752 6606 0
49 -6606 0
49 2759 2760 2761 2762 2763 0
49 -6609 6607 6610 0
49 -6608 6607 6610 0
49 -6608 -6609 6610 0
49 -6610 0
49 -2763 6609 6611 0
49 -2762 6609 6611 0
49 -2762 -2763 6611 0
49 -6611 0
49 -2761 6608 6613 0
49 -6612 6608 6613 0
49 -6612 -2761 6613 0
49 -6613 0
49 -2760 6612 6614 0
49 -2759 6612 6614 0
49 -2759 -2760 6614 0
49 -6614 0
49 2764 2765 2766 2767 2768 0
49 -6617 6615 6618 0
49 -6616 6615 6618 0
49 -6616 -6617 6618 0
49 -6618 0
49 -2768 6617 6619 0
49 -2767 6617 6619 0
49 -2767 -2768 6619 0
49 -6619 0
49 -2766 6616 6621 0
49 -6620 6616 6621 0
49 -6620 -2766 6621 0
49 -6621 0
49 -2765 6620 6622 0
49 -2764 6620 6622 0
49 -2764 -2765 6622 0
49 -6622 0
49 2769 0
49 2770 0
49 2771 0
49 2772 0
49 2773 0
49 2774 0
49 2775 0
49 2776 0
49 2777 0
49 2778 0
49 2779 0
49 2780 0
49 2781 2782 2783 0
49 -2783 6623 6625 0
49 -6624 6623 6625 0
49 -6624 -2783 6625 0
49 -6625 0
49 -2782 6624 6626 0
49 -2781 6624 6626 0
49 -2781 -2782 6626 0
49 -6626 0
49 2784 2785 2786 0
49 -2786 6627 6629 0
49 -6628 6627 6629 0
49 -6628 -2786 6629 0
49 -6629 0
49 -2785 6628 6630 0
49 -2784 6628 6630 0
49 -2784 -2785 6630 0
49 -6630 0
49 2787 0
49 2788 0
49 2789 0
49 2790 0
49 2791 0
49 2792 0
49 2793 2794 2795 2796 2797 2798 2799 2800 0
49 -6633 6631 6634 0
49 -6632 6631 6634 0
49 -6632 -6633 6634 0
49 -6634 0
49 -6636 6633 6637 0
49 -6635 6633 6637 0
49 -6635 -6636 6637 0
49 -6637 0
49 -2800 6636 6638 0
49 -2799 6636 6638 0
49 -2799 -2800 6638 0
49 -6638 0
49 -2798 6635 6639 0
49 -2797 6635 6639 0
49 -2797 -2798 6639 0
49 -6639 0
49 -6641 6632 6642 0
49 -6640 6632 6642 0
49 -6640 -6641 6642 0
49 -6642 0
49 -2796 6641 6643 0
49 -2795 6641 6643 0
49 -2795 -2796 6643 0
49 -6643 0
49 -2794 6640 6644 0
49 -2793 6640 6644 0
49 -2793 -2794 6644 0
49 -6644 0
49 2801 2802 2803 2804 2805 2806 2807 2808 0
49 -6647 6645 6648 0
49 -6646 6645 6648 0
49 -6646 -6647 6648 0
49 -6648 0
49 -6650 6647 6651 0
49 -6649 6647 6651 0
49 -6649 -6650 6651 0
49 -6651 0
49 -2808 6650 6652 0
49 -2807 6650 6652 0
49 -2807 -2808 6652 0
49 -6652 0
49 -2806 6649 6653 0
49 -2805 6649 6653 0
49 -2805 -2806 6653 0
49 -6653 0
49 -6655 6646 6656 0
49 -6654 6646 6656 0
49 -6654 -6655 6656 0
49 -6656 0
49 -2804 6655 6657 0
49 -2803 6655 6657 0
49 -2803 -2804 6657 0
49 -6657 0
49 -2802 6654 6658 0
49 -2801 6654 6658 0
49 -2801 -2802 6658 0
49 -6658 0
49 2809 0
49 2810 0
49 2811 2812 2813 2814 2815 2816 2817 2818 0
49 -6661 6659 6662 0
49 -6660 6659 6662 0
49 -6660 -6661 6662 0
49 -6662 0
49 -6664 6661 6665 0
49 -6663 6661 6665 0
49 -6663 -6664 6665 0
49 -6665 0
49 -2818 6664 6666 0
49 -2817 6664 6666 0
49 -2817 -2818 6666 0
49 -6666 0
49 -2816 6663 6667 0
49 -2815 6663 6667 0
49 -2815 -2816 6667 0
49 -6667 0
49 -6669 6660 6670 0
49 -6668 6660 6670 0
49 -6668 -6669 6670 0
49 -6670 0
49 -2814 6669 6671 0
49 -2813 6669 6671 0
49 -2813 -2814 6671 0
49 -6671 0
49 -2812 6668 6672 0
49 -2811 6668 6672 0
49 -2811 -2812 6672 0
49 -6672 0
49 2819 2820 2821 2822 2823 2824 2825 2826 0
49 -6675 6673 6676 0
49 -6674 6673 6676 0
49 -6674 -6675 6676 0
49 -6676 0
49 -6678 6675 6679 0
49 -6677 6675 6679 0
49 -6677 -6678 6679 0
49 -6679 0
49 -2826 6678 6680 0
49 -2825 6678 6680 0
49 -2825 -2826 6680 0
49 -6680 0
49 -2824 6677 6681 0
49 -2823 6677 6681 0
49 -2823 -2824 6681 0
49 -6681 0
49 -6683 6674 6684 0
49 -6682 6674 6684 0
49 -6682 -6683 6684 0
49 -6684 0
49 -2822 6683 6685 0
49 -2821 6683 6685 0
49 -2821 -2822 6685 0
49 -6685 0
49 -2820 6682 6686 0
49 -2819 6682 6686 0
49 -2819 -2820 6686 0
49 -6686 0
49 2827 2828 2829 2830 2831 2832 2833 2834 0
49 -6689 6687 6690 0
49 -6688 6687 6690 0
49 -6688 -6689 6690 0
49 -6690 0
49 -6692 6689 6693 0
49 -6691 6689 6693 0
49 -6691 -6692 6693 0
49 -6693 0
49 -2834 6692 6694 0
49 -2833 6692 6694 0
49 -2833 -2834 6694 0
49 -6694 0
49 -2832 6691 6695 0
49 -2831 6691 6695 0
49 -2831 -2832 6695 0
49 -6695 0
49 -6697 6688 6698 0
49 -6696 6688 6698 0
49 -6696 -6697 6698 0
49 -6698 0
49 -2830 6697 6699 0
49 -2829 6697 6699 0
49 -2829 -2830 6699 0
49 -6699 0
49 -2828 6696 6700 0
49 -2827 6696 6700 0
49 -2827 -2828 6700 0
49 -6700 0
49 2835 2836 2837 2838 2839 2840 2841 2842 0
49 -6703 6701 6704 0
49 -6702 6701 6704 0
49 -6702 -6703 6704 0
49 -6704 0
49 -6706 6703 6707 0
49 -6705 6703 6707 0
49 -6705 -6706 6707 0
49 -6707 0
49 -2842 6706 6708 0
49 -2841 6706 6708 0
49 -2841 -2842 6708 0
49 -6708 0
49 -2840 6705 6709 0
49 -2839 6705 6709 0
49 -2839 -2840 6709 0
49 -6709 0
49 -6711 6702 6712 0
49 -6710 6702 6712 0
49 -6710 -6711 6712 0
49 -6712 0
49 -2838 6711 6713 0
49 -2837 6711 6713 0
49 -2837 -2838 6713 0
49 -6713 0
49 -2836 6710 6714 0
49 -2835 6710 6714 0
49 -2835 -2836 6714 0
49 -6714 0
49 2843 0
49 2844 0
49 2845 2846 2847 2848 2849 2850 0
49 -6717 6715 6718 0
49 -6716 6715 6718 0
49 -6716 -6717 6718 0
49 -6718 0
49 -2850 6717 6720 0
49 -6719 6717 6720 0
49 -6719 -2850 6720 0
49 -6720 0
49 -2849 6719 6721 0
49 -2848 6719 6721 0
49 -2848 -2849 6721 0
49 -6721 0
49 -2847 6716 6723 0
49 -6722 6716 6723 0
49 -6722 -2847 6723 0
49 -6723 0
49 -2846 6722 6724 0
49 -2845 6722 6724 0
49 -2845 -2846 6724 0
49 -6724 0
49 2851 2852 2853 2854 2855 2856 0
49 -6727 6725 6728 0
49 -6726 6725 6728 0
49 -6726 -6727 6728 0
49 -6728 0
49 -2856 6727 6730 0
49 -6729 6727 6730 0
49 -6729 -2856 6730 0
49 -6730 0
49 -2855 6729 6731 0
49 -2854 6729 6731 0
49 -2854 -2855 6731 0
49 -6731 0
49 -2853 6726 6733 0
49 -6732 6726 6733 0
49 -6732 -2853 6733 0
49 -6733 0
49 -2852 6732 6734 0
49 -2851 6732 6734 0
49 -2851 -2852 6734 0
49 -6734 0
49 2857 0
49 2858 0
49 2859 2860 2861 2862 2863 2864 2865 2866 0
49 -6737 6735 6738 0
49 -6736 6735 6738 0
49 -6736 -6737 6738 0
49 -6738 0
49 -6740 6737 6741 0
49 -6739 6737 6741 0
49 -6739 -6740 6741 0
49 -6741 0
49 -2866 6740 6742 0
49 -2865 6740 6742 0
49 -2865 -2866 6742 0
49 -6742 0
49 -2864 6739 6743 0
49 -2863 6739 6743 0
49 -2863 -2864 6743 0
49 -6743 0
49 -6745 6736 6746 0
49 -6744 6736 6746 0
49 -6744 -6745 6746 0
49 -6746 0
49 -2862 6745 6747 0
49 -2861 6745 6747 0
49 -2861 -2862 6747 0
49 -6747 0
49 -2860 6744 6748 0
49 -2859 6744 6748 0
49 -2859 -2860 6748 0
49 -6748 0
49 2867 2868 2869 2870 2871 2872 2873 2874 0
49 -6751 6749 6752 0
49 -6750 6749 6752 0
49 -6750 -6751 6752 0
49 -6752 0
49 -6754 6751 6755 0
49 -6753 6751 6755 0
49 -6753 -6754 6755 0
49 -6755 0
49 -2874 6754 6756 0
49 -2873 6754 6756 0
49 -2873 -2874 6756 0
49 -6756 0
49 -2872 6753 6757 0
49 -2871 6753 6757 0
49 -2871 -2872 6757 0
49 -6757 0
49 -6759 6750 6760 0
49 -6758 6750 6760 0
49 -6758 -6759 6760 0
49 -6760 0
49 -2870 6759 6761 0
49 -2869 6759 6761 0
49 -2869 -2870 6761 0
49 -6761 0
49 -2868 6758 6762 0
49 -2867 6758 6762 0
49 -2867 -2868 6762 0
49 -6762 0
49 2875 2876 2877 2878 2879 2880 0
49 -6765 6763 6766 0
49 -6764 6763 6766 0
49 -6764 -6765 6766 0
49 -6766 0
49 -2880 6765 6768 0
49 -6767 6765 6768 0
49 -6767 -2880 6768 0
49 -6768 0
49 -2879 6767 6769 0
49 -2878 6767 6769 0
49 -2878 -2879 6769 0
49 -6769 0
49 -2877 6764 6771 0
49 -6770 6764 6771 0
49 -6770 -2877 6771 0
49 -6771 0
49 -2876 6770 6772 0
49 -2875 6770 6772 0
49 -2875 -2876 6772 0
49 -6772 0
49 2881 2882 2883 2884 2885 2886 0
49 -6775 6773 6776 0
49 -6774 6773 6776 0
49 -6774 -6775 6776 0
49 -6776 0
49 -2886 6775 6778 0
49 -6777 6775 6778 0
49 -6777 -2886 6778 0
49 -6778 0
49 -2885 6777 6779 0
49 -2884 6777 6779 0
49 -2884 -2885 6779 0
49 -6779 0
49 -2883 6774 6781 0
49 -6780 6774 6781 0
49 -6780 -2883 6781 0
49 -6781 0
49 -2882 6780 6782 0
49 -2881 6780 6782 0
49 -2881 -2882 6782 0
49 -6782 0
49 -1 2 0
49 -3 4 0
49 -5 12 0
49 -6 13 0
49 -7 14 0
49 -8 15 0
49 -9 16 0
49 -10 17 0
49 -11 18 0
49 -5 -280 0
49 -6 -281 0
49 -7 -282 0
49 -8 -283 0
49 -9 -284 0
49 -10 -285 0
49 -5 -287 0
49 -5 -288 0
49 -5 -289 0
49 -5 -290 0
49 -5 -291 0
49 -5 -292 0
49 -6 -288 0
49 -6 -289 0
49 -6 -290 0
49 -6 -291 0
49 -6 -292 0
49 -7 -289 0
49 -7 -290 0
49 -7 -291 0
49 -7 -292 0
49 -8 -290 0
49 -8 -291 0
49 -8 -292 0
49 -9 -291 0
49 -9 -292 0
49 -10 -292 0
49 -5 -1973 0
49 -5 -1974 0
49 -6 -1973 0
49 -6 -1974 0
49 -7 -1973 0
49 -7 -1974 0
49 -8 -1973 0
49 -8 -1974 0
49 -9 -1973 0
49 -9 -1974 0
49 -10 -1974 0
49 -13 -477 0
49 -14 -477 0
49 -15 -477 0
49 -15 -478 0
49 -16 -477 0
49 -16 -478 0
49 -17 -477 0
49 -17 -478 0
49 -17 -479 0
49 -18 -477 0
49 -18 -478 0
49 -18 -479 0
49 -13 -481 0
49 -15 -482 0
49 -17 -483 0
49 -17 -1698 0
49 -18 -1698 0
49 -19 20 0
49 -21 22 0
49 -23 24 0
49 -25 26 0
49 -27 28 0
49 -29 30 0
49 -31 36 0
49 -32 37 0
49 -33 38 0
49 -34 39 0
49 -35 40 0
49 -36 -393 0
49 -37 -393 0
49 -38 -393 0
49 -39 -393 0
49 -41 42 0
49 -43 54 0
49 -44 55 0
49 -45 56 0
49 -46 57 0
49 -47 58 0
49 -48 59 0
49 -49 60 0
49 -50 61 0
49 -51 62 0
49 -52 63 0
49 -53 64 0
49 -43 -1048 0
49 -43 -1049 0
49 -43 -1050 0
49 -43 -1051 0
49 -43 -1052 0
49 -43 -1053 0
49 -43 -1054 0
49 -44 -1049 0
49 -44 -1050 0
49 -44 -1051 0
49 -44 -1052 0
49 -44 -1053 0
49 -44 -1054 0
49 -45 -1050 0
49 -45 -1051 0
49 -45 -1052 0
49 -45 -1053 0
49 -45 -1054 0
49 -46 -1051 0
49 -46 -1052 0
49 -46 -1053 0
49 -46 -1054 0
49 -47 -1052 0
49 -47 -1053 0
49 -47 -1054 0
49 -48 -1053 0
49 -48 -1054 0
49 -49 -1054 0
49 -43 -1806 0
49 -44 -1806 0
49 -45 -1806 0
49 -46 -1806 0
49 -47 -1806 0
49 -48 -1806 0
49 -49 -1806 0
49 -50 -1806 0
49 -51 -1806 0
49 -52 -1806 0
49 -55 -1554 0
49 -56 -1554 0
49 -56 -1555 0
49 -57 -1554 0
49 -57 -1555 0
49 -57 -1556 0
49 -58 -1554 0
49 -58 -1555 0
49 -58 -1556 0
49 -58 -1557 0
49 -59 -1554 0
49 -59 -1555 0
49 -59 -1556 0
49 -59 -1557 0
49 -60 -1554 0
49 -60 -1555 0
49 -60 -1556 0
49 -60 -1557 0
49 -61 -1554 0
49 -61 -1555 0
49 -61 -1556 0
49 -61 -1557 0
49 -62 -1554 0
49 -62 -1555 0
49 -62 -1556 0
49 -62 -1557 0
49 -63 -1554 0
49 -63 -1555 0
49 -63 -1556 0
49 -63 -1557 0
49 -64 -1554 0
49 -64 -1555 0
49 -64 -1556 0
49 -64 -1557 0
49 -65 73 0
49 -66 74 0
49 -67 75 0
49 -68 76 0
49 -69 77 0
49 -70 78 0
49 -71 79 0
49 -72 80 0
49 -65 -86 0
49 -65 -87 0
49 -65 -88 0
49 -66 -86 0
49 -66 -87 0
49 -66 -88 0
49 -67 -87 0
49 -67 -88 0
49 -68 -87 0
49 -68 -88 0
49 -69 -88 0
49 -70 -88 0
49 -73 -456 0
49 -74 -456 0
49 -75 -456 0
49 -76 -456 0
49 -77 -456 0
49 -73 -458 0
49 -74 -458 0
49 -75 -458 0
49 -76 -458 0
49 -77 -458 0
49 -81 85 0
49 -82 86 0
49 -83 87 0
49 -84 88 0
49 -81 -280 0
49 -81 -281 0
49 -81 -282 0
49 -82 -282 0
49 -82 -283 0
49 -82 -284 0
49 -83 -284 0
49 -83 -285 0
49 -81 -458 0
49 -82 -458 0
49 -83 -458 0
49 -86 -279 0
49 -86 -280 0
49 -87 -279 0
49 -87 -280 0
49 -87 -281 0
49 -87 -282 0
49 -88 -279 0
49 -88 -280 0
49 -88 -281 0
49 -88 -282 0
49 -88 -283 0
49 -88 -284 0
49 -86 -458 0
49 -87 -458 0
49 -89 90 0
49 -91 92 0
49 -93 101 0
49 -94 102 0
49 -95 103 0
49 -96 104 0
49 -97 105 0
49 -98 106 0
49 -99 107 0
49 -100 108 0
49 -93 -386 0
49 -94 -386 0
49 -95 -386 0
49 -96 -386 0
49 -97 -386 0
49 -98 -386 0
49 -102 -259 0
49 -103 -259 0
49 -103 -260 0
49 -104 -259 0
49 -104 -260 0
49 -104 -261 0
49 -105 -259 0
49 -105 -260 0
49 -105 -261 0
49 -105 -262 0
49 -106 -259 0
49 -106 -260 0
49 -106 -261 0
49 -106 -262 0
49 -106 -263 0
49 -107 -259 0
49 -107 -260 0
49 -107 -261 0
49 -107 -262 0
49 -107 -263 0
49 -107 -264 0
49 -108 -259 0
49 -108 -260 0
49 -108 -261 0
49 -108 -262 0
49 -108 -263 0
49 -108 -264 0
49 -108 -265 0
49 -101 -268 0
49 -102 -269 0
49 -103 -270 0
49 -104 -271 0
49 -105 -272 0
49 -106 -273 0
49 -107 -274 0
49 -101 -301 0
49 -101 -302 0
49 -101 -303 0
49 -102 -302 0
49 -102 -303 0
49 -103 -303 0
49 -101 -305 0
49 -101 -306 0
49 -101 -307 0
49 -101 -308 0
49 -101 -309 0
49 -101 -310 0
49 -102 -306 0
49 -102 -307 0
49 -102 -308 0
49 -102 -309 0
49 -102 -310 0
49 -103 -307 0
49 -103 -308 0
49 -103 -309 0
49 -103 -310 0
49 -104 -308 0
49 -104 -309 0
49 -104 -310 0
49 -105 -309 0
49 -105 -310 0
49 -106 -310 0
49 -102 -329 0
49 -103 -329 0
49 -103 -330 0
49 -104 -329 0
49 -104 -330 0
49 -104 -331 0
49 -105 -330 0
49 -105 -331 0
49 -105 -332 0
49 -106 -331 0
49 -106 -332 0
49 -106 -333 0
49 -107 -332 0
49 -107 -333 0
49 -107 -334 0
49 -108 -333 0
49 -108 -334 0
49 -108 -335 0
49 -101 -386 0
49 -102 -386 0
49 -103 -386 0
49 -104 -386 0
49 -105 -386 0
49 -106 -386 0
49 -107 -386 0
49 -101 -1466 0
49 -101 -1467 0
49 -101 -1468 0
49 -102 -1467 0
49 -102 -1468 0
49 -103 -1468 0
49 -109 111 0
49 -110 112 0
49 -110 -177 0
49 -110 -178 0
49 -110 -179 0
49 -112 -597 0
49 -112 -598 0
49 -112 -599 0
49 -112 -600 0
49 -112 -601 0
49 -113 114 0
49 -115 116 0
49 -117 118 0
49 -119 124 0
49 -120 125 0
49 -121 126 0
49 -122 127 0
49 -123 128 0
49 -125 -1871 0
49 -125 -1872 0
49 -126 -1871 0
49 -126 -1872 0
49 -127 -1871 0
49 -127 -1872 0
49 -128 -1871 0
49 -128 -1872 0
49 -129 130 0
49 -131 132 0
49 -133 141 0
49 -134 142 0
49 -135 143 0
49 -136 144 0
49 -137 145 0
49 -138 146 0
49 -139 147 0
49 -140 148 0
49 -133 -178 0
49 -133 -179 0
49 -133 -180 0
49 -133 -181 0
49 -133 -182 0
49 -134 -178 0
49 -134 -179 0
49 -134 -180 0
49 -134 -181 0
49 -134 -182 0
49 -135 -178 0
49 -135 -179 0
49 -135 -180 0
49 -135 -181 0
49 -135 -182 0
49 -136 -179 0
49 -136 -180 0
49 -136 -181 0
49 -136 -182 0
49 -137 -180 0
49 -137 -181 0
49 -137 -182 0
49 -138 -181 0
49 -138 -182 0
49 -139 -182 0
49 -149 153 0
49 -150 154 0
49 -151 155 0
49 -152 156 0
49 -157 164 0
49 -158 165 0
49 -159 166 0
49 -160 167 0
49 -161 168 0
49 -162 169 0
49 -163 170 0
49 -161 -1021 0
49 -162 -1021 0
49 -162 -1022 0
49 -163 -1021 0
49 -163 -1022 0
49 -163 -1023 0
49 -168 -979 0
49 -168 -980 0
49 -168 -981 0
49 -168 -982 0
49 -168 -983 0
49 -169 -979 0
49 -169 -980 0
49 -169 -981 0
49 -169 -982 0
49 -169 -983 0
49 -169 -984 0
49 -170 -979 0
49 -170 -980 0
49 -170 -981 0
49 -170 -982 0
49 -170 -983 0
49 -170 -984 0
49 -170 -985 0
49 -168 -987 0
49 -168 -988 0
49 -168 -989 0
49 -168 -990 0
49 -168 -991 0
49 -169 -987 0
49 -169 -988 0
49 -169 -989 0
49 -169 -990 0
49 -169 -991 0
49 -169 -992 0
49 -170 -987 0
49 -170 -988 0
49 -170 -989 0
49 -170 -990 0
49 -170 -991 0
49 -170 -992 0
49 -170 -993 0
49 -164 -1429 0
49 -165 -1429 0
49 -166 -1429 0
49 -169 -1430 0
49 -170 -1430 0
49 -170 -1431 0
49 -164 -1434 0
49 -165 -1434 0
49 -166 -1434 0
49 -169 -1435 0
49 -170 -1435 0
49 -170 -1436 0
49 -171 177 0
49 -172 178 0
49 -173 179 0
49 -174 180 0
49 -175 181 0
49 -176 182 0
49 -171 -2471 0
49 -182 -597 0
49 -183 194 0
49 -184 195 0
49 -185 196 0
49 -186 197 0
49 -187 198 0
49 -188 199 0
49 -189 200 0
49 -190 201 0
49 -191 202 0
49 -192 203 0
49 -193 204 0
49 -184 -689 0
49 -185 -689 0
49 -185 -690 0
49 -186 -689 0
49 -186 -690 0
49 -186 -691 0
49 -187 -689 0
49 -187 -690 0
49 -187 -691 0
49 -187 -692 0
49 -188 -689 0
49 -188 -690 0
49 -188 -691 0
49 -188 -692 0
49 -188 -693 0
49 -189 -690 0
49 -189 -691 0
49 -189 -692 0
49 -189 -693 0
49 -189 -694 0
49 -190 -691 0
49 -190 -692 0
49 -190 -693 0
49 -190 -694 0
49 -190 -695 0
49 -191 -692 0
49 -191 -693 0
49 -191 -694 0
49 -191 -695 0
49 -191 -696 0
49 -192 -693 0
49 -192 -694 0
49 -192 -695 0
49 -192 -696 0
49 -193 -694 0
49 -193 -695 0
49 -193 -696 0
49 -205 206 0
49 -207 208 0
49 -209 220 0
49 -210 221 0
49 -211 222 0
49 -212 223 0
49 -213 224 0
49 -214 225 0
49 -215 226 0
49 -216 227 0
49 -217 228 0
49 -218 229 0
49 -219 230 0
49 -220 -450 0
49 -221 -450 0
49 -227 -451 0
49 -228 -451 0
49 -229 -451 0
49 -230 -451 0
49 -220 -616 0
49 -221 -616 0
49 -222 -616 0
49 -223 -616 0
49 -224 -616 0
49 -221 -818 0
49 -222 -818 0
49 -222 -819 0
49 -223 -818 0
49 -223 -819 0
49 -224 -818 0
49 -224 -819 0
49 -225 -818 0
49 -225 -819 0
49 -226 -818 0
49 -226 -819 0
49 -227 -818 0
49 -227 -819 0
49 -228 -818 0
49 -228 -819 0
49 -229 -818 0
49 -229 -819 0
49 -230 -818 0
49 -230 -819 0
49 -220 -954 0
49 -221 -954 0
49 -222 -954 0
49 -223 -954 0
49 -224 -954 0
49 -225 -954 0
49 -226 -954 0
49 -227 -954 0
49 -228 -954 0
49 -229 -954 0
49 -231 239 0
49 -232 240 0
49 -233 241 0
49 -234 242 0
49 -235 243 0
49 -236 244 0
49 -237 245 0
49 -238 246 0
49 -231 -550 0
49 -232 -551 0
49 -233 -552 0
49 -234 -553 0
49 -235 -554 0
49 -236 -555 0
49 -237 -556 0
49 -231 -818 0
49 -231 -819 0
49 -232 -818 0
49 -232 -819 0
49 -233 -818 0
49 -233 -819 0
49 -234 -818 0
49 -234 -819 0
49 -235 -818 0
49 -235 -819 0
49 -236 -818 0
49 -236 -819 0
49 -237 -819 0
49 -231 -821 0
49 -231 -822 0
49 -232 -821 0
49 -232 -822 0
49 -233 -821 0
49 -233 -822 0
49 -234 -821 0
49 -234 -822 0
49 -235 -822 0
49 -239 -453 0
49 -240 -453 0
49 -240 -454 0
49 -241 -454 0
49 -242 -454 0
49 -243 -454 0
49 -244 -454 0
49 -245 -454 0
49 -246 -454 0
49 -239 -558 0
49 -240 -559 0
49 -241 -560 0
49 -242 -561 0
49 -243 -562 0
49 -244 -563 0
49 -245 -564 0
49 -247 248 0
49 -249 250 0
49 -251 252 0
49 -253 254 0
49 -255 256 0
49 -257 258 0
49 -259 267 0
49 -260 268 0
49 -261 269 0
49 -262 270 0
49 -263 271 0
49 -264 272 0
49 -265 273 0
49 -266 274 0
49 -260 -321 0
49 -261 -321 0
49 -261 -322 0
49 -262 -321 0
49 -262 -322 0
49 -262 -323 0
49 -263 -321 0
49 -263 -322 0
49 -263 -323 0
49 -263 -324 0
49 -264 -321 0
49 -264 -322 0
49 -264 -323 0
49 -264 -324 0
49 -264 -325 0
49 -265 -322 0
49 -265 -323 0
49 -265 -324 0
49 -265 -325 0
49 -265 -326 0
49 -266 -323 0
49 -266 -324 0
49 -266 -325 0
49 -266 -326 0
49 -266 -327 0
49 -259 -330 0
49 -259 -331 0
49 -259 -332 0
49 -259 -333 0
49 -259 -334 0
49 -259 -335 0
49 -259 -336 0
49 -260 -331 0
49 -260 -332 0
49 -260 -333 0
49 -260 -334 0
49 -260 -335 0
49 -260 -336 0
49 -261 -332 0
49 -261 -333 0
49 -261 -334 0
49 -261 -335 0
49 -261 -336 0
49 -262 -333 0
49 -262 -334 0
49 -262 -335 0
49 -262 -336 0
49 -263 -334 0
49 -263 -335 0
49 -263 -336 0
49 -264 -335 0
49 -264 -336 0
49 -265 -336 0
49 -268 -963 0
49 -269 -963 0
49 -269 -964 0
49 -270 -963 0
49 -270 -964 0
49 -270 -965 0
49 -271 -963 0
49 -271 -964 0
49 -271 -965 0
49 -271 -966 0
49 -272 -963 0
49 -272 -964 0
49 -272 -965 0
49 -272 -966 0
49 -272 -967 0
49 -273 -963 0
49 -273 -964 0
49 -273 -965 0
49 -273 -966 0
49 -273 -967 0
49 -273 -968 0
49 -274 -963 0
49 -274 -964 0
49 -274 -965 0
49 -274 -966 0
49 -274 -967 0
49 -274 -968 0
49 -274 -969 0
49 -268 -1979 0
49 -269 -1979 0
49 -269 -1980 0
49 -270 -1979 0
49 -270 -1980 0
49 -270 -1981 0
49 -271 -1979 0
49 -271 -1980 0
49 -271 -1981 0
49 -271 -1982 0
49 -272 -1979 0
49 -272 -1980 0
49 -272 -1981 0
49 -272 -1982 0
49 -272 -1983 0
49 -273 -1979 0
49 -273 -1980 0
49 -273 -1981 0
49 -273 -1982 0
49 -273 -1983 0
49 -273 -1984 0
49 -274 -1979 0
49 -274 -1980 0
49 -274 -1981 0
49 -274 -1982 0
49 -274 -1983 0
49 -274 -1984 0
49 -274 -1985 0
49 -268 -1987 0
49 -269 -1987 0
49 -269 -1988 0
49 -270 -1987 0
49 -270 -1988 0
49 -270 -1989 0
49 -271 -1987 0
49 -271 -1988 0
49 -271 -1989 0
49 -271 -1990 0
49 -272 -1987 0
49 -272 -1988 0
49 -272 -1989 0
49 -272 -1990 0
49 -272 -1991 0
49 -273 -1988 0
49 -273 -1989 0
49 -273 -1990 0
49 -273 -1991 0
49 -273 -1992 0
49 -274 -1989 0
49 -274 -1990 0
49 -274 -1991 0
49 -274 -1992 0
49 -274 -1993 0
49 -275 276 0
49 -277 278 0
49 -279 286 0
49 -280 287 0
49 -281 288 0
49 -282 289 0
49 -283 290 0
49 -284 291 0
49 -285 292 0
49 -279 -531 0
49 -279 -532 0
49 -279 -533 0
49 -279 -534 0
49 -279 -535 0
49 -279 -536 0
49 -280 -532 0
49 -280 -533 0
49 -280 -534 0
49 -280 -535 0
49 -280 -536 0
49 -281 -533 0
49 -281 -534 0
49 -281 -535 0
49 -281 -536 0
49 -282 -534 0
49 -282 -535 0
49 -282 -536 0
49 -283 -535 0
49 -283 -536 0
49 -284 -536 0
49 -286 -456 0
49 -287 -456 0
49 -288 -456 0
49 -289 -456 0
49 -290 -456 0
49 -293 294 0
49 -295 296 0
49 -297 304 0
49 -298 305 0
49 -299 306 0
49 -300 307 0
49 -301 308 0
49 -302 309 0
49 -303 310 0
49 -301 -573 0
49 -302 -573 0
49 -302 -574 0
49 -303 -573 0
49 -303 -574 0
49 -303 -575 0
49 -298 -1382 0
49 -299 -1382 0
49 -299 -1383 0
49 -300 -1382 0
49 -300 -1383 0
49 -300 -1384 0
49 -301 -1382 0
49 -301 -1383 0
49 -301 -1384 0
49 -301 -1385 0
49 -302 -1382 0
49 -302 -1383 0
49 -302 -1384 0
49 -302 -1385 0
49 -302 -1386 0
49 -303 -1382 0
49 -303 -1383 0
49 -303 -1384 0
49 -303 -1385 0
49 -303 -1386 0
49 -303 -1387 0
49 -306 -321 0
49 -307 -321 0
49 -307 -322 0
49 -308 -321 0
49 -308 -322 0
49 -308 -323 0
49 -309 -321 0
49 -309 -322 0
49 -309 -323 0
49 -309 -324 0
49 -310 -321 0
49 -310 -322 0
49 -310 -323 0
49 -310 -324 0
49 -310 -325 0
49 -304 -1462 0
49 -304 -1463 0
49 -304 -1464 0
49 -305 -1463 0
49 -305 -1464 0
49 -305 -1465 0
49 -306 -1464 0
49 -306 -1465 0
49 -306 -1466 0
49 -307 -1465 0
49 -307 -1466 0
49 -307 -1467 0
49 -308 -1466 0
49 -308 -1467 0
49 -308 -1468 0
49 -309 -1467 0
49 -309 -1468 0
49 -310 -1468 0
49 -311 312 0
49 -313 314 0
49 -315 316 0
49 -317 318 0
49 -319 320 0
49 -321 329 0
49 -322 330 0
49 -323 331 0
49 -324 332 0
49 -325 333 0
49 -326 334 0
49 -327 335 0
49 -328 336 0
49 -325 -764 0
49 -326 -765 0
49 -327 -766 0
49 -321 -768 0
49 -321 -769 0
49 -321 -770 0
49 -322 -768 0
49 -322 -769 0
49 -322 -770 0
49 -323 -768 0
49 -323 -769 0
49 -323 -770 0
49 -324 -768 0
49 -324 -769 0
49 -324 -770 0
49 -325 -768 0
49 -325 -769 0
49 -325 -770 0
49 -326 -769 0
49 -326 -770 0
49 -327 -770 0
49 -329 -1383 0
49 -329 -1384 0
49 -329 -1385 0
49 -329 -1386 0
49 -329 -1387 0
49 -329 -1388 0
49 -330 -1383 0
49 -330 -1384 0
49 -330 -1385 0
49 -330 -1386 0
49 -330 -1387 0
49 -330 -1388 0
49 -330 -1389 0
49 -331 -1384 0
49 -331 -1385 0
49 -331 -1386 0
49 -331 -1387 0
49 -331 -1388 0
49 -331 -1389 0
49 -331 -1390 0
49 -332 -1385 0
49 -332 -1386 0
49 -332 -1387 0
49 -332 -1388 0
49 -332 -1389 0
49 -332 -1390 0
49 -332 -1391 0
49 -333 -1386 0
49 -333 -1387 0
49 -333 -1388 0
49 -333 -1389 0
49 -333 -1390 0
49 -333 -1391 0
49 -334 -1387 0
49 -334 -1388 0
49 -334 -1389 0
49 -334 -1390 0
49 -334 -1391 0
49 -335 -1388 0
49 -335 -1389 0
49 -335 -1390 0
49 -335 -1391 0
49 -336 -1389 0
49 -336 -1390 0
49 -336 -1391 0
49 -329 -1466 0
49 -329 -1467 0
49 -329 -1468 0
49 -330 -1467 0
49 -330 -1468 0
49 -331 -1468 0
49 -337 338 0
49 -339 347 0
49 -340 348 0
49 -341 349 0
49 -342 350 0
49 -343 351 0
49 -344 352 0
49 -345 353 0
49 -346 354 0
49 -339 -1124 0
49 -339 -1125 0
49 -339 -1126 0
49 -339 -1127 0
49 -339 -1128 0
49 -339 -1129 0
49 -339 -1130 0
49 -340 -1125 0
49 -340 -1126 0
49 -340 -1127 0
49 -340 -1128 0
49 -340 -1129 0
49 -340 -1130 0
49 -341 -1126 0
49 -341 -1127 0
49 -341 -1128 0
49 -341 -1129 0
49 -341 -1130 0
49 -342 -1127 0
49 -342 -1128 0
49 -342 -1129 0
49 -342 -1130 0
49 -343 -1128 0
49 -343 -1129 0
49 -343 -1130 0
49 -344 -1129 0
49 -344 -1130 0
49 -345 -1130 0
49 -355 356 0
49 -357 365 0
49 -358 366 0
49 -359 367 0
49 -360 368 0
49 -361 369 0
49 -362 370 0
49 -363 371 0
49 -364 372 0
49 -358 -931 0
49 -359 -932 0
49 -360 -933 0
49 -361 -934 0
49 -362 -935 0
49 -363 -936 0
49 -360 -937 0
49 -361 -937 0
49 -361 -938 0
49 -362 -937 0
49 -362 -938 0
49 -362 -939 0
49 -363 -937 0
49 -363 -938 0
49 -363 -939 0
49 -363 -940 0
49 -364 -937 0
49 -364 -938 0
49 -364 -939 0
49 -364 -940 0
49 -364 -941 0
49 -366 -937 0
49 -367 -938 0
49 -368 -939 0
49 -369 -940 0
49 -370 -941 0
49 -371 -942 0
49 -365 -1395 0
49 -366 -1395 0
49 -366 -1396 0
49 -367 -1395 0
49 -367 -1396 0
49 -367 -1397 0
49 -368 -1395 0
49 -368 -1396 0
49 -368 -1397 0
49 -369 -1395 0
49 -369 -1396 0
49 -369 -1397 0
49 -370 -1395 0
49 -370 -1396 0
49 -370 -1397 0
49 -371 -1395 0
49 -371 -1396 0
49 -371 -1397 0
49 -372 -1396 0
49 -372 -1397 0
49 -367 -1409 0
49 -368 -1409 0
49 -369 -1409 0
49 -370 -1409 0
49 -371 -1409 0
49 -365 -1697 0
49 -366 -1697 0
49 -367 -1697 0
49 -368 -1697 0
49 -369 -1697 0
49 -370 -1697 0
49 -371 -1697 0
49 -373 374 0
49 -375 376 0
49 -377 380 0
49 -378 381 0
49 -379 382 0
49 -378 -1738 0
49 -378 -1739 0
49 -378 -1740 0
49 -378 -1741 0
49 -378 -1742 0
49 -378 -1743 0
49 -378 -1744 0
49 -379 -1739 0
49 -379 -1740 0
49 -379 -1741 0
49 -379 -1742 0
49 -379 -1743 0
49 -379 -1744 0
49 -381 -400 0
49 -380 -1228 0
49 -381 -1269 0
49 -381 -1270 0
49 -381 -1271 0
49 -381 -1272 0
49 -382 -1269 0
49 -382 -1270 0
49 -382 -1271 0
49 -382 -1272 0
49 -382 -1273 0
49 -381 -1473 0
49 -381 -1474 0
49 -381 -1475 0
49 -381 -1476 0
49 -381 -1477 0
49 -381 -1478 0
49 -382 -1473 0
49 -382 -1474 0
49 -382 -1475 0
49 -382 -1476 0
49 -382 -1477 0
49 -382 -1478 0
49 -382 -1479 0
49 -381 -1729 0
49 -381 -1730 0
49 -381 -1731 0
49 -381 -1732 0
49 -381 -1733 0
49 -381 -1734 0
49 -382 -1729 0
49 -382 -1730 0
49 -382 -1731 0
49 -382 -1732 0
49 -382 -1733 0
49 -382 -1734 0
49 -382 -1735 0
49 -381 -1738 0
49 -381 -1739 0
49 -381 -1740 0
49 -381 -1741 0
49 -381 -1742 0
49 -382 -1739 0
49 -382 -1740 0
49 -382 -1741 0
49 -382 -1742 0
49 -382 -1743 0
49 -381 -1910 0
49 -381 -1911 0
49 -381 -1912 0
49 -381 -1913 0
49 -381 -1914 0
49 -382 -1910 0
49 -382 -1911 0
49 -382 -1912 0
49 -382 -1913 0
49 -382 -1914 0
49 -382 -1915 0
49 -383 385 0
49 -384 386 0
49 -384 -646 0
49 -384 -654 0
49 -384 -655 0
49 -384 -656 0
49 -384 -657 0
49 -384 -658 0
49 -384 -659 0
49 -384 -660 0
49 -383 -1459 0
49 -386 -1372 0
49 -387 388 0
49 -389 390 0
49 -391 392 0
49 -393 397 0
49 -394 398 0
49 -395 399 0
49 -396 400 0
49 -394 -1230 0
49 -395 -1230 0
49 -396 -1230 0
49 -394 -1271 0
49 -394 -1272 0
49 -394 -1273 0
49 -394 -1274 0
49 -395 -1272 0
49 -395 -1273 0
49 -395 -1274 0
49 -396 -1273 0
49 -396 -1274 0
49 -393 -1459 0
49 -393 -1460 0
49 -393 -1461 0
49 -393 -1462 0
49 -393 -1463 0
49 -393 -1464 0
49 -394 -1924 0
49 -394 -1925 0
49 -394 -1926 0
49 -394 -1927 0
49 -394 -1928 0
49 -394 -1929 0
49 -394 -1930 0
49 -395 -1925 0
49 -395 -1926 0
49 -395 -1927 0
49 -395 -1928 0
49 -395 -1929 0
49 -395 -1930 0
49 -396 -1926 0
49 -396 -1927 0
49 -396 -1928 0
49 -396 -1929 0
49 -396 -1930 0
49 -398 -1269 0
49 -399 -1269 0
49 -399 -1270 0
49 -400 -1269 0
49 -400 -1270 0
49 -400 -1271 0
49 -398 -1473 0
49 -398 -1474 0
49 -398 -1475 0
49 -398 -1476 0
49 -398 -1477 0
49 -399 -1473 0
49 -399 -1474 0
49 -399 -1475 0
49 -399 -1476 0
49 -399 -1477 0
49 -399 -1478 0
49 -400 -1473 0
49 -400 -1474 0
49 -400 -1475 0
49 -400 -1476 0
49 -400 -1477 0
49 -400 -1478 0
49 -400 -1479 0
49 -398 -1729 0
49 -398 -1730 0
49 -398 -1731 0
49 -398 -1732 0
49 -398 -1733 0
49 -399 -1729 0
49 -399 -1730 0
49 -399 -1731 0
49 -399 -1732 0
49 -399 -1733 0
49 -399 -1734 0
49 -400 -1729 0
49 -400 -1730 0
49 -400 -1731 0
49 -400 -1732 0
49 -400 -1733 0
49 -400 -1734 0
49 -400 -1735 0
49 -401 402 0
49 -403 411 0
49 -404 412 0
49 -405 413 0
49 -406 414 0
49 -407 415 0
49 -408 416 0
49 -409 417 0
49 -410 418 0
49 -403 -1292 0
49 -404 -1292 0
49 -404 -1293 0
49 -405 -1292 0
49 -405 -1293 0
49 -405 -1294 0
49 -406 -1292 0
49 -406 -1293 0
49 -406 -1294 0
49 -406 -1295 0
49 -407 -1292 0
49 -407 -1293 0
49 -407 -1294 0
49 -407 -1295 0
49 -407 -1296 0
49 -408 -1292 0
49 -408 -1293 0
49 -408 -1294 0
49 -408 -1295 0
49 -408 -1296 0
49 -409 -1292 0
49 -409 -1293 0
49 -409 -1294 0
49 -409 -1295 0
49 -409 -1296 0
49 -410 -1293 0
49 -410 -1294 0
49 -410 -1295 0
49 -410 -1296 0
49 -403 -1702 0
49 -404 -1703 0
49 -405 -1704 0
49 -406 -1705 0
49 -407 -1706 0
49 -408 -1707 0
49 -409 -1708 0
49 -412 -1701 0
49 -413 -1701 0
49 -413 -1702 0
49 -414 -1701 0
49 -414 -1702 0
49 -414 -1703 0
49 -415 -1701 0
49 -415 -1702 0
49 -415 -1703 0
49 -415 -1704 0
49 -416 -1701 0
49 -416 -1702 0
49 -416 -1703 0
49 -416 -1704 0
49 -416 -1705 0
49 -417 -1701 0
49 -417 -1702 0
49 -417 -1703 0
49 -417 -1704 0
49 -417 -1705 0
49 -417 -1706 0
49 -418 -1701 0
49 -418 -1702 0
49 -418 -1703 0
49 -418 -1704 0
49 -418 -1705 0
49 -418 -1706 0
49 -418 -1707 0
49 -419 420 0
49 -421 429 0
49 -422 430 0
49 -423 431 0
49 -424 432 0
49 -425 433 0
49 -426 434 0
49 -427 435 0
49 -428 436 0
49 -422 -791 0
49 -423 -791 0
49 -423 -792 0
49 -424 -791 0
49 -424 -792 0
49 -424 -793 0
49 -425 -792 0
49 -425 -793 0
49 -425 -794 0
49 -426 -793 0
49 -426 -794 0
49 -426 -795 0
49 -427 -794 0
49 -427 -795 0
49 -427 -796 0
49 -428 -795 0
49 -428 -796 0
49 -428 -797 0
49 -421 -800 0
49 -421 -801 0
49 -421 -802 0
49 -421 -803 0
49 -421 -804 0
49 -421 -805 0
49 -421 -806 0
49 -422 -801 0
49 -422 -802 0
49 -422 -803 0
49 -422 -804 0
49 -422 -805 0
49 -422 -806 0
49 -423 -802 0
49 -423 -803 0
49 -423 -804 0
49 -423 -805 0
49 -423 -806 0
49 -424 -803 0
49 -424 -804 0
49 -424 -805 0
49 -424 -806 0
49 -425 -804 0
49 -425 -805 0
49 -425 -806 0
49 -426 -805 0
49 -426 -806 0
49 -427 -806 0
49 -422 -2449 0
49 -423 -2450 0
49 -424 -2451 0
49 -425 -2452 0
49 -426 -2453 0
49 -427 -2454 0
49 -428 -2455 0
49 -421 -2458 0
49 -421 -2459 0
49 -421 -2460 0
49 -421 -2461 0
49 -421 -2462 0
49 -421 -2463 0
49 -421 -2464 0
49 -422 -2459 0
49 -422 -2460 0
49 -422 -2461 0
49 -422 -2462 0
49 -422 -2463 0
49 -422 -2464 0
49 -423 -2460 0
49 -423 -2461 0
49 -423 -2462 0
49 -423 -2463 0
49 -423 -2464 0
49 -424 -2461 0
49 -424 -2462 0
49 -424 -2463 0
49 -424 -2464 0
49 -425 -2462 0
49 -425 -2463 0
49 -425 -2464 0
49 -426 -2463 0
49 -426 -2464 0
49 -427 -2464 0
49 -430 -791 0
49 -431 -791 0
49 -431 -792 0
49 -432 -791 0
49 -432 -792 0
49 -432 -793 0
49 -433 -791 0
49 -433 -792 0
49 -433 -793 0
49 -433 -794 0
49 -434 -791 0
49 -434 -792 0
49 -434 -793 0
49 -434 -794 0
49 -434 -795 0
49 -435 -791 0
49 -435 -792 0
49 -435 -793 0
49 -435 -794 0
49 -435 -795 0
49 -435 -796 0
49 -436 -791 0
49 -436 -792 0
49 -436 -793 0
49 -436 -794 0
49 -436 -795 0
49 -436 -796 0
49 -436 -797 0
49 -430 -799 0
49 -431 -799 0
49 -431 -800 0
49 -432 -799 0
49 -432 -800 0
49 -432 -801 0
49 -433 -800 0
49 -433 -801 0
49 -433 -802 0
49 -434 -801 0
49 -434 -802 0
49 -434 -803 0
49 -435 -802 0
49 -435 -803 0
49 -435 -804 0
49 -436 -803 0
49 -436 -804 0
49 -436 -805 0
49 -430 -2449 0
49 -431 -2449 0
49 -431 -2450 0
49 -432 -2449 0
49 -432 -2450 0
49 -432 -2451 0
49 -433 -2449 0
49 -433 -2450 0
49 -433 -2451 0
49 -433 -2452 0
49 -434 -2449 0
49 -434 -2450 0
49 -434 -2451 0
49 -434 -2452 0
49 -434 -2453 0
49 -435 -2449 0
49 -435 -2450 0
49 -435 -2451 0
49 -435 -2452 0
49 -435 -2453 0
49 -435 -2454 0
49 -436 -2449 0
49 -436 -2450 0
49 -436 -2451 0
49 -436 -2452 0
49 -436 -2453 0
49 -436 -2454 0
49 -436 -2455 0
49 -430 -2457 0
49 -431 -2458 0
49 -432 -2459 0
49 -433 -2460 0
49 -434 -2461 0
49 -435 -2462 0
49 -436 -2463 0
49 -437 438 0
49 -439 440 0
49 -441 444 0
49 -442 445 0
49 -443 446 0
49 -441 -698 0
49 -441 -699 0
49 -441 -700 0
49 -441 -701 0
49 -441 -702 0
49 -441 -703 0
49 -441 -704 0
49 -442 -704 0
49 -447 448 0
49 -449 452 0
49 -450 453 0
49 -451 454 0
49 -450 -557 0
49 -450 -558 0
49 -451 -561 0
49 -451 -562 0
49 -451 -563 0
49 -451 -564 0
49 -449 -1190 0
49 -449 -1191 0
49 -450 -1190 0
49 -450 -1191 0
49 -453 -820 0
49 -455 457 0
49 -456 458 0
49 -458 -549 0
49 -458 -550 0
49 -458 -551 0
49 -458 -552 0
49 -458 -553 0
49 -458 -558 0
49 -458 -559 0
49 -458 -560 0
49 -458 -561 0
49 -459 467 0
49 -460 468 0
49 -461 469 0
49 -462 470 0
49 -463 471 0
49 -464 472 0
49 -465 473 0
49 -466 474 0
49 -459 -1584 0
49 -459 -1585 0
49 -459 -1586 0
49 -459 -1587 0
49 -459 -1588 0
49 -460 -1585 0
49 -460 -1586 0
49 -460 -1587 0
49 -460 -1588 0
49 -460 -1589 0
49 -461 -1586 0
49 -461 -1587 0
49 -461 -1588 0
49 -461 -1589 0
49 -461 -1590 0
49 -462 -1587 0
49 -462 -1588 0
49 -462 -1589 0
49 -462 -1590 0
49 -463 -1588 0
49 -463 -1589 0
49 -463 -1590 0
49 -464 -1589 0
49 -464 -1590 0
49 -465 -1590 0
49 -463 -1674 0
49 -464 -1674 0
49 -465 -1674 0
49 -459 -1676 0
49 -460 -1676 0
49 -461 -1676 0
49 -462 -1676 0
49 -463 -1676 0
49 -464 -1676 0
49 -465 -1676 0
49 -468 -1192 0
49 -469 -1192 0
49 -475 476 0
49 -477 481 0
49 -478 482 0
49 -479 483 0
49 -480 484 0
49 -482 -1489 0
49 -482 -1490 0
49 -483 -1489 0
49 -483 -1490 0
49 -483 -1491 0
49 -483 -1492 0
49 -484 -1489 0
49 -484 -1490 0
49 -484 -1491 0
49 -484 -1492 0
49 -484 -1493 0
49 -484 -1494 0
49 -485 493 0
49 -486 494 0
49 -487 495 0
49 -488 496 0
49 -489 497 0
49 -490 498 0
49 -491 499 0
49 -492 500 0
49 -491 -780 0
49 -491 -781 0
49 -491 -782 0
49 -491 -783 0
49 -491 -784 0
49 -491 -785 0
49 -491 -786 0
49 -492 -781 0
49 -492 -782 0
49 -492 -783 0
49 -492 -784 0
49 -492 -785 0
49 -492 -786 0
49 -493 -2200 0
49 -493 -2201 0
49 -493 -2202 0
49 -494 -2201 0
49 -494 -2202 0
49 -495 -2202 0
49 -496 -2202 0
49 -497 -2202 0
49 -493 -2295 0
49 -493 -2296 0
49 -493 -2297 0
49 -493 -2298 0
49 -493 -2299 0
49 -493 -2300 0
49 -493 -2301 0
49 -493 -2302 0
49 -494 -2296 0
49 -494 -2297 0
49 -494 -2298 0
49 -494 -2299 0
49 -494 -2300 0
49 -494 -2301 0
49 -494 -2302 0
49 -495 -2297 0
49 -495 -2298 0
49 -495 -2299 0
49 -495 -2300 0
49 -495 -2301 0
49 -495 -2302 0
49 -496 -2298 0
49 -496 -2299 0
49 -496 -2300 0
49 -496 -2301 0
49 -496 -2302 0
49 -497 -2299 0
49 -497 -2300 0
49 -497 -2301 0
49 -497 -2302 0
49 -501 512 0
49 -502 513 0
49 -503 514 0
49 -504 515 0
49 -505 516 0
49 -506 517 0
49 -507 518 0
49 -508 519 0
49 -509 520 0
49 -510 521 0
49 -511 522 0
49 -502 -2357 0
49 -503 -2357 0
49 -503 -2358 0
49 -504 -2357 0
49 -504 -2358 0
49 -504 -2359 0
49 -505 -2357 0
49 -505 -2358 0
49 -505 -2359 0
49 -505 -2360 0
49 -506 -2357 0
49 -506 -2358 0
49 -506 -2359 0
49 -506 -2360 0
49 -506 -2361 0
49 -507 -2358 0
49 -507 -2359 0
49 -507 -2360 0
49 -507 -2361 0
49 -507 -2362 0
49 -508 -2359 0
49 -508 -2360 0
49 -508 -2361 0
49 -508 -2362 0
49 -508 -2363 0
49 -509 -2360 0
49 -509 -2361 0
49 -509 -2362 0
49 -509 -2363 0
49 -509 -2364 0
49 -510 -2361 0
49 -510 -2362 0
49 -510 -2363 0
49 -510 -2364 0
49 -511 -2362 0
49 -511 -2363 0
49 -511 -2364 0
49 -501 -2715 0
49 -501 -2716 0
49 -501 -2717 0
49 -501 -2718 0
49 -501 -2719 0
49 -501 -2720 0
49 -502 -2716 0
49 -502 -2717 0
49 -502 -2718 0
49 -502 -2719 0
49 -502 -2720 0
49 -503 -2717 0
49 -503 -2718 0
49 -503 -2719 0
49 -503 -2720 0
49 -504 -2717 0
49 -504 -2718 0
49 -504 -2719 0
49 -504 -2720 0
49 -505 -2718 0
49 -505 -2719 0
49 -505 -2720 0
49 -506 -2719 0
49 -506 -2720 0
49 -507 -2720 0
49 -512 -2715 0
49 -512 -2716 0
49 -512 -2717 0
49 -512 -2718 0
49 -512 -2719 0
49 -512 -2720 0
49 -513 -2716 0
49 -513 -2717 0
49 -513 -2718 0
49 -513 -2719 0
49 -513 -2720 0
49 -514 -2717 0
49 -514 -2718 0
49 -514 -2719 0
49 -514 -2720 0
49 -515 -2717 0
49 -515 -2718 0
49 -515 -2719 0
49 -515 -2720 0
49 -516 -2718 0
49 -516 -2719 0
49 -516 -2720 0
49 -517 -2719 0
49 -517 -2720 0
49 -518 -2720 0
49 -513 -2835 0
49 -514 -2835 0
49 -514 -2836 0
49 -515 -2835 0
49 -515 -2836 0
49 -515 -2837 0
49 -516 -2836 0
49 -516 -2837 0
49 -516 -2838 0
49 -517 -2837 0
49 -517 -2838 0
49 -517 -2839 0
49 -518 -2838 0
49 -518 -2839 0
49 -518 -2840 0
49 -519 -2839 0
49 -519 -2840 0
49 -519 -2841 0
49 -520 -2840 0
49 -520 -2841 0
49 -520 -2842 0
49 -521 -2841 0
49 -521 -2842 0
49 -522 -2842 0
49 -523 530 0
49 -524 531 0
49 -525 532 0
49 -526 533 0
49 -527 534 0
49 -528 535 0
49 -529 536 0
49 -537 538 0
49 -539 544 0
49 -540 545 0
49 -541 546 0
49 -542 547 0
49 -543 548 0
49 -549 557 0
49 -550 558 0
49 -551 559 0
49 -552 560 0
49 -553 561 0
49 -554 562 0
49 -555 563 0
49 -556 564 0
49 -558 -743 0
49 -559 -743 0
49 -559 -744 0
49 -560 -743 0
49 -560 -744 0
49 -560 -745 0
49 -561 -743 0
49 -561 -744 0
49 -561 -745 0
49 -561 -746 0
49 -562 -743 0
49 -562 -744 0
49 -562 -745 0
49 -562 -746 0
49 -562 -747 0
49 -563 -743 0
49 -563 -744 0
49 -563 -745 0
49 -563 -746 0
49 -563 -747 0
49 -563 -748 0
49 -564 -743 0
49 -564 -744 0
49 -564 -745 0
49 -564 -746 0
49 -564 -747 0
49 -564 -748 0
49 -564 -749 0
49 -557 -754 0
49 -558 -755 0
49 -559 -756 0
49 -560 -757 0
49 -561 -758 0
49 -562 -759 0
49 -563 -760 0
49 -564 -761 0
49 -565 573 0
49 -566 574 0
49 -567 575 0
49 -568 576 0
49 -569 577 0
49 -570 578 0
49 -571 579 0
49 -572 580 0
49 -565 -2852 0
49 -565 -2853 0
49 -565 -2854 0
49 -565 -2855 0
49 -565 -2856 0
49 -566 -2852 0
49 -566 -2853 0
49 -566 -2854 0
49 -566 -2855 0
49 -566 -2856 0
49 -567 -2852 0
49 -567 -2853 0
49 -567 -2854 0
49 -567 -2855 0
49 -567 -2856 0
49 -568 -2853 0
49 -568 -2854 0
49 -568 -2855 0
49 -568 -2856 0
49 -569 -2854 0
49 -569 -2855 0
49 -569 -2856 0
49 -570 -2855 0
49 -570 -2856 0
49 -571 -2856 0
49 -574 -2859 0
49 -575 -2859 0
49 -575 -2860 0
49 -576 -2859 0
49 -576 -2860 0
49 -576 -2861 0
49 -577 -2859 0
49 -577 -2860 0
49 -577 -2861 0
49 -577 -2862 0
49 -578 -2859 0
49 -578 -2860 0
49 -578 -2861 0
49 -578 -2862 0
49 -578 -2863 0
49 -579 -2859 0
49 -579 -2860 0
49 -579 -2861 0
49 -579 -2862 0
49 -579 -2863 0
49 -579 -2864 0
49 -580 -2859 0
49 -580 -2860 0
49 -580 -2861 0
49 -580 -2862 0
49 -580 -2863 0
49 -580 -2864 0
49 -580 -2865 0
49 -573 -2868 0
49 -574 -2869 0
49 -575 -2870 0
49 -576 -2871 0
49 -577 -2872 0
49 -578 -2873 0
49 -579 -2874 0
49 -581 585 0
49 -582 586 0
49 -583 587 0
49 -584 588 0
49 -581 -864 0
49 -581 -865 0
49 -581 -866 0
49 -581 -867 0
49 -586 -2133 0
49 -586 -2134 0
49 -586 -2135 0
49 -586 -2136 0
49 -587 -2133 0
49 -587 -2134 0
49 -587 -2135 0
49 -587 -2136 0
49 -587 -2137 0
49 -588 -2133 0
49 -588 -2134 0
49 -588 -2135 0
49 -588 -2136 0
49 -588 -2137 0
49 -588 -2138 0
49 -586 -2689 0
49 -586 -2690 0
49 -586 -2691 0
49 -586 -2692 0
49 -586 -2693 0
49 -587 -2689 0
49 -587 -2690 0
49 -587 -2691 0
49 -587 -2692 0
49 -587 -2693 0
49 -587 -2694 0
49 -588 -2689 0
49 -588 -2690 0
49 -588 -2691 0
49 -588 -2692 0
49 -588 -2693 0
49 -588 -2694 0
49 -588 -2695 0
49 -589 590 0
49 -591 592 0
49 -593 594 0
49 -595 605 0
49 -596 606 0
49 -597 607 0
49 -598 608 0
49 -599 609 0
49 -600 610 0
49 -601 611 0
49 -602 612 0
49 -603 613 0
49 -604 614 0
49 -615 617 0
49 -616 618 0
49 -615 -1187 0
49 -615 -1188 0
49 -616 -1189 0
49 -616 -2317 0
49 -616 -2325 0
49 -616 -2326 0
49 -616 -2327 0
49 -616 -2328 0
49 -616 -2329 0
49 -619 622 0
49 -620 623 0
49 -621 624 0
49 -625 626 0
49 -627 628 0
49 -629 630 0
49 -631 632 0
49 -633 634 0
49 -635 636 0
49 -637 638 0
49 -639 640 0
49 -641 642 0
49 -643 644 0
49 -645 653 0
49 -646 654 0
49 -647 655 0
49 -648 656 0
49 -649 657 0
49 -650 658 0
49 -651 659 0
49 -652 660 0
49 -646 -1004 0
49 -646 -1005 0
49 -646 -1006 0
49 -646 -1007 0
49 -646 -1008 0
49 -646 -1009 0
49 -646 -1010 0
49 -647 -1005 0
49 -647 -1006 0
49 -647 -1007 0
49 -647 -1008 0
49 -647 -1009 0
49 -647 -1010 0
49 -648 -1006 0
49 -648 -1007 0
49 -648 -1008 0
49 -648 -1009 0
49 -648 -1010 0
49 -649 -1007 0
49 -649 -1008 0
49 -649 -1009 0
49 -649 -1010 0
49 -650 -1008 0
49 -650 -1009 0
49 -650 -1010 0
49 -651 -1009 0
49 -651 -1010 0
49 -652 -1010 0
49 -645 -1647 0
49 -645 -1648 0
49 -661 665 0
49 -662 666 0
49 -663 667 0
49 -664 668 0
49 -665 -724 0
49 -665 -725 0
49 -665 -726 0
49 -666 -725 0
49 -666 -726 0
49 -667 -726 0
49 -665 -1189 0
49 -666 -1189 0
49 -667 -1189 0
49 -669 670 0
49 -671 674 0
49 -672 675 0
49 -673 676 0
49 -671 -931 0
49 -672 -933 0
49 -673 -935 0
49 -674 -817 0
49 -675 -817 0
49 -674 -1184 0
49 -675 -1184 0
49 -675 -1185 0
49 -676 -1185 0
49 -677 678 0
49 -679 680 0
49 -681 685 0
49 -682 686 0
49 -683 687 0
49 -684 688 0
49 -681 -1250 0
49 -681 -1251 0
49 -681 -1252 0
49 -682 -1251 0
49 -682 -1252 0
49 -683 -1252 0
49 -685 -1250 0
49 -685 -1251 0
49 -685 -1252 0
49 -686 -1251 0
49 -686 -1252 0
49 -687 -1252 0
49 -689 697 0
49 -690 698 0
49 -691 699 0
49 -692 700 0
49 -693 701 0
49 -694 702 0
49 -695 703 0
49 -696 704 0
49 -697 -1459 0
49 -697 -1460 0
49 -697 -1461 0
49 -698 -1460 0
49 -698 -1461 0
49 -699 -1461 0
49 -697 -1466 0
49 -697 -1467 0
49 -697 -1468 0
49 -698 -1467 0
49 -698 -1468 0
49 -699 -1468 0
49 -705 706 0
49 -707 708 0
49 -709 710 0
49 -711 712 0
49 -713 714 0
49 -715 716 0
49 -717 718 0
49 -719 720 0
49 -721 722 0
49 -723 727 0
49 -724 728 0
49 -725 729 0
49 -726 730 0
49 -731 737 0
49 -732 738 0
49 -733 739 0
49 -734 740 0
49 -735 741 0
49 -736 742 0
49 -743 753 0
49 -744 754 0
49 -745 755 0
49 -746 756 0
49 -747 757 0
49 -748 758 0
49 -749 759 0
49 -750 760 0
49 -751 761 0
49 -752 762 0
49 -752 -2280 0
49 -763 767 0
49 -764 768 0
49 -765 769 0
49 -766 770 0
49 -764 -1603 0
49 -765 -1604 0
49 -766 -1605 0
49 -763 -1608 0
49 -763 -1609 0
49 -763 -1610 0
49 -763 -1611 0
49 -763 -1612 0
49 -764 -1611 0
49 -764 -1612 0
49 -765 -1612 0
49 -768 -1601 0
49 -768 -1602 0
49 -768 -1603 0
49 -769 -1601 0
49 -769 -1602 0
49 -769 -1603 0
49 -769 -1604 0
49 -770 -1601 0
49 -770 -1602 0
49 -770 -1603 0
49 -770 -1604 0
49 -770 -1605 0
49 -768 -1609 0
49 -769 -1610 0
49 -770 -1611 0
49 -771 779 0
49 -772 780 0
49 -773 781 0
49 -774 782 0
49 -775 783 0
49 -776 784 0
49 -777 785 0
49 -778 786 0
49 -771 -2001 0
49 -771 -2002 0
49 -771 -2003 0
49 -771 -2004 0
49 -771 -2005 0
49 -772 -2002 0
49 -772 -2003 0
49 -772 -2004 0
49 -772 -2005 0
49 -772 -2006 0
49 -773 -2003 0
49 -773 -2004 0
49 -773 -2005 0
49 -773 -2006 0
49 -773 -2007 0
49 -774 -2004 0
49 -774 -2005 0
49 -774 -2006 0
49 -774 -2007 0
49 -774 -2008 0
49 -775 -2005 0
49 -775 -2006 0
49 -775 -2007 0
49 -775 -2008 0
49 -775 -2009 0
49 -776 -2006 0
49 -776 -2007 0
49 -776 -2008 0
49 -776 -2009 0
49 -776 -2010 0
49 -777 -2007 0
49 -777 -2008 0
49 -777 -2009 0
49 -777 -2010 0
49 -778 -2008 0
49 -778 -2009 0
49 -778 -2010 0
49 -771 -2386 0
49 -771 -2387 0
49 -771 -2388 0
49 -771 -2389 0
49 -771 -2390 0
49 -771 -2391 0
49 -771 -2392 0
49 -772 -2387 0
49 -772 -2388 0
49 -772 -2389 0
49 -772 -2390 0
49 -772 -2391 0
49 -772 -2392 0
49 -773 -2388 0
49 -773 -2389 0
49 -773 -2390 0
49 -773 -2391 0
49 -773 -2392 0
49 -774 -2389 0
49 -774 -2390 0
49 -774 -2391 0
49 -774 -2392 0
49 -775 -2390 0
49 -775 -2391 0
49 -775 -2392 0
49 -776 -2391 0
49 -776 -2392 0
49 -777 -2392 0
49 -780 -2027 0
49 -781 -2027 0
49 -781 -2028 0
49 -782 -2027 0
49 -782 -2028 0
49 -782 -2029 0
49 -783 -2027 0
49 -783 -2028 0
49 -783 -2029 0
49 -783 -2030 0
49 -784 -2027 0
49 -784 -2028 0
49 -784 -2029 0
49 -784 -2030 0
49 -784 -2031 0
49 -785 -2027 0
49 -785 -2028 0
49 -785 -2029 0
49 -785 -2030 0
49 -785 -2031 0
49 -785 -2032 0
49 -786 -2027 0
49 -786 -2028 0
49 -786 -2029 0
49 -786 -2030 0
49 -786 -2031 0
49 -786 -2032 0
49 -786 -2033 0
49 -779 -2036 0
49 -779 -2037 0
49 -779 -2038 0
49 -779 -2039 0
49 -779 -2040 0
49 -780 -2037 0
49 -780 -2038 0
49 -780 -2039 0
49 -780 -2040 0
49 -780 -2041 0
49 -781 -2038 0
49 -781 -2039 0
49 -781 -2040 0
49 -781 -2041 0
49 -781 -2042 0
49 -782 -2039 0
49 -782 -2040 0
49 -782 -2041 0
49 -782 -2042 0
49 -783 -2040 0
49 -783 -2041 0
49 -783 -2042 0
49 -784 -2041 0
49 -784 -2042 0
49 -785 -2042 0
49 -787 788 0
49 -789 790 0
49 -791 799 0
49 -792 800 0
49 -793 801 0
49 -794 802 0
49 -795 803 0
49 -796 804 0
49 -797 805 0
49 -798 806 0
49 -791 -2450 0
49 -792 -2451 0
49 -793 -2452 0
49 -794 -2453 0
49 -795 -2454 0
49 -796 -2455 0
49 -797 -2456 0
49 -791 -2458 0
49 -791 -2459 0
49 -791 -2460 0
49 -791 -2461 0
49 -791 -2462 0
49 -791 -2463 0
49 -791 -2464 0
49 -792 -2459 0
49 -792 -2460 0
49 -792 -2461 0
49 -792 -2462 0
49 -792 -2463 0
49 -792 -2464 0
49 -793 -2460 0
49 -793 -2461 0
49 -793 -2462 0
49 -793 -2463 0
49 -793 -2464 0
49 -794 -2461 0
49 -794 -2462 0
49 -794 -2463 0
49 -794 -2464 0
49 -795 -2462 0
49 -795 -2463 0
49 -795 -2464 0
49 -796 -2463 0
49 -796 -2464 0
49 -797 -2464 0
49 -800 -2449 0
49 -801 -2449 0
49 -801 -2450 0
49 -802 -2449 0
49 -802 -2450 0
49 -802 -2451 0
49 -803 -2449 0
49 -803 -2450 0
49 -803 -2451 0
49 -803 -2452 0
49 -804 -2449 0
49 -804 -2450 0
49 -804 -2451 0
49 -804 -2452 0
49 -804 -2453 0
49 -805 -2449 0
49 -805 -2450 0
49 -805 -2451 0
49 -805 -2452 0
49 -805 -2453 0
49 -805 -2454 0
49 -806 -2449 0
49 -806 -2450 0
49 -806 -2451 0
49 -806 -2452 0
49 -806 -2453 0
49 -806 -2454 0
49 -806 -2455 0
49 -799 -2458 0
49 -800 -2459 0
49 -801 -2460 0
49 -802 -2461 0
49 -803 -2462 0
49 -804 -2463 0
49 -805 -2464 0
49 -807 808 0
49 -809 810 0
49 -811 812 0
49 -813 814 0
49 -815 816 0
49 -817 820 0
49 -818 821 0
49 -819 822 0
49 -823 824 0
49 -825 826 0
49 -827 828 0
49 -829 853 0
49 -830 854 0
49 -831 855 0
49 -832 856 0
49 -833 844 0
49 -834 845 0
49 -835 846 0
49 -836 847 0
49 -837 848 0
49 -838 849 0
49 -839 850 0
49 -840 851 0
49 -841 852 0
49 -842 857 0
49 -843 858 0
49 -854 -2133 0
49 -855 -2133 0
49 -855 -2134 0
49 -856 -2133 0
49 -856 -2134 0
49 -856 -2135 0
49 -857 -2133 0
49 -857 -2134 0
49 -857 -2135 0
49 -857 -2136 0
49 -857 -2137 0
49 -857 -2138 0
49 -858 -2133 0
49 -858 -2134 0
49 -858 -2135 0
49 -858 -2136 0
49 -858 -2137 0
49 -858 -2138 0
49 -858 -2139 0
49 -855 -2627 0
49 -856 -2627 0
49 -856 -2628 0
49 -857 -2627 0
49 -857 -2628 0
49 -857 -2629 0
49 -857 -2630 0
49 -857 -2631 0
49 -858 -2627 0
49 -858 -2628 0
49 -858 -2629 0
49 -858 -2630 0
49 -858 -2631 0
49 -858 -2632 0
49 -844 -2665 0
49 -845 -2665 0
49 -846 -2665 0
49 -847 -2665 0
49 -848 -2665 0
49 -848 -2666 0
49 -849 -2665 0
49 -849 -2666 0
49 -849 -2667 0
49 -850 -2665 0
49 -850 -2666 0
49 -850 -2667 0
49 -850 -2668 0
49 -851 -2665 0
49 -851 -2666 0
49 -851 -2667 0
49 -851 -2668 0
49 -851 -2669 0
49 -852 -2665 0
49 -852 -2666 0
49 -852 -2667 0
49 -852 -2668 0
49 -852 -2669 0
49 -852 -2670 0
49 -853 -2666 0
49 -853 -2667 0
49 -853 -2668 0
49 -853 -2669 0
49 -853 -2670 0
49 -853 -2671 0
49 -853 -2672 0
49 -853 -2673 0
49 -853 -2674 0
49 -853 -2675 0
49 -853 -2676 0
49 -854 -2666 0
49 -854 -2667 0
49 -854 -2668 0
49 -854 -2669 0
49 -854 -2670 0
49 -854 -2671 0
49 -854 -2672 0
49 -854 -2673 0
49 -854 -2674 0
49 -854 -2675 0
49 -854 -2676 0
49 -855 -2666 0
49 -855 -2667 0
49 -855 -2668 0
49 -855 -2669 0
49 -855 -2670 0
49 -855 -2671 0
49 -855 -2672 0
49 -855 -2673 0
49 -855 -2674 0
49 -855 -2675 0
49 -855 -2676 0
49 -856 -2666 0
49 -856 -2667 0
49 -856 -2668 0
49 -856 -2669 0
49 -856 -2670 0
49 -856 -2671 0
49 -856 -2672 0
49 -856 -2673 0
49 -856 -2674 0
49 -856 -2675 0
49 -856 -2676 0
49 -857 -2666 0
49 -857 -2667 0
49 -857 -2668 0
49 -857 -2669 0
49 -857 -2670 0
49 -857 -2671 0
49 -857 -2672 0
49 -857 -2673 0
49 -857 -2674 0
49 -857 -2675 0
49 -857 -2676 0
49 -858 -2667 0
49 -858 -2668 0
49 -858 -2669 0
49 -858 -2670 0
49 -858 -2671 0
49 -858 -2672 0
49 -858 -2673 0
49 -858 -2674 0
49 -858 -2675 0
49 -858 -2676 0
49 -844 -2677 0
49 -844 -2678 0
49 -844 -2679 0
49 -844 -2680 0
49 -844 -2681 0
49 -845 -2677 0
49 -845 -2678 0
49 -845 -2679 0
49 -845 -2680 0
49 -845 -2681 0
49 -845 -2682 0
49 -846 -2677 0
49 -846 -2678 0
49 -846 -2679 0
49 -846 -2680 0
49 -846 -2681 0
49 -846 -2682 0
49 -846 -2683 0
49 -847 -2678 0
49 -847 -2679 0
49 -847 -2680 0
49 -847 -2681 0
49 -847 -2682 0
49 -847 -2683 0
49 -847 -2684 0
49 -848 -2679 0
49 -848 -2680 0
49 -848 -2681 0
49 -848 -2682 0
49 -848 -2683 0
49 -848 -2684 0
49 -848 -2685 0
49 -849 -2680 0
49 -849 -2681 0
49 -849 -2682 0
49 -849 -2683 0
49 -849 -2684 0
49 -849 -2685 0
49 -849 -2686 0
49 -850 -2681 0
49 -850 -2682 0
49 -850 -2683 0
49 -850 -2684 0
49 -850 -2685 0
49 -850 -2686 0
49 -850 -2687 0
49 -851 -2682 0
49 -851 -2683 0
49 -851 -2684 0
49 -851 -2685 0
49 -851 -2686 0
49 -851 -2687 0
49 -852 -2683 0
49 -852 -2684 0
49 -852 -2685 0
49 -852 -2686 0
49 -852 -2687 0
49 -854 -2688 0
49 -855 -2688 0
49 -856 -2688 0
49 -857 -2688 0
49 -858 -2688 0
49 -859 864 0
49 -860 865 0
49 -861 866 0
49 -862 867 0
49 -863 868 0
49 -869 870 0
49 -871 872 0
49 -873 874 0
49 -875 903 0
49 -876 904 0
49 -877 905 0
49 -878 906 0
49 -879 907 0
49 -880 908 0
49 -881 920 0
49 -882 921 0
49 -883 922 0
49 -884 923 0
49 -885 924 0
49 -886 925 0
49 -887 926 0
49 -888 927 0
49 -889 928 0
49 -890 929 0
49 -891 930 0
49 -892 909 0
49 -893 910 0
49 -894 911 0
49 -895 912 0
49 -896 913 0
49 -897 914 0
49 -898 915 0
49 -899 916 0
49 -900 917 0
49 -901 918 0
49 -902 919 0
49 -931 937 0
49 -932 938 0
49 -933 939 0
49 -934 940 0
49 -935 941 0
49 -936 942 0
49 -937 -1184 0
49 -938 -1184 0
49 -939 -1184 0
49 -939 -1185 0
49 -940 -1185 0
49 -941 -1185 0
49 -942 -1185 0
49 -943 944 0
49 -945 946 0
49 -947 956 0
49 -948 957 0
49 -949 958 0
49 -950 959 0
49 -951 960 0
49 -952 961 0
49 -953 962 0
49 -954 955 0
49 -963 971 0
49 -964 972 0
49 -965 973 0
49 -966 974 0
49 -967 975 0
49 -968 976 0
49 -969 977 0
49 -970 978 0
49 -975 -2130 0
49 -976 -2131 0
49 -977 -2132 0
49 -979 987 0
49 -980 988 0
49 -981 989 0
49 -982 990 0
49 -983 991 0
49 -984 992 0
49 -985 993 0
49 -986 994 0
49 -988 -1655 0
49 -989 -1655 0
49 -989 -1656 0
49 -990 -1655 0
49 -990 -1656 0
49 -990 -1657 0
49 -991 -1655 0
49 -991 -1656 0
49 -991 -1657 0
49 -991 -1658 0
49 -992 -1655 0
49 -992 -1656 0
49 -992 -1657 0
49 -992 -1658 0
49 -992 -1659 0
49 -993 -1655 0
49 -993 -1656 0
49 -993 -1657 0
49 -993 -1658 0
49 -993 -1659 0
49 -993 -1660 0
49 -994 -1655 0
49 -994 -1656 0
49 -994 -1657 0
49 -994 -1658 0
49 -994 -1659 0
49 -994 -1660 0
49 -994 -1661 0
49 -995 1003 0
49 -996 1004 0
49 -997 1005 0
49 -998 1006 0
49 -999 1007 0
49 -1000 1008 0
49 -1001 1009 0
49 -1002 1010 0
49 -995 -2088 0
49 -996 -2089 0
49 -997 -2090 0
49 -998 -2091 0
49 -999 -2092 0
49 -1000 -2093 0
49 -1001 -2094 0
49 -995 -2096 0
49 -995 -2097 0
49 -995 -2098 0
49 -995 -2099 0
49 -995 -2100 0
49 -995 -2101 0
49 -995 -2102 0
49 -996 -2097 0
49 -996 -2098 0
49 -996 -2099 0
49 -996 -2100 0
49 -996 -2101 0
49 -996 -2102 0
49 -997 -2098 0
49 -997 -2099 0
49 -997 -2100 0
49 -997 -2101 0
49 -997 -2102 0
49 -998 -2099 0
49 -998 -2100 0
49 -998 -2101 0
49 -998 -2102 0
49 -999 -2100 0
49 -999 -2101 0
49 -999 -2102 0
49 -1000 -2101 0
49 -1000 -2102 0
49 -1001 -2102 0
49 -1004 -2727 0
49 -1005 -2727 0
49 -1005 -2728 0
49 -1006 -2727 0
49 -1006 -2728 0
49 -1006 -2729 0
49 -1007 -2727 0
49 -1007 -2728 0
49 -1007 -2729 0
49 -1007 -2730 0
49 -1008 -2727 0
49 -1008 -2728 0
49 -1008 -2729 0
49 -1008 -2730 0
49 -1008 -2731 0
49 -1009 -2727 0
49 -1009 -2728 0
49 -1009 -2729 0
49 -1009 -2730 0
49 -1009 -2731 0
49 -1009 -2732 0
49 -1010 -2727 0
49 -1010 -2728 0
49 -1010 -2729 0
49 -1010 -2730 0
49 -1010 -2731 0
49 -1010 -2732 0
49 -1010 -2733 0
49 -1011 1012 0
49 -1013 1014 0
49 -1015 1016 0
49 -1017 1018 0
49 -1019 1020 0
49 -1021 1029 0
49 -1022 1030 0
49 -1023 1031 0
49 -1024 1032 0
49 -1025 1033 0
49 -1026 1034 0
49 -1027 1035 0
49 -1028 1036 0
49 -1030 -2215 0
49 -1031 -2215 0
49 -1031 -2216 0
49 -1032 -2215 0
49 -1032 -2216 0
49 -1032 -2217 0
49 -1033 -2215 0
49 -1033 -2216 0
49 -1033 -2217 0
49 -1033 -2218 0
49 -1034 -2215 0
49 -1034 -2216 0
49 -1034 -2217 0
49 -1034 -2218 0
49 -1034 -2219 0
49 -1035 -2215 0
49 -1035 -2216 0
49 -1035 -2217 0
49 -1035 -2218 0
49 -1035 -2219 0
49 -1035 -2220 0
49 -1036 -2215 0
49 -1036 -2216 0
49 -1036 -2217 0
49 -1036 -2218 0
49 -1036 -2219 0
49 -1036 -2220 0
49 -1036 -2221 0
49 -1037 1038 0
49 -1039 1047 0
49 -1040 1048 0
49 -1041 1049 0
49 -1042 1050 0
49 -1043 1051 0
49 -1044 1052 0
49 -1045 1053 0
49 -1046 1054 0
49 -1048 -1808 0
49 -1049 -1808 0
49 -1055 1056 0
49 -1057 1058 0
49 -1059 1060 0
49 -1061 1062 0
49 -1063 1071 0
49 -1064 1072 0
49 -1065 1073 0
49 -1066 1074 0
49 -1067 1075 0
49 -1068 1076 0
49 -1069 1077 0
49 -1070 1078 0
49 -1063 -2752 0
49 -1063 -2753 0
49 -1063 -2754 0
49 -1063 -2755 0
49 -1063 -2756 0
49 -1063 -2757 0
49 -1063 -2758 0
49 -1064 -2753 0
49 -1064 -2754 0
49 -1064 -2755 0
49 -1064 -2756 0
49 -1064 -2757 0
49 -1064 -2758 0
49 -1065 -2754 0
49 -1065 -2755 0
49 -1065 -2756 0
49 -1065 -2757 0
49 -1065 -2758 0
49 -1066 -2755 0
49 -1066 -2756 0
49 -1066 -2757 0
49 -1066 -2758 0
49 -1067 -2756 0
49 -1067 -2757 0
49 -1067 -2758 0
49 -1068 -2757 0
49 -1068 -2758 0
49 -1069 -2758 0
49 -1072 -1079 0
49 -1073 -1079 0
49 -1073 -1080 0
49 -1074 -1079 0
49 -1074 -1080 0
49 -1074 -1081 0
49 -1075 -1079 0
49 -1075 -1080 0
49 -1075 -1081 0
49 -1075 -1082 0
49 -1076 -1079 0
49 -1076 -1080 0
49 -1076 -1081 0
49 -1076 -1082 0
49 -1076 -1083 0
49 -1077 -1079 0
49 -1077 -1080 0
49 -1077 -1081 0
49 -1077 -1082 0
49 -1077 -1083 0
49 -1077 -1084 0
49 -1078 -1079 0
49 -1078 -1080 0
49 -1078 -1081 0
49 -1078 -1082 0
49 -1078 -1083 0
49 -1078 -1084 0
49 -1078 -1085 0
49 -1072 -2751 0
49 -1073 -2752 0
49 -1074 -2753 0
49 -1075 -2754 0
49 -1076 -2755 0
49 -1077 -2756 0
49 -1078 -2757 0
49 -1079 1087 0
49 -1080 1088 0
49 -1081 1089 0
49 -1082 1090 0
49 -1083 1091 0
49 -1084 1092 0
49 -1085 1093 0
49 -1086 1094 0
49 -1079 -1954 0
49 -1080 -1955 0
49 -1081 -1956 0
49 -1082 -1957 0
49 -1083 -1958 0
49 -1084 -1959 0
49 -1085 -1960 0
49 -1079 -1962 0
49 -1079 -1963 0
49 -1079 -1964 0
49 -1079 -1965 0
49 -1079 -1966 0
49 -1079 -1967 0
49 -1079 -1968 0
49 -1080 -1963 0
49 -1080 -1964 0
49 -1080 -1965 0
49 -1080 -1966 0
49 -1080 -1967 0
49 -1080 -1968 0
49 -1081 -1964 0
49 -1081 -1965 0
49 -1081 -1966 0
49 -1081 -1967 0
49 -1081 -1968 0
49 -1082 -1965 0
49 -1082 -1966 0
49 -1082 -1967 0
49 -1082 -1968 0
49 -1083 -1966 0
49 -1083 -1967 0
49 -1083 -1968 0
49 -1084 -1967 0
49 -1084 -1968 0
49 -1085 -1968 0
49 -1079 -2490 0
49 -1079 -2491 0
49 -1079 -2492 0
49 -1079 -2493 0
49 -1079 -2494 0
49 -1080 -2491 0
49 -1080 -2492 0
49 -1080 -2493 0
49 -1080 -2494 0
49 -1080 -2495 0
49 -1081 -2492 0
49 -1081 -2493 0
49 -1081 -2494 0
49 -1081 -2495 0
49 -1081 -2496 0
49 -1082 -2493 0
49 -1082 -2494 0
49 -1082 -2495 0
49 -1082 -2496 0
49 -1082 -2497 0
49 -1083 -2494 0
49 -1083 -2495 0
49 -1083 -2496 0
49 -1083 -2497 0
49 -1083 -2498 0
49 -1084 -2495 0
49 -1084 -2496 0
49 -1084 -2497 0
49 -1084 -2498 0
49 -1084 -2499 0
49 -1085 -2496 0
49 -1085 -2497 0
49 -1085 -2498 0
49 -1085 -2499 0
49 -1086 -2497 0
49 -1086 -2498 0
49 -1086 -2499 0
49 -1079 -2752 0
49 -1079 -2753 0
49 -1079 -2754 0
49 -1079 -2755 0
49 -1079 -2756 0
49 -1079 -2757 0
49 -1079 -2758 0
49 -1080 -2753 0
49 -1080 -2754 0
49 -1080 -2755 0
49 -1080 -2756 0
49 -1080 -2757 0
49 -1080 -2758 0
49 -1081 -2754 0
49 -1081 -2755 0
49 -1081 -2756 0
49 -1081 -2757 0
49 -1081 -2758 0
49 -1082 -2755 0
49 -1082 -2756 0
49 -1082 -2757 0
49 -1082 -2758 0
49 -1083 -2756 0
49 -1083 -2757 0
49 -1083 -2758 0
49 -1084 -2757 0
49 -1084 -2758 0
49 -1085 -2758 0
49 -1087 -2501 0
49 -1087 -2502 0
49 -1087 -2503 0
49 -1087 -2504 0
49 -1087 -2505 0
49 -1088 -2502 0
49 -1088 -2503 0
49 -1088 -2504 0
49 -1088 -2505 0
49 -1088 -2506 0
49 -1089 -2503 0
49 -1089 -2504 0
49 -1089 -2505 0
49 -1089 -2506 0
49 -1089 -2507 0
49 -1090 -2504 0
49 -1090 -2505 0
49 -1090 -2506 0
49 -1090 -2507 0
49 -1090 -2508 0
49 -1091 -2505 0
49 -1091 -2506 0
49 -1091 -2507 0
49 -1091 -2508 0
49 -1091 -2509 0
49 -1092 -2506 0
49 -1092 -2507 0
49 -1092 -2508 0
49 -1092 -2509 0
49 -1092 -2510 0
49 -1093 -2507 0
49 -1093 -2508 0
49 -1093 -2509 0
49 -1093 -2510 0
49 -1094 -2508 0
49 -1094 -2509 0
49 -1094 -2510 0
49 -1087 -2752 0
49 -1088 -2753 0
49 -1089 -2754 0
49 -1090 -2755 0
49 -1091 -2756 0
49 -1092 -2757 0
49 -1093 -2758 0
49 -1095 1096 0
49 -1097 1098 0
49 -1099 1100 0
49 -1101 1102 0
49 -1103 1104 0
49 -1105 1106 0
49 -1107 1110 0
49 -1108 1111 0
49 -1109 1112 0
49 -1107 -2264 0
49 -1108 -2270 0
49 -1107 -2272 0
49 -1107 -2273 0
49 -1107 -2274 0
49 -1107 -2275 0
49 -1107 -2276 0
49 -1107 -2277 0
49 -1107 -2278 0
49 -1108 -2278 0
49 -1108 -2478 0
49 -1109 -2479 0
49 -1107 -2482 0
49 -1107 -2483 0
49 -1107 -2484 0
49 -1107 -2485 0
49 -1107 -2486 0
49 -1107 -2487 0
49 -1107 -2488 0
49 -1108 -2488 0
49 -1107 -2518 0
49 -1108 -2524 0
49 -1107 -2526 0
49 -1107 -2527 0
49 -1107 -2528 0
49 -1107 -2529 0
49 -1107 -2530 0
49 -1107 -2531 0
49 -1107 -2532 0
49 -1108 -2532 0
49 -1111 -2263 0
49 -1111 -2264 0
49 -1111 -2265 0
49 -1111 -2266 0
49 -1111 -2267 0
49 -1111 -2268 0
49 -1112 -2263 0
49 -1112 -2264 0
49 -1112 -2265 0
49 -1112 -2266 0
49 -1112 -2267 0
49 -1112 -2268 0
49 -1112 -2269 0
49 -1110 -2272 0
49 -1111 -2278 0
49 -1111 -2473 0
49 -1111 -2474 0
49 -1111 -2475 0
49 -1111 -2476 0
49 -1111 -2477 0
49 -1111 -2478 0
49 -1112 -2473 0
49 -1112 -2474 0
49 -1112 -2475 0
49 -1112 -2476 0
49 -1112 -2477 0
49 -1112 -2478 0
49 -1112 -2479 0
49 -1111 -2486 0
49 -1112 -2487 0
49 -1113 1114 0
49 -1115 1123 0
49 -1116 1124 0
49 -1117 1125 0
49 -1118 1126 0
49 -1119 1127 0
49 -1120 1128 0
49 -1121 1129 0
49 -1122 1130 0
49 -1115 -2588 0
49 -1115 -2589 0
49 -1115 -2590 0
49 -1116 -2589 0
49 -1116 -2590 0
49 -1116 -2591 0
49 -1117 -2590 0
49 -1117 -2591 0
49 -1117 -2592 0
49 -1118 -2591 0
49 -1118 -2592 0
49 -1118 -2593 0
49 -1119 -2592 0
49 -1119 -2593 0
49 -1119 -2594 0
49 -1120 -2593 0
49 -1120 -2594 0
49 -1121 -2594 0
49 -1115 -2596 0
49 -1115 -2597 0
49 -1115 -2598 0
49 -1115 -2599 0
49 -1115 -2600 0
49 -1115 -2601 0
49 -1115 -2602 0
49 -1116 -2597 0
49 -1116 -2598 0
49 -1116 -2599 0
49 -1116 -2600 0
49 -1116 -2601 0
49 -1116 -2602 0
49 -1117 -2598 0
49 -1117 -2599 0
49 -1117 -2600 0
49 -1117 -2601 0
49 -1117 -2602 0
49 -1118 -2599 0
49 -1118 -2600 0
49 -1118 -2601 0
49 -1118 -2602 0
49 -1119 -2600 0
49 -1119 -2601 0
49 -1119 -2602 0
49 -1120 -2601 0
49 -1120 -2602 0
49 -1121 -2602 0
49 -1131 1132 0
49 -1133 1134 0
49 -1135 1143 0
49 -1136 1144 0
49 -1137 1145 0
49 -1138 1146 0
49 -1139 1147 0
49 -1140 1148 0
49 -1141 1149 0
49 -1142 1150 0
49 -1135 -2828 0
49 -1136 -2829 0
49 -1137 -2830 0
49 -1138 -2831 0
49 -1139 -2832 0
49 -1140 -2833 0
49 -1141 -2834 0
49 -1135 -2836 0
49 -1135 -2837 0
49 -1135 -2838 0
49 -1135 -2839 0
49 -1135 -2840 0
49 -1135 -2841 0
49 -1135 -2842 0
49 -1136 -2837 0
49 -1136 -2838 0
49 -1136 -2839 0
49 -1136 -2840 0
49 -1136 -2841 0
49 -1136 -2842 0
49 -1137 -2838 0
49 -1137 -2839 0
49 -1137 -2840 0
49 -1137 -2841 0
49 -1137 -2842 0
49 -1138 -2839 0
49 -1138 -2840 0
49 -1138 -2841 0
49 -1138 -2842 0
49 -1139 -2840 0
49 -1139 -2841 0
49 -1139 -2842 0
49 -1140 -2841 0
49 -1140 -2842 0
49 -1141 -2842 0
49 -1143 -1829 0
49 -1143 -1830 0
49 -1143 -1831 0
49 -1143 -1832 0
49 -1143 -1833 0
49 -1144 -1830 0
49 -1144 -1831 0
49 -1144 -1832 0
49 -1144 -1833 0
49 -1144 -1834 0
49 -1145 -1831 0
49 -1145 -1832 0
49 -1145 -1833 0
49 -1145 -1834 0
49 -1145 -1835 0
49 -1146 -1832 0
49 -1146 -1833 0
49 -1146 -1834 0
49 -1146 -1835 0
49 -1146 -1836 0
49 -1147 -1833 0
49 -1147 -1834 0
49 -1147 -1835 0
49 -1147 -1836 0
49 -1147 -1837 0
49 -1148 -1834 0
49 -1148 -1835 0
49 -1148 -1836 0
49 -1148 -1837 0
49 -1148 -1838 0
49 -1149 -1835 0
49 -1149 -1836 0
49 -1149 -1837 0
49 -1149 -1838 0
49 -1150 -1836 0
49 -1150 -1837 0
49 -1150 -1838 0
49 -1151 1155 0
49 -1152 1156 0
49 -1153 1157 0
49 -1154 1158 0
49 -1151 -1218 0
49 -1151 -1219 0
49 -1151 -1220 0
49 -1151 -1221 0
49 -1151 -1222 0
49 -1151 -1223 0
49 -1152 -1341 0
49 -1152 -1342 0
49 -1152 -1343 0
49 -1152 -1344 0
49 -1152 -1345 0
49 -1153 -1341 0
49 -1153 -1342 0
49 -1153 -1343 0
49 -1153 -1344 0
49 -1153 -1345 0
49 -1153 -1346 0
49 -1154 -1341 0
49 -1154 -1342 0
49 -1154 -1343 0
49 -1154 -1344 0
49 -1154 -1345 0
49 -1154 -1346 0
49 -1154 -1347 0
49 -1151 -1771 0
49 -1152 -1772 0
49 -1156 -1341 0
49 -1156 -1342 0
49 -1156 -1343 0
49 -1156 -1344 0
49 -1157 -1341 0
49 -1157 -1342 0
49 -1157 -1343 0
49 -1157 -1344 0
49 -1157 -1345 0
49 -1158 -1341 0
49 -1158 -1342 0
49 -1158 -1343 0
49 -1158 -1344 0
49 -1158 -1345 0
49 -1158 -1346 0
49 -1159 1184 0
49 -1160 1185 0
49 -1161 1186 0
49 -1162 1173 0
49 -1163 1174 0
49 -1164 1175 0
49 -1165 1176 0
49 -1166 1177 0
49 -1167 1178 0
49 -1168 1179 0
49 -1169 1180 0
49 -1170 1181 0
49 -1171 1182 0
49 -1172 1183 0
49 -1159 -1395 0
49 -1160 -1395 0
49 -1172 -2811 0
49 -1187 1190 0
49 -1188 1191 0
49 -1189 1192 0
49 -1190 -2567 0
49 -1191 -2567 0
49 -1191 -2568 0
49 -1191 -2569 0
49 -1192 -2568 0
49 -1192 -2569 0
49 -1192 -2570 0
49 -1192 -2571 0
49 -1192 -2572 0
49 -1192 -2573 0
49 -1192 -2574 0
49 -1193 1194 0
49 -1195 1201 0
49 -1196 1202 0
49 -1197 1203 0
49 -1198 1204 0
49 -1199 1205 0
49 -1200 1206 0
49 -1201 -2783 0
49 -1202 -2783 0
49 -1203 -2783 0
49 -1204 -2783 0
49 -1205 -2783 0
49 -1201 -2784 0
49 -1201 -2785 0
49 -1202 -2784 0
49 -1202 -2785 0
49 -1203 -2785 0
49 -1207 1208 0
49 -1209 1210 0
49 -1211 1224 0
49 -1212 1218 0
49 -1213 1219 0
49 -1214 1220 0
49 -1215 1221 0
49 -1216 1222 0
49 -1217 1223 0
49 -1212 -2118 0
49 -1213 -2118 0
49 -1214 -2118 0
49 -1214 -2119 0
49 -1215 -2118 0
49 -1215 -2119 0
49 -1215 -2120 0
49 -1216 -2118 0
49 -1216 -2119 0
49 -1216 -2120 0
49 -1217 -2118 0
49 -1217 -2119 0
49 -1217 -2120 0
49 -1225 1226 0
49 -1227 1229 0
49 -1228 1230 0
49 -1228 -1268 0
49 -1230 -1262 0
49 -1230 -1263 0
49 -1230 -1264 0
49 -1230 -1265 0
49 -1230 -1266 0
49 -1230 -1473 0
49 -1230 -1474 0
49 -1230 -1475 0
49 -1230 -1476 0
49 -1230 -1477 0
49 -1231 1232 0
49 -1233 1234 0
49 -1235 1242 0
49 -1236 1243 0
49 -1237 1244 0
49 -1238 1245 0
49 -1239 1246 0
49 -1240 1247 0
49 -1241 1248 0
49 -1243 -1443 0
49 -1244 -1443 0
49 -1245 -1443 0
49 -1245 -1444 0
49 -1246 -1443 0
49 -1246 -1444 0
49 -1246 -1445 0
49 -1247 -1443 0
49 -1247 -1444 0
49 -1247 -1445 0
49 -1247 -1446 0
49 -1248 -1443 0
49 -1248 -1444 0
49 -1248 -1445 0
49 -1248 -1446 0
49 -1248 -1447 0
49 -1249 1253 0
49 -1250 1254 0
49 -1251 1255 0
49 -1252 1256 0
49 -1257 1258 0
49 -1259 1260 0
49 -1261 1268 0
49 -1262 1269 0
49 -1263 1270 0
49 -1264 1271 0
49 -1265 1272 0
49 -1266 1273 0
49 -1267 1274 0
49 -1275 1283 0
49 -1276 1284 0
49 -1277 1285 0
49 -1278 1286 0
49 -1279 1287 0
49 -1280 1288 0
49 -1281 1289 0
49 -1282 1290 0
49 -1275 -2028 0
49 -1275 -2029 0
49 -1275 -2030 0
49 -1276 -2029 0
49 -1276 -2030 0
49 -1276 -2031 0
49 -1277 -2030 0
49 -1277 -2031 0
49 -1277 -2032 0
49 -1278 -2031 0
49 -1278 -2032 0
49 -1278 -2033 0
49 -1279 -2032 0
49 -1279 -2033 0
49 -1279 -2034 0
49 -1280 -2033 0
49 -1280 -2034 0
49 -1281 -2034 0
49 -1275 -2036 0
49 -1275 -2037 0
49 -1275 -2038 0
49 -1275 -2039 0
49 -1275 -2040 0
49 -1275 -2041 0
49 -1275 -2042 0
49 -1276 -2037 0
49 -1276 -2038 0
49 -1276 -2039 0
49 -1276 -2040 0
49 -1276 -2041 0
49 -1276 -2042 0
49 -1277 -2038 0
49 -1277 -2039 0
49 -1277 -2040 0
49 -1277 -2041 0
49 -1277 -2042 0
49 -1278 -2039 0
49 -1278 -2040 0
49 -1278 -2041 0
49 -1278 -2042 0
49 -1279 -2040 0
49 -1279 -2041 0
49 -1279 -2042 0
49 -1280 -2041 0
49 -1280 -2042 0
49 -1281 -2042 0
49 -1276 -2415 0
49 -1277 -2416 0
49 -1278 -2417 0
49 -1279 -2418 0
49 -1280 -2419 0
49 -1281 -2420 0
49 -1282 -2421 0
49 -1275 -2424 0
49 -1275 -2425 0
49 -1275 -2426 0
49 -1275 -2427 0
49 -1275 -2428 0
49 -1275 -2429 0
49 -1275 -2430 0
49 -1276 -2425 0
49 -1276 -2426 0
49 -1276 -2427 0
49 -1276 -2428 0
49 -1276 -2429 0
49 -1276 -2430 0
49 -1277 -2426 0
49 -1277 -2427 0
49 -1277 -2428 0
49 -1277 -2429 0
49 -1277 -2430 0
49 -1278 -2427 0
49 -1278 -2428 0
49 -1278 -2429 0
49 -1278 -2430 0
49 -1279 -2428 0
49 -1279 -2429 0
49 -1279 -2430 0
49 -1280 -2429 0
49 -1280 -2430 0
49 -1281 -2430 0
49 -1284 -2027 0
49 -1285 -2027 0
49 -1285 -2028 0
49 -1286 -2027 0
49 -1286 -2028 0
49 -1286 -2029 0
49 -1287 -2027 0
49 -1287 -2028 0
49 -1287 -2029 0
49 -1287 -2030 0
49 -1288 -2027 0
49 -1288 -2028 0
49 -1288 -2029 0
49 -1288 -2030 0
49 -1288 -2031 0
49 -1289 -2027 0
49 -1289 -2028 0
49 -1289 -2029 0
49 -1289 -2030 0
49 -1289 -2031 0
49 -1289 -2032 0
49 -1290 -2027 0
49 -1290 -2028 0
49 -1290 -2029 0
49 -1290 -2030 0
49 -1290 -2031 0
49 -1290 -2032 0
49 -1290 -2033 0
49 -1283 -2036 0
49 -1283 -2037 0
49 -1283 -2038 0
49 -1284 -2037 0
49 -1284 -2038 0
49 -1284 -2039 0
49 -1285 -2038 0
49 -1285 -2039 0
49 -1285 -2040 0
49 -1286 -2039 0
49 -1286 -2040 0
49 -1286 -2041 0
49 -1287 -2040 0
49 -1287 -2041 0
49 -1287 -2042 0
49 -1288 -2041 0
49 -1288 -2042 0
49 -1289 -2042 0
49 -1284 -2415 0
49 -1285 -2415 0
49 -1285 -2416 0
49 -1286 -2415 0
49 -1286 -2416 0
49 -1286 -2417 0
49 -1287 -2415 0
49 -1287 -2416 0
49 -1287 -2417 0
49 -1287 -2418 0
49 -1288 -2415 0
49 -1288 -2416 0
49 -1288 -2417 0
49 -1288 -2418 0
49 -1288 -2419 0
49 -1289 -2415 0
49 -1289 -2416 0
49 -1289 -2417 0
49 -1289 -2418 0
49 -1289 -2419 0
49 -1289 -2420 0
49 -1290 -2415 0
49 -1290 -2416 0
49 -1290 -2417 0
49 -1290 -2418 0
49 -1290 -2419 0
49 -1290 -2420 0
49 -1290 -2421 0
49 -1284 -2423 0
49 -1285 -2424 0
49 -1286 -2425 0
49 -1287 -2426 0
49 -1288 -2427 0
49 -1289 -2428 0
49 -1290 -2429 0
49 -1291 1297 0
49 -1292 1298 0
49 -1293 1299 0
49 -1294 1300 0
49 -1295 1301 0
49 -1296 1302 0
49 -1292 -1710 0
49 -1292 -1711 0
49 -1292 -1712 0
49 -1292 -1713 0
49 -1292 -1714 0
49 -1292 -1715 0
49 -1292 -1716 0
49 -1293 -1711 0
49 -1293 -1712 0
49 -1293 -1713 0
49 -1293 -1714 0
49 -1293 -1715 0
49 -1293 -1716 0
49 -1294 -1712 0
49 -1294 -1713 0
49 -1294 -1714 0
49 -1294 -1715 0
49 -1294 -1716 0
49 -1295 -1713 0
49 -1295 -1714 0
49 -1295 -1715 0
49 -1295 -1716 0
49 -1296 -1714 0
49 -1296 -1715 0
49 -1296 -1716 0
49 -1303 1304 0
49 -1305 1309 0
49 -1306 1310 0
49 -1307 1311 0
49 -1308 1312 0
49 -1306 -1323 0
49 -1307 -1324 0
49 -1308 -1325 0
49 -1305 -1328 0
49 -1305 -1329 0
49 -1305 -1330 0
49 -1305 -1331 0
49 -1305 -1332 0
49 -1306 -1331 0
49 -1306 -1332 0
49 -1307 -1332 0
49 -1310 -1321 0
49 -1310 -1322 0
49 -1310 -1323 0
49 -1311 -1321 0
49 -1311 -1322 0
49 -1311 -1323 0
49 -1311 -1324 0
49 -1312 -1321 0
49 -1312 -1322 0
49 -1312 -1323 0
49 -1312 -1324 0
49 -1312 -1325 0
49 -1310 -1329 0
49 -1311 -1330 0
49 -1312 -1331 0
49 -1313 1314 0
49 -1315 1316 0
49 -1317 1318 0
49 -1319 1320 0
49 -1321 1327 0
49 -1322 1328 0
49 -1323 1329 0
49 -1324 1330 0
49 -1325 1331 0
49 -1326 1332 0
49 -1333 1334 0
49 -1335 1336 0
49 -1337 1338 0
49 -1339 1340 0
49 -1341 1349 0
49 -1342 1350 0
49 -1343 1351 0
49 -1344 1352 0
49 -1345 1353 0
49 -1346 1354 0
49 -1347 1355 0
49 -1348 1356 0
49 -1341 -1616 0
49 -1341 -1617 0
49 -1341 -1618 0
49 -1341 -1619 0
49 -1341 -1620 0
49 -1342 -1617 0
49 -1342 -1618 0
49 -1342 -1619 0
49 -1342 -1620 0
49 -1342 -1621 0
49 -1343 -1618 0
49 -1343 -1619 0
49 -1343 -1620 0
49 -1343 -1621 0
49 -1343 -1622 0
49 -1344 -1619 0
49 -1344 -1620 0
49 -1344 -1621 0
49 -1344 -1622 0
49 -1345 -1620 0
49 -1345 -1621 0
49 -1345 -1622 0
49 -1346 -1621 0
49 -1346 -1622 0
49 -1347 -1622 0
49 -1341 -1758 0
49 -1341 -1759 0
49 -1341 -1760 0
49 -1341 -1761 0
49 -1341 -1762 0
49 -1341 -1763 0
49 -1341 -1764 0
49 -1342 -1759 0
49 -1342 -1760 0
49 -1342 -1761 0
49 -1342 -1762 0
49 -1342 -1763 0
49 -1342 -1764 0
49 -1343 -1760 0
49 -1343 -1761 0
49 -1343 -1762 0
49 -1343 -1763 0
49 -1343 -1764 0
49 -1344 -1761 0
49 -1344 -1762 0
49 -1344 -1763 0
49 -1344 -1764 0
49 -1345 -1762 0
49 -1345 -1763 0
49 -1345 -1764 0
49 -1346 -1763 0
49 -1346 -1764 0
49 -1347 -1764 0
49 -1357 1358 0
49 -1359 1360 0
49 -1361 1362 0
49 -1363 1364 0
49 -1365 1368 0
49 -1366 1369 0
49 -1367 1370 0
49 -1366 -2142 0
49 -1366 -2143 0
49 -1366 -2144 0
49 -1366 -2145 0
49 -1366 -2146 0
49 -1366 -2147 0
49 -1366 -2148 0
49 -1367 -2143 0
49 -1367 -2144 0
49 -1367 -2145 0
49 -1367 -2146 0
49 -1367 -2147 0
49 -1367 -2148 0
49 -1369 -2637 0
49 -1369 -2638 0
49 -1369 -2639 0
49 -1369 -2640 0
49 -1369 -2641 0
49 -1369 -2642 0
49 -1370 -2638 0
49 -1370 -2639 0
49 -1370 -2640 0
49 -1370 -2641 0
49 -1370 -2642 0
49 -1369 -2703 0
49 -1369 -2704 0
49 -1370 -2704 0
49 -1371 1382 0
49 -1372 1392 0
49 -1373 1383 0
49 -1374 1384 0
49 -1375 1385 0
49 -1376 1386 0
49 -1377 1387 0
49 -1378 1388 0
49 -1379 1389 0
49 -1380 1390 0
49 -1381 1391 0
49 -1371 -1459 0
49 -1371 -1460 0
49 -1371 -1461 0
49 -1393 1394 0
49 -1395 1409 0
49 -1396 1421 0
49 -1397 1422 0
49 -1398 1410 0
49 -1399 1411 0
49 -1400 1412 0
49 -1401 1413 0
49 -1402 1414 0
49 -1403 1415 0
49 -1404 1416 0
49 -1405 1417 0
49 -1406 1418 0
49 -1407 1419 0
49 -1408 1420 0
49 -1423 1424 0
49 -1425 1426 0
49 -1427 1428 0
49 -1429 1434 0
49 -1430 1435 0
49 -1431 1436 0
49 -1432 1437 0
49 -1433 1438 0
49 -1439 1440 0
49 -1441 1442 0
49 -1443 1449 0
49 -1444 1450 0
49 -1445 1451 0
49 -1446 1452 0
49 -1447 1453 0
49 -1448 1454 0
49 -1455 1462 0
49 -1456 1463 0
49 -1457 1464 0
49 -1458 1465 0
49 -1459 1466 0
49 -1460 1467 0
49 -1461 1468 0
49 -1462 -2434 0
49 -1462 -2435 0
49 -1462 -2436 0
49 -1463 -2435 0
49 -1463 -2436 0
49 -1464 -2436 0
49 -1462 -2438 0
49 -1462 -2439 0
49 -1462 -2440 0
49 -1463 -2439 0
49 -1463 -2440 0
49 -1464 -2440 0
49 -1469 1470 0
49 -1471 1472 0
49 -1473 1481 0
49 -1474 1482 0
49 -1475 1483 0
49 -1476 1484 0
49 -1477 1485 0
49 -1478 1486 0
49 -1479 1487 0
49 -1480 1488 0
49 -1473 -1738 0
49 -1473 -1739 0
49 -1473 -1740 0
49 -1473 -1741 0
49 -1473 -1742 0
49 -1473 -1743 0
49 -1473 -1744 0
49 -1474 -1739 0
49 -1474 -1740 0
49 -1474 -1741 0
49 -1474 -1742 0
49 -1474 -1743 0
49 -1474 -1744 0
49 -1475 -1740 0
49 -1475 -1741 0
49 -1475 -1742 0
49 -1475 -1743 0
49 -1475 -1744 0
49 -1476 -1741 0
49 -1476 -1742 0
49 -1476 -1743 0
49 -1476 -1744 0
49 -1477 -1742 0
49 -1477 -1743 0
49 -1477 -1744 0
49 -1478 -1743 0
49 -1478 -1744 0
49 -1479 -1744 0
49 -1481 -1738 0
49 -1481 -1739 0
49 -1481 -1740 0
49 -1482 -1739 0
49 -1482 -1740 0
49 -1482 -1741 0
49 -1483 -1740 0
49 -1483 -1741 0
49 -1483 -1742 0
49 -1484 -1741 0
49 -1484 -1742 0
49 -1484 -1743 0
49 -1485 -1742 0
49 -1485 -1743 0
49 -1485 -1744 0
49 -1486 -1743 0
49 -1486 -1744 0
49 -1487 -1744 0
49 -1489 1497 0
49 -1490 1498 0
49 -1491 1499 0
49 -1492 1500 0
49 -1493 1501 0
49 -1494 1502 0
49 -1495 1503 0
49 -1496 1504 0
49 -1505 1506 0
49 -1507 1517 0
49 -1508 1518 0
49 -1509 1519 0
49 -1510 1520 0
49 -1511 1521 0
49 -1512 1522 0
49 -1513 1523 0
49 -1514 1524 0
49 -1515 1525 0
49 -1516 1526 0
49 -1527 1548 0
49 -1528 1549 0
49 -1529 1550 0
49 -1530 1551 0
49 -1531 1552 0
49 -1532 1553 0
49 -1533 1547 0
49 -1534 1558 0
49 -1535 1559 0
49 -1536 1560 0
49 -1537 1561 0
49 -1538 1562 0
49 -1539 1563 0
49 -1540 1564 0
49 -1541 1565 0
49 -1542 1566 0
49 -1543 1554 0
49 -1544 1555 0
49 -1545 1556 0
49 -1546 1557 0
49 -1533 -1806 0
49 -1534 -1806 0
49 -1535 -1806 0
49 -1536 -1806 0
49 -1537 -1806 0
49 -1538 -1806 0
49 -1539 -1806 0
49 -1540 -1806 0
49 -1567 1575 0
49 -1568 1576 0
49 -1569 1577 0
49 -1570 1578 0
49 -1571 1579 0
49 -1572 1580 0
49 -1573 1581 0
49 -1574 1582 0
49 -1576 -1700 0
49 -1577 -1700 0
49 -1578 -1700 0
49 -1579 -1700 0
49 -1580 -1700 0
49 -1581 -1700 0
49 -1582 -1700 0
49 -1579 -1973 0
49 -1580 -1974 0
49 -1583 1591 0
49 -1584 1592 0
49 -1585 1593 0
49 -1586 1594 0
49 -1587 1595 0
49 -1588 1596 0
49 -1589 1597 0
49 -1590 1598 0
49 -1592 -2859 0
49 -1593 -2859 0
49 -1593 -2860 0
49 -1594 -2859 0
49 -1594 -2860 0
49 -1594 -2861 0
49 -1595 -2859 0
49 -1595 -2860 0
49 -1595 -2861 0
49 -1595 -2862 0
49 -1596 -2859 0
49 -1596 -2860 0
49 -1596 -2861 0
49 -1596 -2862 0
49 -1596 -2863 0
49 -1597 -2859 0
49 -1597 -2860 0
49 -1597 -2861 0
49 -1597 -2862 0
49 -1597 -2863 0
49 -1597 -2864 0
49 -1598 -2859 0
49 -1598 -2860 0
49 -1598 -2861 0
49 -1598 -2862 0
49 -1598 -2863 0
49 -1598 -2864 0
49 -1598 -2865 0
49 -1592 -2867 0
49 -1593 -2868 0
49 -1594 -2869 0
49 -1595 -2870 0
49 -1596 -2871 0
49 -1597 -2872 0
49 -1598 -2873 0
49 -1599 1600 0
49 -1601 1607 0
49 -1602 1608 0
49 -1603 1609 0
49 -1604 1610 0
49 -1605 1611 0
49 -1606 1612 0
49 -1608 -2087 0
49 -1608 -2088 0
49 -1608 -2089 0
49 -1609 -2087 0
49 -1609 -2088 0
49 -1609 -2089 0
49 -1609 -2090 0
49 -1610 -2087 0
49 -1610 -2088 0
49 -1610 -2089 0
49 -1610 -2090 0
49 -1610 -2091 0
49 -1611 -2087 0
49 -1611 -2088 0
49 -1611 -2089 0
49 -1611 -2090 0
49 -1611 -2091 0
49 -1611 -2092 0
49 -1612 -2087 0
49 -1612 -2088 0
49 -1612 -2089 0
49 -1612 -2090 0
49 -1612 -2091 0
49 -1612 -2092 0
49 -1612 -2093 0
49 -1607 -2096 0
49 -1607 -2097 0
49 -1607 -2098 0
49 -1607 -2099 0
49 -1607 -2100 0
49 -1608 -2099 0
49 -1608 -2100 0
49 -1608 -2101 0
49 -1608 -2102 0
49 -1609 -2100 0
49 -1609 -2101 0
49 -1609 -2102 0
49 -1610 -2101 0
49 -1610 -2102 0
49 -1611 -2102 0
49 -1613 1614 0
49 -1615 1623 0
49 -1616 1624 0
49 -1617 1625 0
49 -1618 1626 0
49 -1619 1627 0
49 -1620 1628 0
49 -1621 1629 0
49 -1622 1630 0
49 -1624 -1749 0
49 -1625 -1749 0
49 -1625 -1750 0
49 -1626 -1749 0
49 -1626 -1750 0
49 -1626 -1751 0
49 -1627 -1749 0
49 -1627 -1750 0
49 -1627 -1751 0
49 -1627 -1752 0
49 -1628 -1749 0
49 -1628 -1750 0
49 -1628 -1751 0
49 -1628 -1752 0
49 -1628 -1753 0
49 -1629 -1749 0
49 -1629 -1750 0
49 -1629 -1751 0
49 -1629 -1752 0
49 -1629 -1753 0
49 -1629 -1754 0
49 -1630 -1749 0
49 -1630 -1750 0
49 -1630 -1751 0
49 -1630 -1752 0
49 -1630 -1753 0
49 -1630 -1754 0
49 -1630 -1755 0
49 -1624 -1757 0
49 -1625 -1758 0
49 -1626 -1759 0
49 -1627 -1760 0
49 -1628 -1761 0
49 -1629 -1762 0
49 -1630 -1763 0
49 -1631 1632 0
49 -1633 1634 0
49 -1635 1636 0
49 -1637 1638 0
49 -1639 1640 0
49 -1641 1647 0
49 -1642 1648 0
49 -1643 1649 0
49 -1644 1650 0
49 -1645 1651 0
49 -1646 1652 0
49 -1647 -1997 0
49 -1647 -1998 0
49 -1647 -1999 0
49 -1648 -1997 0
49 -1648 -1998 0
49 -1648 -1999 0
49 -1650 -2000 0
49 -1650 -2001 0
49 -1650 -2002 0
49 -1650 -2003 0
49 -1650 -2004 0
49 -1651 -2000 0
49 -1651 -2001 0
49 -1651 -2002 0
49 -1651 -2003 0
49 -1651 -2004 0
49 -1651 -2005 0
49 -1652 -2000 0
49 -1652 -2001 0
49 -1652 -2002 0
49 -1652 -2003 0
49 -1652 -2004 0
49 -1652 -2005 0
49 -1652 -2006 0
49 -1647 -2011 0
49 -1647 -2012 0
49 -1647 -2013 0
49 -1648 -2011 0
49 -1648 -2012 0
49 -1648 -2013 0
49 -1650 -2014 0
49 -1650 -2015 0
49 -1650 -2016 0
49 -1650 -2017 0
49 -1650 -2018 0
49 -1651 -2014 0
49 -1651 -2015 0
49 -1651 -2016 0
49 -1651 -2017 0
49 -1651 -2018 0
49 -1651 -2019 0
49 -1652 -2014 0
49 -1652 -2015 0
49 -1652 -2016 0
49 -1652 -2017 0
49 -1652 -2018 0
49 -1652 -2019 0
49 -1652 -2020 0
49 -1650 -2727 0
49 -1650 -2728 0
49 -1650 -2729 0
49 -1650 -2730 0
49 -1651 -2727 0
49 -1651 -2728 0
49 -1651 -2729 0
49 -1651 -2730 0
49 -1651 -2731 0
49 -1652 -2727 0
49 -1652 -2728 0
49 -1652 -2729 0
49 -1652 -2730 0
49 -1652 -2731 0
49 -1652 -2732 0
49 -1650 -2735 0
49 -1650 -2736 0
49 -1650 -2737 0
49 -1650 -2738 0
49 -1650 -2739 0
49 -1651 -2735 0
49 -1651 -2736 0
49 -1651 -2737 0
49 -1651 -2738 0
49 -1651 -2739 0
49 -1651 -2740 0
49 -1652 -2735 0
49 -1652 -2736 0
49 -1652 -2737 0
49 -1652 -2738 0
49 -1652 -2739 0
49 -1652 -2740 0
49 -1652 -2741 0
49 -1653 1654 0
49 -1655 1663 0
49 -1656 1664 0
49 -1657 1665 0
49 -1658 1666 0
49 -1659 1667 0
49 -1660 1668 0
49 -1661 1669 0
49 -1662 1670 0
49 -1671 1672 0
49 -1673 1675 0
49 -1674 1676 0
49 -1674 -2184 0
49 -1673 -2187 0
49 -1673 -2188 0
49 -1674 -2399 0
49 -1674 -2400 0
49 -1674 -2401 0
49 -1673 -2404 0
49 -1673 -2405 0
49 -1673 -2406 0
49 -1673 -2407 0
49 -1673 -2408 0
49 -1676 -2183 0
49 -1676 -2184 0
49 -1676 -2187 0
49 -1676 -2397 0
49 -1676 -2398 0
49 -1676 -2399 0
49 -1676 -2400 0
49 -1676 -2401 0
49 -1676 -2405 0
49 -1676 -2406 0
49 -1676 -2407 0
49 -1677 1685 0
49 -1678 1686 0
49 -1679 1687 0
49 -1680 1688 0
49 -1681 1689 0
49 -1682 1690 0
49 -1683 1691 0
49 -1684 1692 0
49 -1693 1694 0
49 -1695 1696 0
49 -1697 1699 0
49 -1698 1700 0
49 -1701 1709 0
49 -1702 1710 0
49 -1703 1711 0
49 -1704 1712 0
49 -1705 1713 0
49 -1706 1714 0
49 -1707 1715 0
49 -1708 1716 0
49 -1717 1718 0
49 -1719 1720 0
49 -1721 1722 0
49 -1723 1724 0
49 -1725 1726 0
49 -1727 1728 0
49 -1729 1737 0
49 -1730 1738 0
49 -1731 1739 0
49 -1732 1740 0
49 -1733 1741 0
49 -1734 1742 0
49 -1735 1743 0
49 -1736 1744 0
49 -1745 1746 0
49 -1747 1748 0
49 -1749 1757 0
49 -1750 1758 0
49 -1751 1759 0
49 -1752 1760 0
49 -1753 1761 0
49 -1754 1762 0
49 -1755 1763 0
49 -1756 1764 0
49 -1758 -2489 0
49 -1759 -2489 0
49 -1759 -2490 0
49 -1760 -2489 0
49 -1760 -2490 0
49 -1760 -2491 0
49 -1761 -2489 0
49 -1761 -2490 0
49 -1761 -2491 0
49 -1761 -2492 0
49 -1762 -2489 0
49 -1762 -2490 0
49 -1762 -2491 0
49 -1762 -2492 0
49 -1762 -2493 0
49 -1763 -2489 0
49 -1763 -2490 0
49 -1763 -2491 0
49 -1763 -2492 0
49 -1763 -2493 0
49 -1763 -2494 0
49 -1764 -2489 0
49 -1764 -2490 0
49 -1764 -2491 0
49 -1764 -2492 0
49 -1764 -2493 0
49 -1764 -2494 0
49 -1764 -2495 0
49 -1757 -2501 0
49 -1758 -2502 0
49 -1759 -2503 0
49 -1760 -2504 0
49 -1761 -2505 0
49 -1762 -2506 0
49 -1763 -2507 0
49 -1764 -2508 0
49 -1765 1766 0
49 -1767 1768 0
49 -1769 1771 0
49 -1770 1772 0
49 -1773 1774 0
49 -1775 1776 0
49 -1777 1788 0
49 -1778 1789 0
49 -1779 1790 0
49 -1780 1791 0
49 -1781 1792 0
49 -1782 1786 0
49 -1783 1787 0
49 -1784 1794 0
49 -1785 1793 0
49 -1777 -2304 0
49 -1777 -2305 0
49 -1778 -2304 0
49 -1778 -2305 0
49 -1778 -2306 0
49 -1779 -2304 0
49 -1779 -2305 0
49 -1779 -2306 0
49 -1779 -2307 0
49 -1779 -2308 0
49 -1779 -2309 0
49 -1779 -2310 0
49 -1780 -2304 0
49 -1780 -2305 0
49 -1780 -2306 0
49 -1780 -2307 0
49 -1780 -2308 0
49 -1780 -2309 0
49 -1780 -2310 0
49 -1780 -2311 0
49 -1781 -2304 0
49 -1781 -2305 0
49 -1781 -2306 0
49 -1781 -2307 0
49 -1781 -2308 0
49 -1781 -2309 0
49 -1781 -2310 0
49 -1781 -2311 0
49 -1782 -2304 0
49 -1782 -2305 0
49 -1782 -2306 0
49 -1782 -2307 0
49 -1782 -2308 0
49 -1782 -2309 0
49 -1782 -2310 0
49 -1782 -2311 0
49 -1783 -2304 0
49 -1783 -2305 0
49 -1783 -2306 0
49 -1783 -2307 0
49 -1783 -2308 0
49 -1783 -2309 0
49 -1783 -2310 0
49 -1783 -2311 0
49 -1784 -2305 0
49 -1784 -2306 0
49 -1784 -2307 0
49 -1784 -2308 0
49 -1784 -2309 0
49 -1784 -2310 0
49 -1784 -2311 0
49 -1784 -2312 0
49 -1785 -2312 0
49 -1786 -1997 0
49 -1786 -1998 0
49 -1786 -1999 0
49 -1787 -1997 0
49 -1787 -1998 0
49 -1787 -1999 0
49 -1788 -1997 0
49 -1788 -1998 0
49 -1788 -1999 0
49 -1789 -1997 0
49 -1789 -1998 0
49 -1789 -1999 0
49 -1790 -1999 0
49 -1791 -2000 0
49 -1791 -2001 0
49 -1792 -2000 0
49 -1792 -2001 0
49 -1792 -2002 0
49 -1793 -2000 0
49 -1793 -2001 0
49 -1793 -2002 0
49 -1793 -2003 0
49 -1793 -2004 0
49 -1793 -2005 0
49 -1794 -2000 0
49 -1794 -2001 0
49 -1794 -2002 0
49 -1794 -2003 0
49 -1794 -2004 0
49 -1794 -2005 0
49 -1794 -2006 0
49 -1794 -2007 0
49 -1794 -2008 0
49 -1794 -2009 0
49 -1794 -2010 0
49 -1791 -2385 0
49 -1791 -2386 0
49 -1792 -2385 0
49 -1792 -2386 0
49 -1792 -2387 0
49 -1793 -2385 0
49 -1793 -2386 0
49 -1793 -2387 0
49 -1793 -2388 0
49 -1793 -2389 0
49 -1793 -2390 0
49 -1793 -2391 0
49 -1795 1800 0
49 -1796 1801 0
49 -1797 1802 0
49 -1798 1803 0
49 -1799 1804 0
49 -1805 1808 0
49 -1806 1807 0
49 -1809 1810 0
49 -1811 1812 0
49 -1813 1814 0
49 -1815 1816 0
49 -1817 1828 0
49 -1818 1829 0
49 -1819 1830 0
49 -1820 1831 0
49 -1821 1832 0
49 -1822 1833 0
49 -1823 1834 0
49 -1824 1835 0
49 -1825 1836 0
49 -1826 1837 0
49 -1827 1838 0
49 -1828 -2119 0
49 -1828 -2120 0
49 -1829 -2119 0
49 -1829 -2120 0
49 -1829 -2121 0
49 -1830 -2119 0
49 -1830 -2120 0
49 -1830 -2121 0
49 -1830 -2122 0
49 -1831 -2119 0
49 -1831 -2120 0
49 -1831 -2121 0
49 -1831 -2122 0
49 -1831 -2123 0
49 -1832 -2119 0
49 -1832 -2120 0
49 -1832 -2121 0
49 -1832 -2122 0
49 -1832 -2123 0
49 -1832 -2124 0
49 -1833 -2119 0
49 -1833 -2120 0
49 -1833 -2121 0
49 -1833 -2122 0
49 -1833 -2123 0
49 -1833 -2124 0
49 -1834 -2119 0
49 -1834 -2120 0
49 -1834 -2121 0
49 -1834 -2122 0
49 -1834 -2123 0
49 -1834 -2124 0
49 -1835 -2119 0
49 -1835 -2120 0
49 -1835 -2121 0
49 -1835 -2122 0
49 -1835 -2123 0
49 -1835 -2124 0
49 -1836 -2119 0
49 -1836 -2120 0
49 -1836 -2121 0
49 -1836 -2122 0
49 -1836 -2123 0
49 -1836 -2124 0
49 -1837 -2120 0
49 -1837 -2121 0
49 -1837 -2122 0
49 -1837 -2123 0
49 -1837 -2124 0
49 -1838 -2121 0
49 -1838 -2122 0
49 -1838 -2123 0
49 -1838 -2124 0
49 -1839 1840 0
49 -1841 1842 0
49 -1843 1844 0
49 -1845 1846 0
49 -1847 1848 0
49 -1849 1857 0
49 -1850 1858 0
49 -1851 1859 0
49 -1852 1860 0
49 -1853 1861 0
49 -1854 1862 0
49 -1855 1863 0
49 -1856 1864 0
49 -1858 -2237 0
49 -1859 -2237 0
49 -1859 -2238 0
49 -1860 -2237 0
49 -1860 -2238 0
49 -1860 -2239 0
49 -1861 -2237 0
49 -1861 -2238 0
49 -1861 -2239 0
49 -1861 -2240 0
49 -1862 -2237 0
49 -1862 -2238 0
49 -1862 -2239 0
49 -1862 -2240 0
49 -1862 -2241 0
49 -1863 -2237 0
49 -1863 -2238 0
49 -1863 -2239 0
49 -1863 -2240 0
49 -1863 -2241 0
49 -1863 -2242 0
49 -1864 -2237 0
49 -1864 -2238 0
49 -1864 -2239 0
49 -1864 -2240 0
49 -1864 -2241 0
49 -1864 -2242 0
49 -1864 -2243 0
49 -1857 -2246 0
49 -1857 -2247 0
49 -1857 -2248 0
49 -1857 -2249 0
49 -1857 -2250 0
49 -1858 -2247 0
49 -1858 -2248 0
49 -1858 -2249 0
49 -1858 -2250 0
49 -1858 -2251 0
49 -1859 -2248 0
49 -1859 -2249 0
49 -1859 -2250 0
49 -1859 -2251 0
49 -1859 -2252 0
49 -1860 -2249 0
49 -1860 -2250 0
49 -1860 -2251 0
49 -1860 -2252 0
49 -1861 -2250 0
49 -1861 -2251 0
49 -1861 -2252 0
49 -1862 -2251 0
49 -1862 -2252 0
49 -1863 -2252 0
49 -1858 -2859 0
49 -1859 -2859 0
49 -1859 -2860 0
49 -1860 -2859 0
49 -1860 -2860 0
49 -1860 -2861 0
49 -1861 -2859 0
49 -1861 -2860 0
49 -1861 -2861 0
49 -1861 -2862 0
49 -1862 -2859 0
49 -1862 -2860 0
49 -1862 -2861 0
49 -1862 -2862 0
49 -1862 -2863 0
49 -1863 -2859 0
49 -1863 -2860 0
49 -1863 -2861 0
49 -1863 -2862 0
49 -1863 -2863 0
49 -1863 -2864 0
49 -1864 -2859 0
49 -1864 -2860 0
49 -1864 -2861 0
49 -1864 -2862 0
49 -1864 -2863 0
49 -1864 -2864 0
49 -1864 -2865 0
49 -1857 -2868 0
49 -1857 -2869 0
49 -1857 -2870 0
49 -1858 -2869 0
49 -1858 -2870 0
49 -1858 -2871 0
49 -1859 -2870 0
49 -1859 -2871 0
49 -1859 -2872 0
49 -1860 -2871 0
49 -1860 -2872 0
49 -1860 -2873 0
49 -1861 -2872 0
49 -1861 -2873 0
49 -1861 -2874 0
49 -1862 -2873 0
49 -1862 -2874 0
49 -1863 -2874 0
49 -1865 1866 0
49 -1867 1870 0
49 -1868 1871 0
49 -1869 1872 0
49 -1868 -2797 0
49 -1868 -2798 0
49 -1868 -2799 0
49 -1868 -2800 0
49 -1869 -2798 0
49 -1869 -2799 0
49 -1869 -2800 0
49 -1867 -2802 0
49 -1867 -2803 0
49 -1867 -2804 0
49 -1867 -2805 0
49 -1867 -2806 0
49 -1867 -2807 0
49 -1867 -2808 0
49 -1871 -2805 0
49 -1871 -2806 0
49 -1871 -2807 0
49 -1871 -2808 0
49 -1872 -2806 0
49 -1872 -2807 0
49 -1872 -2808 0
49 -1873 1874 0
49 -1875 1876 0
49 -1877 1878 0
49 -1879 1880 0
49 -1881 1884 0
49 -1882 1885 0
49 -1883 1886 0
49 -1887 1888 0
49 -1889 1890 0
49 -1891 1892 0
49 -1893 1894 0
49 -1895 1896 0
49 -1897 1898 0
49 -1899 1900 0
49 -1901 1902 0
49 -1903 1904 0
49 -1905 1906 0
49 -1907 1908 0
49 -1909 1920 0
49 -1910 1921 0
49 -1911 1922 0
49 -1912 1923 0
49 -1913 1924 0
49 -1914 1925 0
49 -1915 1926 0
49 -1916 1927 0
49 -1917 1928 0
49 -1918 1929 0
49 -1919 1930 0
49 -1931 1932 0
49 -1933 1934 0
49 -1935 1936 0
49 -1937 1938 0
49 -1939 1940 0
49 -1941 1942 0
49 -1943 1948 0
49 -1944 1949 0
49 -1945 1950 0
49 -1946 1951 0
49 -1947 1952 0
49 -1943 -2518 0
49 -1943 -2519 0
49 -1943 -2520 0
49 -1944 -2522 0
49 -1944 -2523 0
49 -1944 -2524 0
49 -1945 -2523 0
49 -1945 -2524 0
49 -1946 -2524 0
49 -1943 -2526 0
49 -1943 -2527 0
49 -1943 -2528 0
49 -1943 -2529 0
49 -1943 -2530 0
49 -1943 -2531 0
49 -1943 -2532 0
49 -1944 -2530 0
49 -1944 -2531 0
49 -1944 -2532 0
49 -1945 -2531 0
49 -1945 -2532 0
49 -1946 -2532 0
49 -1949 -2517 0
49 -1949 -2518 0
49 -1949 -2519 0
49 -1949 -2520 0
49 -1950 -2517 0
49 -1950 -2518 0
49 -1950 -2519 0
49 -1950 -2520 0
49 -1950 -2521 0
49 -1951 -2517 0
49 -1951 -2518 0
49 -1951 -2519 0
49 -1951 -2520 0
49 -1951 -2521 0
49 -1951 -2522 0
49 -1952 -2517 0
49 -1952 -2518 0
49 -1952 -2519 0
49 -1952 -2520 0
49 -1952 -2521 0
49 -1952 -2522 0
49 -1952 -2523 0
49 -1948 -2526 0
49 -1948 -2527 0
49 -1948 -2528 0
49 -1949 -2530 0
49 -1949 -2531 0
49 -1949 -2532 0
49 -1950 -2531 0
49 -1950 -2532 0
49 -1951 -2532 0
49 -1953 1961 0
49 -1954 1962 0
49 -1955 1963 0
49 -1956 1964 0
49 -1957 1965 0
49 -1958 1966 0
49 -1959 1967 0
49 -1960 1968 0
49 -1969 1972 0
49 -1970 1973 0
49 -1971 1974 0
49 -1975 1976 0
49 -1977 1978 0
49 -1979 1987 0
49 -1980 1988 0
49 -1981 1989 0
49 -1982 1990 0
49 -1983 1991 0
49 -1984 1992 0
49 -1985 1993 0
49 -1986 1994 0
49 -1995 1996 0
49 -1997 2011 0
49 -1998 2012 0
49 -1999 2013 0
49 -2000 2014 0
49 -2001 2015 0
49 -2002 2016 0
49 -2003 2017 0
49 -2004 2018 0
49 -2005 2019 0
49 -2006 2020 0
49 -2007 2021 0
49 -2008 2022 0
49 -2009 2023 0
49 -2010 2024 0
49 -2001 -2377 0
49 -2002 -2377 0
49 -2002 -2378 0
49 -2003 -2377 0
49 -2003 -2378 0
49 -2003 -2379 0
49 -2004 -2378 0
49 -2004 -2379 0
49 -2004 -2380 0
49 -2005 -2379 0
49 -2005 -2380 0
49 -2005 -2381 0
49 -2006 -2380 0
49 -2006 -2381 0
49 -2006 -2382 0
49 -2007 -2381 0
49 -2007 -2382 0
49 -2007 -2383 0
49 -2008 -2382 0
49 -2008 -2383 0
49 -2008 -2384 0
49 -2009 -2383 0
49 -2009 -2384 0
49 -2010 -2384 0
49 -2011 -2203 0
49 -2011 -2204 0
49 -2012 -2203 0
49 -2012 -2204 0
49 -2012 -2205 0
49 -2013 -2204 0
49 -2013 -2205 0
49 -2013 -2206 0
49 -2015 -2385 0
49 -2016 -2385 0
49 -2016 -2386 0
49 -2017 -2385 0
49 -2017 -2386 0
49 -2017 -2387 0
49 -2018 -2386 0
49 -2018 -2387 0
49 -2018 -2388 0
49 -2019 -2387 0
49 -2019 -2388 0
49 -2019 -2389 0
49 -2020 -2388 0
49 -2020 -2389 0
49 -2020 -2390 0
49 -2021 -2389 0
49 -2021 -2390 0
49 -2021 -2391 0
49 -2022 -2390 0
49 -2022 -2391 0
49 -2022 -2392 0
49 -2023 -2391 0
49 -2023 -2392 0
49 -2024 -2392 0
49 -2025 2026 0
49 -2027 2035 0
49 -2028 2036 0
49 -2029 2037 0
49 -2030 2038 0
49 -2031 2039 0
49 -2032 2040 0
49 -2033 2041 0
49 -2034 2042 0
49 -2028 -2415 0
49 -2029 -2415 0
49 -2029 -2416 0
49 -2030 -2415 0
49 -2030 -2416 0
49 -2030 -2417 0
49 -2031 -2415 0
49 -2031 -2416 0
49 -2031 -2417 0
49 -2031 -2418 0
49 -2032 -2415 0
49 -2032 -2416 0
49 -2032 -2417 0
49 -2032 -2418 0
49 -2032 -2419 0
49 -2033 -2416 0
49 -2033 -2417 0
49 -2033 -2418 0
49 -2033 -2419 0
49 -2033 -2420 0
49 -2034 -2417 0
49 -2034 -2418 0
49 -2034 -2419 0
49 -2034 -2420 0
49 -2034 -2421 0
49 -2027 -2424 0
49 -2027 -2425 0
49 -2027 -2426 0
49 -2027 -2427 0
49 -2027 -2428 0
49 -2027 -2429 0
49 -2027 -2430 0
49 -2028 -2425 0
49 -2028 -2426 0
49 -2028 -2427 0
49 -2028 -2428 0
49 -2028 -2429 0
49 -2028 -2430 0
49 -2029 -2426 0
49 -2029 -2427 0
49 -2029 -2428 0
49 -2029 -2429 0
49 -2029 -2430 0
49 -2030 -2427 0
49 -2030 -2428 0
49 -2030 -2429 0
49 -2030 -2430 0
49 -2031 -2428 0
49 -2031 -2429 0
49 -2031 -2430 0
49 -2032 -2429 0
49 -2032 -2430 0
49 -2033 -2430 0
49 -2036 -2415 0
49 -2037 -2415 0
49 -2037 -2416 0
49 -2038 -2415 0
49 -2038 -2416 0
49 -2038 -2417 0
49 -2039 -2415 0
49 -2039 -2416 0
49 -2039 -2417 0
49 -2039 -2418 0
49 -2040 -2415 0
49 -2040 -2416 0
49 -2040 -2417 0
49 -2040 -2418 0
49 -2040 -2419 0
49 -2041 -2415 0
49 -2041 -2416 0
49 -2041 -2417 0
49 -2041 -2418 0
49 -2041 -2419 0
49 -2041 -2420 0
49 -2042 -2415 0
49 -2042 -2416 0
49 -2042 -2417 0
49 -2042 -2418 0
49 -2042 -2419 0
49 -2042 -2420 0
49 -2042 -2421 0
49 -2036 -2423 0
49 -2037 -2423 0
49 -2037 -2424 0
49 -2038 -2423 0
49 -2038 -2424 0
49 -2038 -2425 0
49 -2039 -2423 0
49 -2039 -2424 0
49 -2039 -2425 0
49 -2039 -2426 0
49 -2040 -2423 0
49 -2040 -2424 0
49 -2040 -2425 0
49 -2040 -2426 0
49 -2040 -2427 0
49 -2041 -2424 0
49 -2041 -2425 0
49 -2041 -2426 0
49 -2041 -2427 0
49 -2041 -2428 0
49 -2042 -2425 0
49 -2042 -2426 0
49 -2042 -2427 0
49 -2042 -2428 0
49 -2042 -2429 0
49 -2043 2044 0
49 -2045 2049 0
49 -2046 2050 0
49 -2047 2051 0
49 -2048 2052 0
49 -2049 -2550 0
49 -2049 -2551 0
49 -2050 -2550 0
49 -2050 -2551 0
49 -2051 -2551 0
49 -2053 2054 0
49 -2055 2056 0
49 -2057 2058 0
49 -2059 2060 0
49 -2061 2062 0
49 -2063 2064 0
49 -2065 2074 0
49 -2066 2075 0
49 -2067 2076 0
49 -2068 2077 0
49 -2069 2078 0
49 -2070 2079 0
49 -2071 2080 0
49 -2072 2081 0
49 -2073 2082 0
49 -2083 2084 0
49 -2085 2086 0
49 -2087 2095 0
49 -2088 2096 0
49 -2089 2097 0
49 -2090 2098 0
49 -2091 2099 0
49 -2092 2100 0
49 -2093 2101 0
49 -2094 2102 0
49 -2096 -2727 0
49 -2097 -2727 0
49 -2097 -2728 0
49 -2098 -2727 0
49 -2098 -2728 0
49 -2098 -2729 0
49 -2099 -2727 0
49 -2099 -2728 0
49 -2099 -2729 0
49 -2099 -2730 0
49 -2100 -2727 0
49 -2100 -2728 0
49 -2100 -2729 0
49 -2100 -2730 0
49 -2100 -2731 0
49 -2101 -2727 0
49 -2101 -2728 0
49 -2101 -2729 0
49 -2101 -2730 0
49 -2101 -2731 0
49 -2101 -2732 0
49 -2102 -2727 0
49 -2102 -2728 0
49 -2102 -2729 0
49 -2102 -2730 0
49 -2102 -2731 0
49 -2102 -2732 0
49 -2102 -2733 0
49 -2103 2104 0
49 -2105 2106 0
49 -2107 2108 0
49 -2109 2110 0
49 -2111 2118 0
49 -2112 2119 0
49 -2113 2120 0
49 -2114 2121 0
49 -2115 2122 0
49 -2116 2123 0
49 -2117 2124 0
49 -2125 2129 0
49 -2126 2130 0
49 -2127 2131 0
49 -2128 2132 0
49 -2133 2141 0
49 -2134 2142 0
49 -2135 2143 0
49 -2136 2144 0
49 -2137 2145 0
49 -2138 2146 0
49 -2139 2147 0
49 -2140 2148 0
49 -2133 -2698 0
49 -2133 -2699 0
49 -2133 -2700 0
49 -2133 -2701 0
49 -2133 -2702 0
49 -2133 -2703 0
49 -2133 -2704 0
49 -2134 -2699 0
49 -2134 -2700 0
49 -2134 -2701 0
49 -2134 -2702 0
49 -2134 -2703 0
49 -2134 -2704 0
49 -2135 -2700 0
49 -2135 -2701 0
49 -2135 -2702 0
49 -2135 -2703 0
49 -2135 -2704 0
49 -2136 -2701 0
49 -2136 -2702 0
49 -2136 -2703 0
49 -2136 -2704 0
49 -2137 -2702 0
49 -2137 -2703 0
49 -2137 -2704 0
49 -2138 -2703 0
49 -2138 -2704 0
49 -2139 -2704 0
49 -2141 -2636 0
49 -2142 -2637 0
49 -2143 -2638 0
49 -2144 -2639 0
49 -2145 -2640 0
49 -2146 -2641 0
49 -2147 -2642 0
49 -2149 2150 0
49 -2151 2152 0
49 -2153 2154 0
49 -2155 2156 0
49 -2157 2158 0
49 -2159 2160 0
49 -2161 2162 0
49 -2163 2171 0
49 -2164 2172 0
49 -2165 2173 0
49 -2166 2174 0
49 -2167 2175 0
49 -2168 2176 0
49 -2169 2177 0
49 -2170 2178 0
49 -2164 -2335 0
49 -2165 -2335 0
49 -2165 -2336 0
49 -2166 -2335 0
49 -2166 -2336 0
49 -2166 -2337 0
49 -2167 -2336 0
49 -2167 -2337 0
49 -2167 -2338 0
49 -2168 -2337 0
49 -2168 -2338 0
49 -2168 -2339 0
49 -2169 -2338 0
49 -2169 -2339 0
49 -2169 -2340 0
49 -2170 -2339 0
49 -2170 -2340 0
49 -2170 -2341 0
49 -2163 -2344 0
49 -2163 -2345 0
49 -2163 -2346 0
49 -2163 -2347 0
49 -2163 -2348 0
49 -2163 -2349 0
49 -2163 -2350 0
49 -2164 -2345 0
49 -2164 -2346 0
49 -2164 -2347 0
49 -2164 -2348 0
49 -2164 -2349 0
49 -2164 -2350 0
49 -2165 -2346 0
49 -2165 -2347 0
49 -2165 -2348 0
49 -2165 -2349 0
49 -2165 -2350 0
49 -2166 -2347 0
49 -2166 -2348 0
49 -2166 -2349 0
49 -2166 -2350 0
49 -2167 -2348 0
49 -2167 -2349 0
49 -2167 -2350 0
49 -2168 -2349 0
49 -2168 -2350 0
49 -2169 -2350 0
49 -2172 -2335 0
49 -2173 -2335 0
49 -2173 -2336 0
49 -2174 -2335 0
49 -2174 -2336 0
49 -2174 -2337 0
49 -2175 -2335 0
49 -2175 -2336 0
49 -2175 -2337 0
49 -2175 -2338 0
49 -2176 -2335 0
49 -2176 -2336 0
49 -2176 -2337 0
49 -2176 -2338 0
49 -2176 -2339 0
49 -2177 -2335 0
49 -2177 -2336 0
49 -2177 -2337 0
49 -2177 -2338 0
49 -2177 -2339 0
49 -2177 -2340 0
49 -2178 -2335 0
49 -2178 -2336 0
49 -2178 -2337 0
49 -2178 -2338 0
49 -2178 -2339 0
49 -2178 -2340 0
49 -2178 -2341 0
49 -2172 -2343 0
49 -2173 -2343 0
49 -2173 -2344 0
49 -2174 -2343 0
49 -2174 -2344 0
49 -2174 -2345 0
49 -2175 -2344 0
49 -2175 -2345 0
49 -2175 -2346 0
49 -2176 -2345 0
49 -2176 -2346 0
49 -2176 -2347 0
49 -2177 -2346 0
49 -2177 -2347 0
49 -2177 -2348 0
49 -2178 -2347 0
49 -2178 -2348 0
49 -2178 -2349 0
49 -2179 2180 0
49 -2181 2182 0
49 -2183 2186 0
49 -2184 2187 0
49 -2185 2188 0
49 -2184 -2400 0
49 -2185 -2401 0
49 -2183 -2404 0
49 -2183 -2405 0
49 -2183 -2406 0
49 -2183 -2407 0
49 -2183 -2408 0
49 -2184 -2408 0
49 -2187 -2397 0
49 -2187 -2398 0
49 -2187 -2399 0
49 -2187 -2400 0
49 -2188 -2397 0
49 -2188 -2398 0
49 -2188 -2399 0
49 -2188 -2400 0
49 -2188 -2401 0
49 -2187 -2406 0
49 -2188 -2407 0
49 -2189 2190 0
49 -2191 2192 0
49 -2193 2194 0
49 -2195 2196 0
49 -2197 2203 0
49 -2198 2204 0
49 -2199 2205 0
49 -2200 2206 0
49 -2201 2207 0
49 -2202 2208 0
49 -2209 2210 0
49 -2211 2212 0
49 -2213 2214 0
49 -2215 2223 0
49 -2216 2224 0
49 -2217 2225 0
49 -2218 2226 0
49 -2219 2227 0
49 -2220 2228 0
49 -2221 2229 0
49 -2222 2230 0
49 -2231 2232 0
49 -2233 2234 0
49 -2235 2236 0
49 -2237 2245 0
49 -2238 2246 0
49 -2239 2247 0
49 -2240 2248 0
49 -2241 2249 0
49 -2242 2250 0
49 -2243 2251 0
49 -2244 2252 0
49 -2237 -2568 0
49 -2237 -2569 0
49 -2237 -2570 0
49 -2237 -2571 0
49 -2237 -2572 0
49 -2237 -2573 0
49 -2237 -2574 0
49 -2238 -2569 0
49 -2238 -2570 0
49 -2238 -2571 0
49 -2238 -2572 0
49 -2238 -2573 0
49 -2238 -2574 0
49 -2239 -2570 0
49 -2239 -2571 0
49 -2239 -2572 0
49 -2239 -2573 0
49 -2239 -2574 0
49 -2240 -2571 0
49 -2240 -2572 0
49 -2240 -2573 0
49 -2240 -2574 0
49 -2241 -2572 0
49 -2241 -2573 0
49 -2241 -2574 0
49 -2242 -2573 0
49 -2242 -2574 0
49 -2243 -2574 0
49 -2246 -2559 0
49 -2247 -2559 0
49 -2247 -2560 0
49 -2248 -2559 0
49 -2248 -2560 0
49 -2248 -2561 0
49 -2249 -2559 0
49 -2249 -2560 0
49 -2249 -2561 0
49 -2249 -2562 0
49 -2250 -2559 0
49 -2250 -2560 0
49 -2250 -2561 0
49 -2250 -2562 0
49 -2250 -2563 0
49 -2251 -2559 0
49 -2251 -2560 0
49 -2251 -2561 0
49 -2251 -2562 0
49 -2251 -2563 0
49 -2251 -2564 0
49 -2252 -2559 0
49 -2252 -2560 0
49 -2252 -2561 0
49 -2252 -2562 0
49 -2252 -2563 0
49 -2252 -2564 0
49 -2252 -2565 0
49 -2246 -2567 0
49 -2247 -2568 0
49 -2248 -2569 0
49 -2249 -2570 0
49 -2250 -2571 0
49 -2251 -2572 0
49 -2252 -2573 0
49 -2246 -2859 0
49 -2247 -2859 0
49 -2247 -2860 0
49 -2248 -2859 0
49 -2248 -2860 0
49 -2248 -2861 0
49 -2249 -2859 0
49 -2249 -2860 0
49 -2249 -2861 0
49 -2249 -2862 0
49 -2250 -2859 0
49 -2250 -2860 0
49 -2250 -2861 0
49 -2250 -2862 0
49 -2250 -2863 0
49 -2251 -2859 0
49 -2251 -2860 0
49 -2251 -2861 0
49 -2251 -2862 0
49 -2251 -2863 0
49 -2251 -2864 0
49 -2252 -2859 0
49 -2252 -2860 0
49 -2252 -2861 0
49 -2252 -2862 0
49 -2252 -2863 0
49 -2252 -2864 0
49 -2252 -2865 0
49 -2246 -2867 0
49 -2247 -2868 0
49 -2248 -2869 0
49 -2249 -2870 0
49 -2250 -2871 0
49 -2251 -2872 0
49 -2252 -2873 0
49 -2253 2254 0
49 -2255 2256 0
49 -2257 2258 0
49 -2259 2260 0
49 -2261 2262 0
49 -2263 2271 0
49 -2264 2272 0
49 -2265 2273 0
49 -2266 2274 0
49 -2267 2275 0
49 -2268 2276 0
49 -2269 2277 0
49 -2270 2278 0
49 -2264 -2473 0
49 -2265 -2473 0
49 -2265 -2474 0
49 -2266 -2473 0
49 -2266 -2474 0
49 -2266 -2475 0
49 -2267 -2474 0
49 -2267 -2475 0
49 -2267 -2476 0
49 -2268 -2475 0
49 -2268 -2476 0
49 -2268 -2477 0
49 -2269 -2476 0
49 -2269 -2477 0
49 -2269 -2478 0
49 -2270 -2477 0
49 -2270 -2478 0
49 -2270 -2479 0
49 -2263 -2482 0
49 -2263 -2483 0
49 -2263 -2484 0
49 -2263 -2485 0
49 -2263 -2486 0
49 -2263 -2487 0
49 -2263 -2488 0
49 -2264 -2483 0
49 -2264 -2484 0
49 -2264 -2485 0
49 -2264 -2486 0
49 -2264 -2487 0
49 -2264 -2488 0
49 -2265 -2484 0
49 -2265 -2485 0
49 -2265 -2486 0
49 -2265 -2487 0
49 -2265 -2488 0
49 -2266 -2485 0
49 -2266 -2486 0
49 -2266 -2487 0
49 -2266 -2488 0
49 -2267 -2486 0
49 -2267 -2487 0
49 -2267 -2488 0
49 -2268 -2487 0
49 -2268 -2488 0
49 -2269 -2488 0
49 -2272 -2473 0
49 -2273 -2473 0
49 -2273 -2474 0
49 -2274 -2473 0
49 -2274 -2474 0
49 -2274 -2475 0
49 -2275 -2473 0
49 -2275 -2474 0
49 -2275 -2475 0
49 -2275 -2476 0
49 -2276 -2473 0
49 -2276 -2474 0
49 -2276 -2475 0
49 -2276 -2476 0
49 -2276 -2477 0
49 -2277 -2473 0
49 -2277 -2474 0
49 -2277 -2475 0
49 -2277 -2476 0
49 -2277 -2477 0
49 -2277 -2478 0
49 -2278 -2473 0
49 -2278 -2474 0
49 -2278 -2475 0
49 -2278 -2476 0
49 -2278 -2477 0
49 -2278 -2478 0
49 -2278 -2479 0
49 -2272 -2481 0
49 -2273 -2481 0
49 -2273 -2482 0
49 -2274 -2481 0
49 -2274 -2482 0
49 -2274 -2483 0
49 -2275 -2482 0
49 -2275 -2483 0
49 -2275 -2484 0
49 -2276 -2483 0
49 -2276 -2484 0
49 -2276 -2485 0
49 -2277 -2484 0
49 -2277 -2485 0
49 -2277 -2486 0
49 -2278 -2485 0
49 -2278 -2486 0
49 -2278 -2487 0
49 -2279 2281 0
49 -2280 2282 0
49 -2283 2284 0
49 -2285 2286 0
49 -2287 2288 0
49 -2289 2290 0
49 -2291 2292 0
49 -2293 2294 0
49 -2295 2304 0
49 -2296 2305 0
49 -2297 2306 0
49 -2298 2307 0
49 -2299 2308 0
49 -2300 2309 0
49 -2301 2310 0
49 -2302 2311 0
49 -2303 2312 0
49 -2303 -2389 0
49 -2303 -2390 0
49 -2303 -2391 0
49 -2303 -2392 0
49 -2312 -2388 0
49 -2312 -2389 0
49 -2312 -2390 0
49 -2312 -2391 0
49 -2312 -2392 0
49 -2313 2314 0
49 -2315 2316 0
49 -2317 2325 0
49 -2318 2326 0
49 -2319 2327 0
49 -2320 2328 0
49 -2321 2329 0
49 -2322 2330 0
49 -2323 2331 0
49 -2324 2332 0
49 -2317 -2588 0
49 -2317 -2589 0
49 -2317 -2590 0
49 -2317 -2591 0
49 -2317 -2592 0
49 -2318 -2589 0
49 -2318 -2590 0
49 -2318 -2591 0
49 -2318 -2592 0
49 -2318 -2593 0
49 -2319 -2590 0
49 -2319 -2591 0
49 -2319 -2592 0
49 -2319 -2593 0
49 -2319 -2594 0
49 -2320 -2591 0
49 -2320 -2592 0
49 -2320 -2593 0
49 -2320 -2594 0
49 -2321 -2592 0
49 -2321 -2593 0
49 -2321 -2594 0
49 -2322 -2593 0
49 -2322 -2594 0
49 -2323 -2594 0
49 -2317 -2596 0
49 -2317 -2597 0
49 -2317 -2598 0
49 -2317 -2599 0
49 -2317 -2600 0
49 -2317 -2601 0
49 -2317 -2602 0
49 -2318 -2597 0
49 -2318 -2598 0
49 -2318 -2599 0
49 -2318 -2600 0
49 -2318 -2601 0
49 -2318 -2602 0
49 -2319 -2598 0
49 -2319 -2599 0
49 -2319 -2600 0
49 -2319 -2601 0
49 -2319 -2602 0
49 -2320 -2599 0
49 -2320 -2600 0
49 -2320 -2601 0
49 -2320 -2602 0
49 -2321 -2600 0
49 -2321 -2601 0
49 -2321 -2602 0
49 -2322 -2601 0
49 -2322 -2602 0
49 -2323 -2602 0
49 -2317 -2644 0
49 -2317 -2645 0
49 -2317 -2646 0
49 -2318 -2645 0
49 -2318 -2646 0
49 -2318 -2647 0
49 -2319 -2646 0
49 -2319 -2647 0
49 -2319 -2648 0
49 -2320 -2647 0
49 -2320 -2648 0
49 -2320 -2649 0
49 -2321 -2648 0
49 -2321 -2649 0
49 -2321 -2650 0
49 -2322 -2649 0
49 -2322 -2650 0
49 -2323 -2650 0
49 -2317 -2652 0
49 -2317 -2653 0
49 -2317 -2654 0
49 -2317 -2655 0
49 -2317 -2656 0
49 -2317 -2657 0
49 -2317 -2658 0
49 -2318 -2653 0
49 -2318 -2654 0
49 -2318 -2655 0
49 -2318 -2656 0
49 -2318 -2657 0
49 -2318 -2658 0
49 -2319 -2654 0
49 -2319 -2655 0
49 -2319 -2656 0
49 -2319 -2657 0
49 -2319 -2658 0
49 -2320 -2655 0
49 -2320 -2656 0
49 -2320 -2657 0
49 -2320 -2658 0
49 -2321 -2656 0
49 -2321 -2657 0
49 -2321 -2658 0
49 -2322 -2657 0
49 -2322 -2658 0
49 -2323 -2658 0
49 -2326 -2587 0
49 -2327 -2587 0
49 -2327 -2588 0
49 -2328 -2587 0
49 -2328 -2588 0
49 -2328 -2589 0
49 -2329 -2587 0
49 -2329 -2588 0
49 -2329 -2589 0
49 -2329 -2590 0
49 -2330 -2587 0
49 -2330 -2588 0
49 -2330 -2589 0
49 -2330 -2590 0
49 -2330 -2591 0
49 -2331 -2587 0
49 -2331 -2588 0
49 -2331 -2589 0
49 -2331 -2590 0
49 -2331 -2591 0
49 -2331 -2592 0
49 -2332 -2587 0
49 -2332 -2588 0
49 -2332 -2589 0
49 -2332 -2590 0
49 -2332 -2591 0
49 -2332 -2592 0
49 -2332 -2593 0
49 -2325 -2596 0
49 -2325 -2597 0
49 -2325 -2598 0
49 -2325 -2599 0
49 -2325 -2600 0
49 -2326 -2597 0
49 -2326 -2598 0
49 -2326 -2599 0
49 -2326 -2600 0
49 -2326 -2601 0
49 -2327 -2598 0
49 -2327 -2599 0
49 -2327 -2600 0
49 -2327 -2601 0
49 -2327 -2602 0
49 -2328 -2599 0
49 -2328 -2600 0
49 -2328 -2601 0
49 -2328 -2602 0
49 -2329 -2600 0
49 -2329 -2601 0
49 -2329 -2602 0
49 -2330 -2601 0
49 -2330 -2602 0
49 -2331 -2602 0
49 -2326 -2643 0
49 -2327 -2643 0
49 -2327 -2644 0
49 -2328 -2643 0
49 -2328 -2644 0
49 -2328 -2645 0
49 -2329 -2643 0
49 -2329 -2644 0
49 -2329 -2645 0
49 -2329 -2646 0
49 -2330 -2643 0
49 -2330 -2644 0
49 -2330 -2645 0
49 -2330 -2646 0
49 -2330 -2647 0
49 -2331 -2643 0
49 -2331 -2644 0
49 -2331 -2645 0
49 -2331 -2646 0
49 -2331 -2647 0
49 -2331 -2648 0
49 -2332 -2643 0
49 -2332 -2644 0
49 -2332 -2645 0
49 -2332 -2646 0
49 -2332 -2647 0
49 -2332 -2648 0
49 -2332 -2649 0
49 -2325 -2652 0
49 -2325 -2653 0
49 -2325 -2654 0
49 -2326 -2653 0
49 -2326 -2654 0
49 -2326 -2655 0
49 -2327 -2654 0
49 -2327 -2655 0
49 -2327 -2656 0
49 -2328 -2655 0
49 -2328 -2656 0
49 -2328 -2657 0
49 -2329 -2656 0
49 -2329 -2657 0
49 -2329 -2658 0
49 -2330 -2657 0
49 -2330 -2658 0
49 -2331 -2658 0
49 -2333 2334 0
49 -2335 2343 0
49 -2336 2344 0
49 -2337 2345 0
49 -2338 2346 0
49 -2339 2347 0
49 -2340 2348 0
49 -2341 2349 0
49 -2342 2350 0
49 -2351 2352 0
49 -2353 2354 0
49 -2355 2356 0
49 -2357 2365 0
49 -2358 2366 0
49 -2359 2367 0
49 -2360 2368 0
49 -2361 2369 0
49 -2362 2370 0
49 -2363 2371 0
49 -2364 2372 0
49 -2357 -2644 0
49 -2357 -2645 0
49 -2357 -2646 0
49 -2358 -2645 0
49 -2358 -2646 0
49 -2358 -2647 0
49 -2359 -2646 0
49 -2359 -2647 0
49 -2359 -2648 0
49 -2360 -2647 0
49 -2360 -2648 0
49 -2360 -2649 0
49 -2361 -2648 0
49 -2361 -2649 0
49 -2361 -2650 0
49 -2362 -2649 0
49 -2362 -2650 0
49 -2363 -2650 0
49 -2357 -2652 0
49 -2357 -2653 0
49 -2357 -2654 0
49 -2357 -2655 0
49 -2357 -2656 0
49 -2357 -2657 0
49 -2357 -2658 0
49 -2358 -2653 0
49 -2358 -2654 0
49 -2358 -2655 0
49 -2358 -2656 0
49 -2358 -2657 0
49 -2358 -2658 0
49 -2359 -2654 0
49 -2359 -2655 0
49 -2359 -2656 0
49 -2359 -2657 0
49 -2359 -2658 0
49 -2360 -2655 0
49 -2360 -2656 0
49 -2360 -2657 0
49 -2360 -2658 0
49 -2361 -2656 0
49 -2361 -2657 0
49 -2361 -2658 0
49 -2362 -2657 0
49 -2362 -2658 0
49 -2363 -2658 0
49 -2357 -2836 0
49 -2357 -2837 0
49 -2357 -2838 0
49 -2357 -2839 0
49 -2357 -2840 0
49 -2357 -2841 0
49 -2357 -2842 0
49 -2358 -2837 0
49 -2358 -2838 0
49 -2358 -2839 0
49 -2358 -2840 0
49 -2358 -2841 0
49 -2358 -2842 0
49 -2359 -2838 0
49 -2359 -2839 0
49 -2359 -2840 0
49 -2359 -2841 0
49 -2359 -2842 0
49 -2360 -2839 0
49 -2360 -2840 0
49 -2360 -2841 0
49 -2360 -2842 0
49 -2361 -2840 0
49 -2361 -2841 0
49 -2361 -2842 0
49 -2362 -2841 0
49 -2362 -2842 0
49 -2363 -2842 0
49 -2365 -2715 0
49 -2365 -2716 0
49 -2365 -2717 0
49 -2365 -2718 0
49 -2365 -2719 0
49 -2365 -2720 0
49 -2366 -2716 0
49 -2366 -2717 0
49 -2366 -2718 0
49 -2366 -2719 0
49 -2366 -2720 0
49 -2367 -2717 0
49 -2367 -2718 0
49 -2367 -2719 0
49 -2367 -2720 0
49 -2368 -2717 0
49 -2368 -2718 0
49 -2368 -2719 0
49 -2368 -2720 0
49 -2369 -2718 0
49 -2369 -2719 0
49 -2369 -2720 0
49 -2370 -2719 0
49 -2370 -2720 0
49 -2371 -2720 0
49 -2366 -2827 0
49 -2367 -2827 0
49 -2367 -2828 0
49 -2368 -2827 0
49 -2368 -2828 0
49 -2368 -2829 0
49 -2369 -2827 0
49 -2369 -2828 0
49 -2369 -2829 0
49 -2369 -2830 0
49 -2370 -2827 0
49 -2370 -2828 0
49 -2370 -2829 0
49 -2370 -2830 0
49 -2370 -2831 0
49 -2371 -2827 0
49 -2371 -2828 0
49 -2371 -2829 0
49 -2371 -2830 0
49 -2371 -2831 0
49 -2371 -2832 0
49 -2372 -2827 0
49 -2372 -2828 0
49 -2372 -2829 0
49 -2372 -2830 0
49 -2372 -2831 0
49 -2372 -2832 0
49 -2372 -2833 0
49 -2373 2374 0
49 -2375 2376 0
49 -2377 2385 0
49 -2378 2386 0
49 -2379 2387 0
49 -2380 2388 0
49 -2381 2389 0
49 -2382 2390 0
49 -2383 2391 0
49 -2384 2392 0
49 -2393 2394 0
49 -2395 2396 0
49 -2397 2403 0
49 -2398 2404 0
49 -2399 2405 0
49 -2400 2406 0
49 -2401 2407 0
49 -2402 2408 0
49 -2409 2410 0
49 -2411 2412 0
49 -2413 2414 0
49 -2415 2423 0
49 -2416 2424 0
49 -2417 2425 0
49 -2418 2426 0
49 -2419 2427 0
49 -2420 2428 0
49 -2421 2429 0
49 -2422 2430 0
49 -2431 2432 0
49 -2433 2437 0
49 -2434 2438 0
49 -2435 2439 0
49 -2436 2440 0
49 -2441 2442 0
49 -2443 2444 0
49 -2445 2446 0
49 -2447 2448 0
49 -2449 2457 0
49 -2450 2458 0
49 -2451 2459 0
49 -2452 2460 0
49 -2453 2461 0
49 -2454 2462 0
49 -2455 2463 0
49 -2456 2464 0
49 -2465 2466 0
49 -2467 2468 0
49 -2469 2471 0
49 -2470 2472 0
49 -2470 -2708 0
49 -2473 2481 0
49 -2474 2482 0
49 -2475 2483 0
49 -2476 2484 0
49 -2477 2485 0
49 -2478 2486 0
49 -2479 2487 0
49 -2480 2488 0
49 -2489 2500 0
49 -2490 2501 0
49 -2491 2502 0
49 -2492 2503 0
49 -2493 2504 0
49 -2494 2505 0
49 -2495 2506 0
49 -2496 2507 0
49 -2497 2508 0
49 -2498 2509 0
49 -2499 2510 0
49 -2489 -2752 0
49 -2489 -2753 0
49 -2489 -2754 0
49 -2489 -2755 0
49 -2489 -2756 0
49 -2489 -2757 0
49 -2489 -2758 0
49 -2490 -2753 0
49 -2490 -2754 0
49 -2490 -2755 0
49 -2490 -2756 0
49 -2490 -2757 0
49 -2490 -2758 0
49 -2491 -2754 0
49 -2491 -2755 0
49 -2491 -2756 0
49 -2491 -2757 0
49 -2491 -2758 0
49 -2492 -2755 0
49 -2492 -2756 0
49 -2492 -2757 0
49 -2492 -2758 0
49 -2493 -2756 0
49 -2493 -2757 0
49 -2493 -2758 0
49 -2494 -2757 0
49 -2494 -2758 0
49 -2495 -2758 0
49 -2511 2512 0
49 -2513 2514 0
49 -2515 2516 0
49 -2517 2525 0
49 -2518 2526 0
49 -2519 2527 0
49 -2520 2528 0
49 -2521 2529 0
49 -2522 2530 0
49 -2523 2531 0
49 -2524 2532 0
49 -2533 2534 0
49 -2535 2536 0
49 -2537 2541 0
49 -2538 2542 0
49 -2539 2543 0
49 -2540 2544 0
49 -2545 2546 0
49 -2547 2550 0
49 -2548 2551 0
49 -2549 2552 0
49 -2553 2554 0
49 -2555 2556 0
49 -2557 2558 0
49 -2559 2567 0
49 -2560 2568 0
49 -2561 2569 0
49 -2562 2570 0
49 -2563 2571 0
49 -2564 2572 0
49 -2565 2573 0
49 -2566 2574 0
49 -2575 2576 0
49 -2577 2578 0
49 -2579 2580 0
49 -2581 2582 0
49 -2583 2584 0
49 -2585 2586 0
49 -2587 2595 0
49 -2588 2596 0
49 -2589 2597 0
49 -2590 2598 0
49 -2591 2599 0
49 -2592 2600 0
49 -2593 2601 0
49 -2594 2602 0
49 -2588 -2643 0
49 -2589 -2644 0
49 -2590 -2645 0
49 -2591 -2646 0
49 -2592 -2647 0
49 -2593 -2648 0
49 -2594 -2649 0
49 -2587 -2652 0
49 -2587 -2653 0
49 -2587 -2654 0
49 -2587 -2655 0
49 -2587 -2656 0
49 -2587 -2657 0
49 -2587 -2658 0
49 -2588 -2653 0
49 -2588 -2654 0
49 -2588 -2655 0
49 -2588 -2656 0
49 -2588 -2657 0
49 -2588 -2658 0
49 -2589 -2654 0
49 -2589 -2655 0
49 -2589 -2656 0
49 -2589 -2657 0
49 -2589 -2658 0
49 -2590 -2655 0
49 -2590 -2656 0
49 -2590 -2657 0
49 -2590 -2658 0
49 -2591 -2656 0
49 -2591 -2657 0
49 -2591 -2658 0
49 -2592 -2657 0
49 -2592 -2658 0
49 -2593 -2658 0
49 -2596 -2643 0
49 -2597 -2643 0
49 -2597 -2644 0
49 -2598 -2643 0
49 -2598 -2644 0
49 -2598 -2645 0
49 -2599 -2643 0
49 -2599 -2644 0
49 -2599 -2645 0
49 -2599 -2646 0
49 -2600 -2643 0
49 -2600 -2644 0
49 -2600 -2645 0
49 -2600 -2646 0
49 -2600 -2647 0
49 -2601 -2643 0
49 -2601 -2644 0
49 -2601 -2645 0
49 -2601 -2646 0
49 -2601 -2647 0
49 -2601 -2648 0
49 -2602 -2643 0
49 -2602 -2644 0
49 -2602 -2645 0
49 -2602 -2646 0
49 -2602 -2647 0
49 -2602 -2648 0
49 -2602 -2649 0
49 -2596 -2651 0
49 -2597 -2652 0
49 -2598 -2653 0
49 -2599 -2654 0
49 -2600 -2655 0
49 -2601 -2656 0
49 -2602 -2657 0
49 -2596 -2827 0
49 -2597 -2827 0
49 -2597 -2828 0
49 -2598 -2827 0
49 -2598 -2828 0
49 -2598 -2829 0
49 -2599 -2827 0
49 -2599 -2828 0
49 -2599 -2829 0
49 -2599 -2830 0
49 -2600 -2827 0
49 -2600 -2828 0
49 -2600 -2829 0
49 -2600 -2830 0
49 -2600 -2831 0
49 -2601 -2827 0
49 -2601 -2828 0
49 -2601 -2829 0
49 -2601 -2830 0
49 -2601 -2831 0
49 -2601 -2832 0
49 -2602 -2827 0
49 -2602 -2828 0
49 -2602 -2829 0
49 -2602 -2830 0
49 -2602 -2831 0
49 -2602 -2832 0
49 -2602 -2833 0
49 -2596 -2835 0
49 -2597 -2835 0
49 -2597 -2836 0
49 -2598 -2835 0
49 -2598 -2836 0
49 -2598 -2837 0
49 -2599 -2836 0
49 -2599 -2837 0
49 -2599 -2838 0
49 -2600 -2837 0
49 -2600 -2838 0
49 -2600 -2839 0
49 -2601 -2838 0
49 -2601 -2839 0
49 -2601 -2840 0
49 -2602 -2839 0
49 -2602 -2840 0
49 -2602 -2841 0
49 -2603 2604 0
49 -2605 2606 0
49 -2607 2617 0
49 -2608 2618 0
49 -2609 2619 0
49 -2610 2620 0
49 -2611 2621 0
49 -2612 2622 0
49 -2613 2623 0
49 -2614 2624 0
49 -2615 2625 0
49 -2616 2626 0
49 -2608 -2627 0
49 -2609 -2628 0
49 -2610 -2629 0
49 -2611 -2630 0
49 -2612 -2631 0
49 -2613 -2632 0
49 -2614 -2633 0
49 -2615 -2634 0
49 -2607 -2636 0
49 -2607 -2637 0
49 -2607 -2638 0
49 -2607 -2639 0
49 -2607 -2640 0
49 -2607 -2641 0
49 -2607 -2642 0
49 -2608 -2637 0
49 -2608 -2638 0
49 -2608 -2639 0
49 -2608 -2640 0
49 -2608 -2641 0
49 -2608 -2642 0
49 -2609 -2638 0
49 -2609 -2639 0
49 -2609 -2640 0
49 -2609 -2641 0
49 -2609 -2642 0
49 -2610 -2639 0
49 -2610 -2640 0
49 -2610 -2641 0
49 -2610 -2642 0
49 -2611 -2640 0
49 -2611 -2641 0
49 -2611 -2642 0
49 -2612 -2641 0
49 -2612 -2642 0
49 -2613 -2642 0
49 -2627 2635 0
49 -2628 2636 0
49 -2629 2637 0
49 -2630 2638 0
49 -2631 2639 0
49 -2632 2640 0
49 -2633 2641 0
49 -2634 2642 0
49 -2643 2651 0
49 -2644 2652 0
49 -2645 2653 0
49 -2646 2654 0
49 -2647 2655 0
49 -2648 2656 0
49 -2649 2657 0
49 -2650 2658 0
49 -2652 -2827 0
49 -2653 -2827 0
49 -2653 -2828 0
49 -2654 -2827 0
49 -2654 -2828 0
49 -2654 -2829 0
49 -2655 -2827 0
49 -2655 -2828 0
49 -2655 -2829 0
49 -2655 -2830 0
49 -2656 -2827 0
49 -2656 -2828 0
49 -2656 -2829 0
49 -2656 -2830 0
49 -2656 -2831 0
49 -2657 -2827 0
49 -2657 -2828 0
49 -2657 -2829 0
49 -2657 -2830 0
49 -2657 -2831 0
49 -2657 -2832 0
49 -2658 -2827 0
49 -2658 -2828 0
49 -2658 -2829 0
49 -2658 -2830 0
49 -2658 -2831 0
49 -2658 -2832 0
49 -2658 -2833 0
49 -2652 -2835 0
49 -2653 -2836 0
49 -2654 -2837 0
49 -2655 -2838 0
49 -2656 -2839 0
49 -2657 -2840 0
49 -2658 -2841 0
49 -2659 2660 0
49 -2661 2662 0
49 -2663 2664 0
49 -2665 2688 0
49 -2666 2677 0
49 -2667 2678 0
49 -2668 2679 0
49 -2669 2680 0
49 -2670 2681 0
49 -2671 2682 0
49 -2672 2683 0
49 -2673 2684 0
49 -2674 2685 0
49 -2675 2686 0
49 -2676 2687 0
49 -2689 2697 0
49 -2690 2698 0
49 -2691 2699 0
49 -2692 2700 0
49 -2693 2701 0
49 -2694 2702 0
49 -2695 2703 0
49 -2696 2704 0
49 -2698 -2743 0
49 -2699 -2743 0
49 -2699 -2744 0
49 -2700 -2743 0
49 -2700 -2744 0
49 -2700 -2745 0
49 -2701 -2743 0
49 -2701 -2744 0
49 -2701 -2745 0
49 -2701 -2746 0
49 -2702 -2743 0
49 -2702 -2744 0
49 -2702 -2745 0
49 -2702 -2746 0
49 -2702 -2747 0
49 -2703 -2743 0
49 -2703 -2744 0
49 -2703 -2745 0
49 -2703 -2746 0
49 -2703 -2747 0
49 -2703 -2748 0
49 -2704 -2743 0
49 -2704 -2744 0
49 -2704 -2745 0
49 -2704 -2746 0
49 -2704 -2747 0
49 -2704 -2748 0
49 -2704 -2749 0
49 -2698 -2751 0
49 -2699 -2751 0
49 -2699 -2752 0
49 -2700 -2751 0
49 -2700 -2752 0
49 -2700 -2753 0
49 -2701 -2752 0
49 -2701 -2753 0
49 -2701 -2754 0
49 -2702 -2753 0
49 -2702 -2754 0
49 -2702 -2755 0
49 -2703 -2754 0
49 -2703 -2755 0
49 -2703 -2756 0
49 -2704 -2755 0
49 -2704 -2756 0
49 -2704 -2757 0
49 -2705 2706 0
49 -2707 2714 0
49 -2708 2715 0
49 -2709 2716 0
49 -2710 2717 0
49 -2711 2718 0
49 -2712 2719 0
49 -2713 2720 0
49 -2721 2722 0
49 -2723 2724 0
49 -2725 2726 0
49 -2727 2735 0
49 -2728 2736 0
49 -2729 2737 0
49 -2730 2738 0
49 -2731 2739 0
49 -2732 2740 0
49 -2733 2741 0
49 -2734 2742 0
49 -2743 2751 0
49 -2744 2752 0
49 -2745 2753 0
49 -2746 2754 0
49 -2747 2755 0
49 -2748 2756 0
49 -2749 2757 0
49 -2750 2758 0
49 -2759 2764 0
49 -2760 2765 0
49 -2761 2766 0
49 -2762 2767 0
49 -2763 2768 0
49 -2769 2770 0
49 -2771 2772 0
49 -2773 2774 0
49 -2775 2776 0
49 -2777 2778 0
49 -2779 2780 0
49 -2781 2784 0
49 -2782 2785 0
49 -2783 2786 0
49 -2787 2788 0
49 -2789 2790 0
49 -2791 2792 0
49 -2793 2801 0
49 -2794 2802 0
49 -2795 2803 0
49 -2796 2804 0
49 -2797 2805 0
49 -2798 2806 0
49 -2799 2807 0
49 -2800 2808 0
49 -2809 2810 0
49 -2811 2819 0
49 -2812 2820 0
49 -2813 2821 0
49 -2814 2822 0
49 -2815 2823 0
49 -2816 2824 0
49 -2817 2825 0
49 -2818 2826 0
49 -2827 2835 0
49 -2828 2836 0
49 -2829 2837 0
49 -2830 2838 0
49 -2831 2839 0
49 -2832 2840 0
49 -2833 2841 0
49 -2834 2842 0
49 -2836 -2845 0
49 -2837 -2845 0
49 -2838 -2845 0
49 -2839 -2845 0
49 -2839 -2846 0
49 -2840 -2845 0
49 -2840 -2846 0
49 -2840 -2847 0
49 -2841 -2845 0
49 -2841 -2846 0
49 -2841 -2847 0
49 -2841 -2848 0
49 -2842 -2845 0
49 -2842 -2846 0
49 -2842 -2847 0
49 -2842 -2848 0
49 -2842 -2849 0
49 -2836 -2851 0
49 -2839 -2852 0
49 -2840 -2853 0
49 -2841 -2854 0
49 -2842 -2855 0
49 -2843 2844 0
49 -2845 2851 0
49 -2846 2852 0
49 -2847 2853 0
49 -2848 2854 0
49 -2849 2855 0
49 -2850 2856 0
49 -2851 -2868 0
49 -2851 -2869 0
49 -2851 -2870 0
49 -2852 -2871 0
49 -2852 -2872 0
49 -2852 -2873 0
49 -2853 -2872 0
49 -2853 -2873 0
49 -2853 -2874 0
49 -2854 -2873 0
49 -2854 -2874 0
49 -2855 -2874 0
49 -2857 2858 0
49 -2859 2867 0
49 -2860 2868 0
49 -2861 2869 0
49 -2862 2870 0
49 -2863 2871 0
49 -2864 2872 0
49 -2865 2873 0
49 -2866 2874 0
49 -2868 -2875 0
49 -2869 -2875 0
49 -2870 -2875 0
49 -2871 -2875 0
49 -2871 -2876 0
49 -2872 -2875 0
49 -2872 -2876 0
49 -2872 -2877 0
49 -2873 -2875 0
49 -2873 -2876 0
49 -2873 -2877 0
49 -2873 -2878 0
49 -2874 -2875 0
49 -2874 -2876 0
49 -2874 -2877 0
49 -2874 -2878 0
49 -2874 -2879 0
49 -2868 -2881 0
49 -2869 -2881 0
49 -2870 -2881 0
49 -2871 -2882 0
49 -2872 -2882 0
49 -2872 -2883 0
49 -2873 -2882 0
49 -2873 -2883 0
49 -2873 -2884 0
49 -2874 -2883 0
49 -2874 -2884 0
49 -2874 -2885 0
49 -2875 2881 0
49 -2876 2882 0
49 -2877 2883 0
49 -2878 2884 0
49 -2879 2885 0
49 -2880 2886 0
49 -1 6791 0
49 -2 6804 0
49 -3 6789 0
49 -4 6802 0
49 -5 6821 0
49 -6 6822 0
49 -7 6823 0
49 -8 6824 0
49 -9 6825 0
49 -10 6826 0
49 -11 6827 0
49 -12 6809 0
49 -13 6810 0
49 -14 6811 0
49 -15 6812 0
49 -16 6814 0
49 -17 6815 0
49 -18 6816 0
49 -19 6792 0
49 -20 6805 0
49 -21 6788 0
49 -22 6801 0
49 -23 6790 0
49 -24 6803 0
49 -25 6788 0
49 -26 6801 0
49 -27 6788 0
49 -28 6801 0
49 -29 6795 0
49 -30 6813 0
49 -31 6783 0
49 -32 6784 0
49 -33 6785 0
49 -34 6786 0
49 -35 6787 0
49 -36 6796 0
49 -37 6797 0
49 -38 6798 0
49 -39 6799 0
49 -40 6800 0
49 -41 6792 0
49 -42 6805 0
49 -43 6820 0
49 -44 6821 0
49 -45 6822 0
49 -46 6823 0
49 -47 6824 0
49 -48 6825 0
49 -49 6826 0
49 -50 6827 0
49 -51 6828 0
49 -52 6829 0
49 -53 6830 0
49 -54 6808 0
49 -55 6809 0
49 -56 6810 0
49 -57 6811 0
49 -58 6812 0
49 -59 6814 0
49 -60 6815 0
49 -61 6816 0
49 -62 6817 0
49 -63 6818 0
49 -64 6819 0
49 -65 6823 0
49 -66 6824 0
49 -67 6825 0
49 -68 6826 0
49 -69 6827 0
49 -70 6828 0
49 -71 6829 0
49 -72 6830 0
49 -73 6811 0
49 -74 6812 0
49 -75 6814 0
49 -76 6815 0
49 -77 6816 0
49 -78 6817 0
49 -79 6818 0
49 -80 6819 0
49 -81 6822 0
49 -82 6824 0
49 -83 6826 0
49 -84 6828 0
49 -85 6810 0
49 -86 6812 0
49 -87 6815 0
49 -88 6817 0
49 -89 6787 0
49 -90 6800 0
49 -91 6787 0
49 -92 6800 0
49 -93 6821 0
49 -94 6822 0
49 -95 6823 0
49 -96 6824 0
49 -97 6825 0
49 -98 6826 0
49 -99 6827 0
49 -100 6828 0
49 -101 6809 0
49 -102 6810 0
49 -103 6811 0
49 -104 6812 0
49 -105 6814 0
49 -106 6815 0
49 -107 6816 0
49 -108 6817 0
49 -109 6794 0
49 -110 6795 0
49 -111 6807 0
49 -112 6813 0
49 -113 6787 0
49 -114 6800 0
49 -115 6793 0
49 -116 6806 0
49 -117 6793 0
49 -118 6806 0
49 -119 6788 0
49 -120 6827 0
49 -121 6828 0
49 -122 6829 0
49 -123 6830 0
49 -124 6801 0
49 -125 6816 0
49 -126 6817 0
49 -127 6818 0
49 -128 6819 0
49 -129 6787 0
49 -130 6800 0
49 -131 6788 0
49 -132 6801 0
49 -133 6823 0
49 -134 6824 0
49 -135 6825 0
49 -136 6826 0
49 -137 6827 0
49 -138 6828 0
49 -139 6829 0
49 -140 6830 0
49 -141 6811 0
49 -142 6812 0
49 -143 6814 0
49 -144 6815 0
49 -145 6816 0
49 -146 6817 0
49 -147 6818 0
49 -148 6819 0
49 -149 6784 0
49 -150 6786 0
49 -151 6788 0
49 -152 6790 0
49 -153 6797 0
49 -154 6799 0
49 -155 6801 0
49 -156 6803 0
49 -157 6784 0
49 -158 6785 0
49 -159 6786 0
49 -160 6792 0
49 -161 6822 0
49 -162 6823 0
49 -163 6824 0
49 -164 6797 0
49 -165 6798 0
49 -166 6799 0
49 -167 6805 0
49 -168 6810 0
49 -169 6811 0
49 -170 6812 0
49 -171 6791 0
49 -172 6820 0
49 -173 6821 0
49 -174 6822 0
49 -175 6823 0
49 -176 6824 0
49 -177 6804 0
49 -178 6808 0
49 -179 6809 0
49 -180 6810 0
49 -181 6811 0
49 -182 6812 0
49 -183 6820 0
49 -184 6821 0
49 -185 6822 0
49 -186 6823 0
49 -187 6824 0
49 -188 6825 0
49 -189 6826 0
49 -190 6827 0
49 -191 6828 0
49 -192 6829 0
49 -193 6830 0
49 -194 6808 0
49 -195 6809 0
49 -196 6810 0
49 -197 6811 0
49 -198 6812 0
49 -199 6814 0
49 -200 6815 0
49 -201 6816 0
49 -202 6817 0
49 -203 6818 0
49 -204 6819 0
49 -205 6788 0
49 -206 6801 0
49 -207 6792 0
49 -208 6805 0
49 -209 6820 0
49 -210 6821 0
49 -211 6822 0
49 -212 6823 0
49 -213 6824 0
49 -214 6825 0
49 -215 6826 0
49 -216 6827 0
49 -217 6828 0
49 -218 6829 0
49 -219 6830 0
49 -220 6808 0
49 -221 6809 0
49 -222 6810 0
49 -223 6811 0
49 -224 6812 0
49 -225 6814 0
49 -226 6815 0
49 -227 6816 0
49 -228 6817 0
49 -229 6818 0
49 -230 6819 0
49 -231 6823 0
49 -232 6824 0
49 -233 6825 0
49 -234 6826 0
49 -235 6827 0
49 -236 6828 0
49 -237 6829 0
49 -238 6830 0
49 -239 6811 0
49 -240 6812 0
49 -241 6814 0
49 -242 6815 0
49 -243 6816 0
49 -244 6817 0
49 -245 6818 0
49 -246 6819 0
49 -247 6790 0
49 -248 6803 0
49 -249 6791 0
49 -250 6804 0
49 -251 6793 0
49 -252 6806 0
49 -253 6788 0
49 -254 6801 0
49 -255 6794 0
49 -256 6807 0
49 -257 6792 0
49 -258 6805 0
49 -259 6820 0
49 -260 6821 0
49 -261 6822 0
49 -262 6823 0
49 -263 6824 0
49 -264 6825 0
49 -265 6826 0
49 -266 6827 0
49 -267 6808 0
49 -268 6809 0
49 -269 6810 0
49 -270 6811 0
49 -271 6812 0
49 -272 6814 0
49 -273 6815 0
49 -274 6816 0
49 -275 6794 0
49 -276 6807 0
49 -277 6792 0
49 -278 6805 0
49 -279 6820 0
49 -280 6821 0
49 -281 6822 0
49 -282 6823 0
49 -283 6824 0
49 -284 6825 0
49 -285 6826 0
49 -286 6808 0
49 -287 6809 0
49 -288 6810 0
49 -289 6811 0
49 -290 6812 0
49 -291 6814 0
49 -292 6815 0
49 -293 6793 0
49 -294 6806 0
49 -295 6794 0
49 -296 6807 0
49 -297 6787 0
49 -298 6788 0
49 -299 6789 0
49 -300 6790 0
49 -301 6791 0
49 -302 6792 0
49 -303 6793 0
49 -304 6800 0
49 -305 6801 0
49 -306 6802 0
49 -307 6803 0
49 -308 6804 0
49 -309 6805 0
49 -310 6806 0
49 -311 6823 0
49 -312 6811 0
49 -313 6793 0
49 -314 6806 0
49 -315 6790 0
49 -316 6803 0
49 -317 6787 0
49 -318 6800 0
49 -319 6792 0
49 -320 6805 0
49 -321 6823 0
49 -322 6824 0
49 -323 6825 0
49 -324 6826 0
49 -325 6827 0
49 -326 6828 0
49 -327 6829 0
49 -328 6830 0
49 -329 6811 0
49 -330 6812 0
49 -331 6814 0
49 -332 6815 0
49 -333 6816 0
49 -334 6817 0
49 -335 6818 0
49 -336 6819 0
49 -337 6790 0
49 -338 6803 0
49 -339 6823 0
49 -340 6824 0
49 -341 6825 0
49 -342 6826 0
49 -343 6827 0
49 -344 6828 0
49 -345 6829 0
49 -346 6830 0
49 -347 6811 0
49 -348 6812 0
49 -349 6814 0
49 -350 6815 0
49 -351 6816 0
49 -352 6817 0
49 -353 6818 0
49 -354 6819 0
49 -355 6789 0
49 -356 6802 0
49 -357 6783 0
49 -358 6784 0
49 -359 6785 0
49 -360 6786 0
49 -361 6787 0
49 -362 6788 0
49 -363 6789 0
49 -364 6790 0
49 -365 6796 0
49 -366 6797 0
49 -367 6798 0
49 -368 6799 0
49 -369 6800 0
49 -370 6801 0
49 -371 6802 0
49 -372 6803 0
49 -373 6787 0
49 -374 6800 0
49 -375 6793 0
49 -376 6806 0
49 -377 6793 0
49 -378 6824 0
49 -379 6825 0
49 -380 6806 0
49 -381 6812 0
49 -382 6814 0
49 -383 6790 0
49 -384 6822 0
49 -385 6803 0
49 -386 6810 0
49 -387 6789 0
49 -388 6802 0
49 -389 6791 0
49 -390 6804 0
49 -391 6789 0
49 -392 6802 0
49 -393 6792 0
49 -394 6822 0
49 -395 6823 0
49 -396 6824 0
49 -397 6805 0
49 -398 6810 0
49 -399 6811 0
49 -400 6812 0
49 -401 6790 0
49 -402 6803 0
49 -403 6823 0
49 -404 6824 0
49 -405 6825 0
49 -406 6826 0
49 -407 6827 0
49 -408 6828 0
49 -409 6829 0
49 -410 6830 0
49 -411 6811 0
49 -412 6812 0
49 -413 6814 0
49 -414 6815 0
49 -415 6816 0
49 -416 6817 0
49 -417 6818 0
49 -418 6819 0
49 -419 6795 0
49 -420 6813 0
49 -421 6821 0
49 -422 6822 0
49 -423 6823 0
49 -424 6824 0
49 -425 6825 0
49 -426 6826 0
49 -427 6827 0
49 -428 6828 0
49 -429 6809 0
49 -430 6810 0
49 -431 6811 0
49 -432 6812 0
49 -433 6814 0
49 -434 6815 0
49 -435 6816 0
49 -436 6817 0
49 -437 6791 0
49 -438 6804 0
49 -439 6792 0
49 -440 6805 0
49 -441 6822 0
49 -442 6828 0
49 -443 6830 0
49 -444 6810 0
49 -445 6817 0
49 -446 6819 0
49 -447 6792 0
49 -448 6805 0
49 -449 6791 0
49 -450 6793 0
49 -451 6830 0
49 -452 6804 0
49 -453 6806 0
49 -454 6819 0
49 -455 6794 0
49 -456 6795 0
49 -457 6807 0
49 -458 6813 0
49 -459 6823 0
49 -460 6824 0
49 -461 6825 0
49 -462 6826 0
49 -463 6827 0
49 -464 6828 0
49 -465 6829 0
49 -466 6830 0
49 -467 6811 0
49 -468 6812 0
49 -469 6814 0
49 -470 6815 0
49 -471 6816 0
49 -472 6817 0
49 -473 6818 0
49 -474 6819 0
49 -475 6789 0
49 -476 6802 0
49 -477 6822 0
49 -478 6824 0
49 -479 6826 0
49 -480 6828 0
49 -481 6810 0
49 -482 6812 0
49 -483 6815 0
49 -484 6817 0
49 -485 6784 0
49 -486 6785 0
49 -487 6786 0
49 -488 6787 0
49 -489 6788 0
49 -490 6792 0
49 -491 6828 0
49 -492 6829 0
49 -493 6797 0
49 -494 6798 0
49 -495 6799 0
49 -496 6800 0
49 -497 6801 0
49 -498 6805 0
49 -499 6817 0
49 -500 6818 0
49 -501 6820 0
49 -502 6821 0
49 -503 6822 0
49 -504 6823 0
49 -505 6824 0
49 -506 6825 0
49 -507 6826 0
49 -508 6827 0
49 -509 6828 0
49 -510 6829 0
49 -511 6830 0
49 -512 6808 0
49 -513 6809 0
49 -514 6810 0
49 -515 6811 0
49 -516 6812 0
49 -517 6814 0
49 -518 6815 0
49 -519 6816 0
49 -520 6817 0
49 -521 6818 0
49 -522 6819 0
49 -523 6821 0
49 -524 6822 0
49 -525 6823 0
49 -526 6824 0
49 -527 6825 0
49 -528 6826 0
49 -529 6827 0
49 -530 6809 0
49 -531 6810 0
49 -532 6811 0
49 -533 6812 0
49 -534 6814 0
49 -535 6815 0
49 -536 6816 0
49 -537 6790 0
49 -538 6803 0
49 -539 6783 0
49 -540 6784 0
49 -541 6785 0
49 -542 6786 0
49 -543 6788 0
49 -544 6796 0
49 -545 6797 0
49 -546 6798 0
49 -547 6799 0
49 -548 6801 0
49 -549 6822 0
49 -550 6823 0
49 -551 6824 0
49 -552 6825 0
49 -553 6826 0
49 -554 6827 0
49 -555 6828 0
49 -556 6829 0
49 -557 6810 0
49 -558 6811 0
49 -559 6812 0
49 -560 6814 0
49 -561 6815 0
49 -562 6816 0
49 -563 6817 0
49 -564 6818 0
49 -565 6822 0
49 -566 6823 0
49 -567 6824 0
49 -568 6825 0
49 -569 6826 0
49 -570 6827 0
49 -571 6828 0
49 -572 6829 0
49 -573 6810 0
49 -574 6811 0
49 -575 6812 0
49 -576 6814 0
49 -577 6815 0
49 -578 6816 0
49 -579 6817 0
49 -580 6818 0
49 -581 6790 0
49 -582 6820 0
49 -583 6821 0
49 -584 6822 0
49 -585 6803 0
49 -586 6808 0
49 -587 6809 0
49 -588 6810 0
49 -589 6789 0
49 -590 6802 0
49 -591 6822 0
49 -592 6810 0
49 -593 6787 0
49 -594 6800 0
49 -595 6784 0
49 -596 6792 0
49 -597 6822 0
49 -598 6823 0
49 -599 6824 0
49 -600 6825 0
49 -601 6826 0
49 -602 6827 0
49 -603 6828 0
49 -604 6829 0
49 -605 6797 0
49 -606 6805 0
49 -607 6810 0
49 -608 6811 0
49 -609 6812 0
49 -610 6814 0
49 -611 6815 0
49 -612 6816 0
49 -613 6817 0
49 -614 6818 0
49 -615 6794 0
49 -616 6795 0
49 -617 6807 0
49 -618 6813 0
49 -619 6784 0
49 -620 6785 0
49 -621 6791 0
49 -622 6797 0
49 -623 6798 0
49 -624 6804 0
49 -625 6791 0
49 -626 6804 0
49 -627 6793 0
49 -628 6806 0
49 -629 6788 0
49 -630 6801 0
49 -631 6790 0
49 -632 6803 0
49 -633 6787 0
49 -634 6800 0
49 -635 6789 0
49 -636 6802 0
49 -637 6788 0
49 -638 6801 0
49 -639 6791 0
49 -640 6804 0
49 -641 6792 0
49 -642 6805 0
49 -643 6787 0
49 -644 6800 0
49 -645 6793 0
49 -646 6824 0
49 -647 6825 0
49 -648 6826 0
49 -649 6827 0
49 -650 6828 0
49 -651 6829 0
49 -652 6830 0
49 -653 6806 0
49 -654 6812 0
49 -655 6814 0
49 -656 6815 0
49 -657 6816 0
49 -658 6817 0
49 -659 6818 0
49 -660 6819 0
49 -661 6785 0
49 -662 6786 0
49 -663 6787 0
49 -664 6788 0
49 -665 6798 0
49 -666 6799 0
49 -667 6800 0
49 -668 6801 0
49 -669 6789 0
49 -670 6802 0
49 -671 6784 0
49 -672 6786 0
49 -673 6788 0
49 -674 6797 0
49 -675 6799 0
49 -676 6801 0
49 -677 6795 0
49 -678 6813 0
49 -679 6793 0
49 -680 6806 0
49 -681 6786 0
49 -682 6787 0
49 -683 6788 0
49 -684 6789 0
49 -685 6799 0
49 -686 6800 0
49 -687 6801 0
49 -688 6802 0
49 -689 6823 0
49 -690 6824 0
49 -691 6825 0
49 -692 6826 0
49 -693 6827 0
49 -694 6828 0
49 -695 6829 0
49 -696 6830 0
49 -697 6811 0
49 -698 6812 0
49 -699 6814 0
49 -700 6815 0
49 -701 6816 0
49 -702 6817 0
49 -703 6818 0
49 -704 6819 0
49 -705 6794 0
49 -706 6807 0
49 -707 6792 0
49 -708 6805 0
49 -709 6795 0
49 -710 6813 0
49 -711 6794 0
49 -712 6807 0
49 -713 6787 0
49 -714 6800 0
49 -715 6791 0
49 -716 6804 0
49 -717 6791 0
49 -718 6804 0
49 -719 6794 0
49 -720 6807 0
49 -721 6791 0
49 -722 6804 0
49 -723 6784 0
49 -724 6785 0
49 -725 6786 0
49 -726 6787 0
49 -727 6797 0
49 -728 6798 0
49 -729 6799 0
49 -730 6800 0
49 -731 6823 0
49 -732 6826 0
49 -733 6827 0
49 -734 6828 0
49 -735 6829 0
49 -736 6830 0
49 -737 6811 0
49 -738 6815 0
49 -739 6816 0
49 -740 6817 0
49 -741 6818 0
49 -742 6819 0
49 -743 6821 0
49 -744 6822 0
49 -745 6823 0
49 -746 6824 0
49 -747 6825 0
49 -748 6826 0
49 -749 6827 0
49 -750 6828 0
49 -751 6829 0
49 -752 6830 0
49 -753 6809 0
49 -754 6810 0
49 -755 6811 0
49 -756 6812 0
49 -757 6814 0
49 -758 6815 0
49 -759 6816 0
49 -760 6817 0
49 -761 6818 0
49 -762 6819 0
49 -763 6822 0
49 -764 6827 0
49 -765 6828 0
49 -766 6829 0
49 -767 6810 0
49 -768 6816 0
49 -769 6817 0
49 -770 6818 0
49 -771 6823 0
49 -772 6824 0
49 -773 6825 0
49 -774 6826 0
49 -775 6827 0
49 -776 6828 0
49 -777 6829 0
49 -778 6830 0
49 -779 6811 0
49 -780 6812 0
49 -781 6814 0
49 -782 6815 0
49 -783 6816 0
49 -784 6817 0
49 -785 6818 0
49 -786 6819 0
49 -787 6787 0
49 -788 6800 0
49 -789 6794 0
49 -790 6807 0
49 -791 6823 0
49 -792 6824 0
49 -793 6825 0
49 -794 6826 0
49 -795 6827 0
49 -796 6828 0
49 -797 6829 0
49 -798 6830 0
49 -799 6811 0
49 -800 6812 0
49 -801 6814 0
49 -802 6815 0
49 -803 6816 0
49 -804 6817 0
49 -805 6818 0
49 -806 6819 0
49 -807 6788 0
49 -808 6801 0
49 -809 6789 0
49 -810 6802 0
49 -811 6791 0
49 -812 6804 0
49 -813 6788 0
49 -814 6801 0
49 -815 6794 0
49 -816 6807 0
49 -817 6793 0
49 -818 6822 0
49 -819 6823 0
49 -820 6806 0
49 -821 6810 0
49 -822 6811 0
49 -823 6794 0
49 -824 6807 0
49 -825 6787 0
49 -826 6800 0
49 -827 6792 0
49 -828 6805 0
49 -829 6789 0
49 -830 6790 0
49 -831 6791 0
49 -832 6792 0
49 -833 6797 0
49 -834 6798 0
49 -835 6799 0
49 -836 6800 0
49 -837 6801 0
49 -838 6802 0
49 -839 6803 0
49 -840 6804 0
49 -841 6805 0
49 -842 6821 0
49 -843 6822 0
49 -844 6784 0
49 -845 6785 0
49 -846 6786 0
49 -847 6787 0
49 -848 6788 0
49 -849 6789 0
49 -850 6790 0
49 -851 6791 0
49 -852 6792 0
49 -853 6802 0
49 -854 6803 0
49 -855 6804 0
49 -856 6805 0
49 -857 6809 0
49 -858 6810 0
49 -859 6784 0
49 -860 6785 0
49 -861 6786 0
49 -862 6787 0
49 -863 6791 0
49 -864 6797 0
49 -865 6798 0
49 -866 6799 0
49 -867 6800 0
49 -868 6804 0
49 -869 6787 0
49 -870 6800 0
49 -871 6788 0
49 -872 6801 0
49 -873 6787 0
49 -874 6800 0
49 -875 6788 0
49 -876 6789 0
49 -877 6790 0
49 -878 6791 0
49 -879 6792 0
49 -880 6793 0
49 -881 6808 0
49 -882 6809 0
49 -883 6810 0
49 -884 6811 0
49 -885 6812 0
49 -886 6814 0
49 -887 6815 0
49 -888 6816 0
49 -889 6817 0
49 -890 6818 0
49 -891 6819 0
49 -892 6820 0
49 -893 6821 0
49 -894 6822 0
49 -895 6823 0
49 -896 6824 0
49 -897 6825 0
49 -898 6826 0
49 -899 6827 0
49 -900 6828 0
49 -901 6829 0
49 -902 6830 0
49 -903 6801 0
49 -904 6802 0
49 -905 6803 0
49 -906 6804 0
49 -907 6805 0
49 -908 6806 0
49 -909 6808 0
49 -910 6809 0
49 -911 6810 0
49 -912 6811 0
49 -913 6812 0
49 -914 6814 0
49 -915 6815 0
49 -916 6816 0
49 -917 6817 0
49 -918 6818 0
49 -919 6819 0
49 -920 6820 0
49 -921 6821 0
49 -922 6822 0
49 -923 6823 0
49 -924 6824 0
49 -925 6825 0
49 -926 6826 0
49 -927 6827 0
49 -928 6828 0
49 -929 6829 0
49 -930 6830 0
49 -931 6784 0
49 -932 6785 0
49 -933 6786 0
49 -934 6787 0
49 -935 6788 0
49 -936 6789 0
49 -937 6797 0
49 -938 6798 0
49 -939 6799 0
49 -940 6800 0
49 -941 6801 0
49 -942 6802 0
49 -943 6790 0
49 -944 6803 0
49 -945 6794 0
49 -946 6807 0
49 -947 6783 0
49 -948 6784 0
49 -949 6785 0
49 -950 6786 0
49 -951 6787 0
49 -952 6788 0
49 -953 6790 0
49 -954 6796 0
49 -955 6783 0
49 -956 6796 0
49 -957 6797 0
49 -958 6798 0
49 -959 6799 0
49 -960 6800 0
49 -961 6801 0
49 -962 6803 0
49 -963 6823 0
49 -964 6824 0
49 -965 6825 0
49 -966 6826 0
49 -967 6827 0
49 -968 6828 0
49 -969 6829 0
49 -970 6830 0
49 -971 6811 0
49 -972 6812 0
49 -973 6814 0
49 -974 6815 0
49 -975 6816 0
49 -976 6817 0
49 -977 6818 0
49 -978 6819 0
49 -979 6823 0
49 -980 6824 0
49 -981 6825 0
49 -982 6826 0
49 -983 6827 0
49 -984 6828 0
49 -985 6829 0
49 -986 6830 0
49 -987 6811 0
49 -988 6812 0
49 -989 6814 0
49 -990 6815 0
49 -991 6816 0
49 -992 6817 0
49 -993 6818 0
49 -994 6819 0
49 -995 6821 0
49 -996 6822 0
49 -997 6823 0
49 -998 6824 0
49 -999 6825 0
49 -1000 6826 0
49 -1001 6827 0
49 -1002 6828 0
49 -1003 6809 0
49 -1004 6810 0
49 -1005 6811 0
49 -1006 6812 0
49 -1007 6814 0
49 -1008 6815 0
49 -1009 6816 0
49 -1010 6817 0
49 -1011 6790 0
49 -1012 6803 0
49 -1013 6789 0
49 -1014 6802 0
49 -1015 6795 0
49 -1016 6813 0
49 -1017 6793 0
49 -1018 6806 0
49 -1019 6789 0
49 -1020 6802 0
49 -1021 6823 0
49 -1022 6824 0
49 -1023 6825 0
49 -1024 6826 0
49 -1025 6827 0
49 -1026 6828 0
49 -1027 6829 0
49 -1028 6830 0
49 -1029 6811 0
49 -1030 6812 0
49 -1031 6814 0
49 -1032 6815 0
49 -1033 6816 0
49 -1034 6817 0
49 -1035 6818 0
49 -1036 6819 0
49 -1037 6822 0
49 -1038 6810 0
49 -1039 6823 0
49 -1040 6824 0
49 -1041 6825 0
49 -1042 6826 0
49 -1043 6827 0
49 -1044 6828 0
49 -1045 6829 0
49 -1046 6830 0
49 -1047 6811 0
49 -1048 6812 0
49 -1049 6814 0
49 -1050 6815 0
49 -1051 6816 0
49 -1052 6817 0
49 -1053 6818 0
49 -1054 6819 0
49 -1055 6795 0
49 -1056 6813 0
49 -1057 6787 0
49 -1058 6800 0
49 -1059 6791 0
49 -1060 6804 0
49 -1061 6823 0
49 -1062 6811 0
49 -1063 6821 0
49 -1064 6822 0
49 -1065 6823 0
49 -1066 6824 0
49 -1067 6825 0
49 -1068 6826 0
49 -1069 6827 0
49 -1070 6828 0
49 -1071 6809 0
49 -1072 6810 0
49 -1073 6811 0
49 -1074 6812 0
49 -1075 6814 0
49 -1076 6815 0
49 -1077 6816 0
49 -1078 6817 0
49 -1079 6823 0
49 -1080 6824 0
49 -1081 6825 0
49 -1082 6826 0
49 -1083 6827 0
49 -1084 6828 0
49 -1085 6829 0
49 -1086 6830 0
49 -1087 6811 0
49 -1088 6812 0
49 -1089 6814 0
49 -1090 6815 0
49 -1091 6816 0
49 -1092 6817 0
49 -1093 6818 0
49 -1094 6819 0
49 -1095 6791 0
49 -1096 6804 0
49 -1097 6787 0
49 -1098 6800 0
49 -1099 6820 0
49 -1100 6808 0
49 -1101 6787 0
49 -1102 6800 0
49 -1103 6822 0
49 -1104 6810 0
49 -1105 6791 0
49 -1106 6804 0
49 -1107 6822 0
49 -1108 6828 0
49 -1109 6829 0
49 -1110 6810 0
49 -1111 6817 0
49 -1112 6818 0
49 -1113 6790 0
49 -1114 6803 0
49 -1115 6822 0
49 -1116 6823 0
49 -1117 6824 0
49 -1118 6825 0
49 -1119 6826 0
49 -1120 6827 0
49 -1121 6828 0
49 -1122 6829 0
49 -1123 6810 0
49 -1124 6811 0
49 -1125 6812 0
49 -1126 6814 0
49 -1127 6815 0
49 -1128 6816 0
49 -1129 6817 0
49 -1130 6818 0
49 -1131 6791 0
49 -1132 6804 0
49 -1133 6795 0
49 -1134 6813 0
49 -1135 6823 0
49 -1136 6824 0
49 -1137 6825 0
49 -1138 6826 0
49 -1139 6827 0
49 -1140 6828 0
49 -1141 6829 0
49 -1142 6830 0
49 -1143 6811 0
49 -1144 6812 0
49 -1145 6814 0
49 -1146 6815 0
49 -1147 6816 0
49 -1148 6817 0
49 -1149 6818 0
49 -1150 6819 0
49 -1151 6792 0
49 -1152 6821 0
49 -1153 6822 0
49 -1154 6823 0
49 -1155 6805 0
49 -1156 6809 0
49 -1157 6810 0
49 -1158 6811 0
49 -1159 6783 0
49 -1160 6789 0
49 -1161 6793 0
49 -1162 6796 0
49 -1163 6797 0
49 -1164 6798 0
49 -1165 6799 0
49 -1166 6800 0
49 -1167 6801 0
49 -1168 6802 0
49 -1169 6803 0
49 -1170 6804 0
49 -1171 6805 0
49 -1172 6806 0
49 -1173 6783 0
49 -1174 6784 0
49 -1175 6785 0
49 -1176 6786 0
49 -1177 6787 0
49 -1178 6788 0
49 -1179 6789 0
49 -1180 6790 0
49 -1181 6791 0
49 -1182 6792 0
49 -1183 6793 0
49 -1184 6796 0
49 -1185 6802 0
49 -1186 6806 0
49 -1187 6792 0
49 -1188 6794 0
49 -1189 6795 0
49 -1190 6805 0
49 -1191 6807 0
49 -1192 6813 0
49 -1193 6821 0
49 -1194 6809 0
49 -1195 6784 0
49 -1196 6785 0
49 -1197 6786 0
49 -1198 6787 0
49 -1199 6788 0
49 -1200 6789 0
49 -1201 6797 0
49 -1202 6798 0
49 -1203 6799 0
49 -1204 6800 0
49 -1205 6801 0
49 -1206 6802 0
49 -1207 6792 0
49 -1208 6805 0
49 -1209 6794 0
49 -1210 6807 0
49 -1211 6793 0
49 -1212 6796 0
49 -1213 6797 0
49 -1214 6798 0
49 -1215 6799 0
49 -1216 6800 0
49 -1217 6801 0
49 -1218 6783 0
49 -1219 6784 0
49 -1220 6785 0
49 -1221 6786 0
49 -1222 6787 0
49 -1223 6788 0
49 -1224 6806 0
49 -1225 6791 0
49 -1226 6804 0
49 -1227 6794 0
49 -1228 6795 0
49 -1229 6807 0
49 -1230 6813 0
49 -1231 6795 0
49 -1232 6813 0
49 -1233 6787 0
49 -1234 6800 0
49 -1235 6821 0
49 -1236 6823 0
49 -1237 6824 0
49 -1238 6825 0
49 -1239 6826 0
49 -1240 6827 0
49 -1241 6828 0
49 -1242 6809 0
49 -1243 6811 0
49 -1244 6812 0
49 -1245 6814 0
49 -1246 6815 0
49 -1247 6816 0
49 -1248 6817 0
49 -1249 6784 0
49 -1250 6785 0
49 -1251 6786 0
49 -1252 6787 0
49 -1253 6797 0
49 -1254 6798 0
49 -1255 6799 0
49 -1256 6800 0
49 -1257 6790 0
49 -1258 6803 0
49 -1259 6789 0
49 -1260 6802 0
49 -1261 6788 0
49 -1262 6825 0
49 -1263 6826 0
49 -1264 6827 0
49 -1265 6828 0
49 -1266 6829 0
49 -1267 6830 0
49 -1268 6801 0
49 -1269 6814 0
49 -1270 6815 0
49 -1271 6816 0
49 -1272 6817 0
49 -1273 6818 0
49 -1274 6819 0
49 -1275 6822 0
49 -1276 6823 0
49 -1277 6824 0
49 -1278 6825 0
49 -1279 6826 0
49 -1280 6827 0
49 -1281 6828 0
49 -1282 6829 0
49 -1283 6810 0
49 -1284 6811 0
49 -1285 6812 0
49 -1286 6814 0
49 -1287 6815 0
49 -1288 6816 0
49 -1289 6817 0
49 -1290 6818 0
49 -1291 6793 0
49 -1292 6826 0
49 -1293 6827 0
49 -1294 6828 0
49 -1295 6829 0
49 -1296 6830 0
49 -1297 6806 0
49 -1298 6815 0
49 -1299 6816 0
49 -1300 6817 0
49 -1301 6818 0
49 -1302 6819 0
49 -1303 6793 0
49 -1304 6806 0
49 -1305 6822 0
49 -1306 6827 0
49 -1307 6828 0
49 -1308 6829 0
49 -1309 6810 0
49 -1310 6816 0
49 -1311 6817 0
49 -1312 6818 0
49 -1313 6792 0
49 -1314 6805 0
49 -1315 6791 0
49 -1316 6804 0
49 -1317 6791 0
49 -1318 6804 0
49 -1319 6791 0
49 -1320 6804 0
49 -1321 6823 0
49 -1322 6826 0
49 -1323 6827 0
49 -1324 6828 0
49 -1325 6829 0
49 -1326 6830 0
49 -1327 6811 0
49 -1328 6815 0
49 -1329 6816 0
49 -1330 6817 0
49 -1331 6818 0
49 -1332 6819 0
49 -1333 6794 0
49 -1334 6807 0
49 -1335 6793 0
49 -1336 6806 0
49 -1337 6820 0
49 -1338 6808 0
49 -1339 6795 0
49 -1340 6813 0
49 -1341 6823 0
49 -1342 6824 0
49 -1343 6825 0
49 -1344 6826 0
49 -1345 6827 0
49 -1346 6828 0
49 -1347 6829 0
49 -1348 6830 0
49 -1349 6811 0
49 -1350 6812 0
49 -1351 6814 0
49 -1352 6815 0
49 -1353 6816 0
49 -1354 6817 0
49 -1355 6818 0
49 -1356 6819 0
49 -1357 6795 0
49 -1358 6813 0
49 -1359 6795 0
49 -1360 6813 0
49 -1361 6793 0
49 -1362 6806 0
49 -1363 6793 0
49 -1364 6806 0
49 -1365 6792 0
49 -1366 6828 0
49 -1367 6829 0
49 -1368 6805 0
49 -1369 6817 0
49 -1370 6818 0
49 -1371 6793 0
49 -1372 6819 0
49 -1373 6820 0
49 -1374 6821 0
49 -1375 6822 0
49 -1376 6823 0
49 -1377 6824 0
49 -1378 6825 0
49 -1379 6828 0
49 -1380 6829 0
49 -1381 6830 0
49 -1382 6806 0
49 -1383 6808 0
49 -1384 6809 0
49 -1385 6810 0
49 -1386 6811 0
49 -1387 6812 0
49 -1388 6814 0
49 -1389 6817 0
49 -1390 6818 0
49 -1391 6819 0
49 -1392 6830 0
49 -1393 6790 0
49 -1394 6803 0
49 -1395 6787 0
49 -1396 6818 0
49 -1397 6819 0
49 -1398 6820 0
49 -1399 6821 0
49 -1400 6822 0
49 -1401 6823 0
49 -1402 6824 0
49 -1403 6825 0
49 -1404 6826 0
49 -1405 6827 0
49 -1406 6828 0
49 -1407 6829 0
49 -1408 6830 0
49 -1409 6800 0
49 -1410 6808 0
49 -1411 6809 0
49 -1412 6810 0
49 -1413 6811 0
49 -1414 6812 0
49 -1415 6814 0
49 -1416 6815 0
49 -1417 6816 0
49 -1418 6817 0
49 -1419 6818 0
49 -1420 6819 0
49 -1421 6829 0
49 -1422 6830 0
49 -1423 6789 0
49 -1424 6802 0
49 -1425 6792 0
49 -1426 6805 0
49 -1427 6792 0
49 -1428 6805 0
49 -1429 6787 0
49 -1430 6827 0
49 -1431 6828 0
49 -1432 6829 0
49 -1433 6830 0
49 -1434 6800 0
49 -1435 6816 0
49 -1436 6817 0
49 -1437 6818 0
49 -1438 6819 0
49 -1439 6793 0
49 -1440 6806 0
49 -1441 6789 0
49 -1442 6802 0
49 -1443 6823 0
49 -1444 6826 0
49 -1445 6827 0
49 -1446 6828 0
49 -1447 6829 0
49 -1448 6830 0
49 -1449 6811 0
49 -1450 6815 0
49 -1451 6816 0
49 -1452 6817 0
49 -1453 6818 0
49 -1454 6819 0
49 -1455 6786 0
49 -1456 6787 0
49 -1457 6788 0
49 -1458 6789 0
49 -1459 6790 0
49 -1460 6791 0
49 -1461 6792 0
49 -1462 6799 0
49 -1463 6800 0
49 -1464 6801 0
49 -1465 6802 0
49 -1466 6803 0
49 -1467 6804 0
49 -1468 6805 0
49 -1469 6791 0
49 -1470 6804 0
49 -1471 6787 0
49 -1472 6800 0
49 -1473 6823 0
49 -1474 6824 0
49 -1475 6825 0
49 -1476 6826 0
49 -1477 6827 0
49 -1478 6828 0
49 -1479 6829 0
49 -1480 6830 0
49 -1481 6811 0
49 -1482 6812 0
49 -1483 6814 0
49 -1484 6815 0
49 -1485 6816 0
49 -1486 6817 0
49 -1487 6818 0
49 -1488 6819 0
49 -1489 6823 0
49 -1490 6824 0
49 -1491 6825 0
49 -1492 6826 0
49 -1493 6827 0
49 -1494 6828 0
49 -1495 6829 0
49 -1496 6830 0
49 -1497 6811 0
49 -1498 6812 0
49 -1499 6814 0
49 -1500 6815 0
49 -1501 6816 0
49 -1502 6817 0
49 -1503 6818 0
49 -1504 6819 0
49 -1505 6820 0
49 -1506 6808 0
49 -1507 6821 0
49 -1508 6822 0
49 -1509 6823 0
49 -1510 6824 0
49 -1511 6825 0
49 -1512 6826 0
49 -1513 6827 0
49 -1514 6828 0
49 -1515 6829 0
49 -1516 6830 0
49 -1517 6809 0
49 -1518 6810 0
49 -1519 6811 0
49 -1520 6812 0
49 -1521 6814 0
49 -1522 6815 0
49 -1523 6816 0
49 -1524 6817 0
49 -1525 6818 0
49 -1526 6819 0
49 -1527 6784 0
49 -1528 6785 0
49 -1529 6786 0
49 -1530 6787 0
49 -1531 6788 0
49 -1532 6789 0
49 -1533 6805 0
49 -1534 6809 0
49 -1535 6810 0
49 -1536 6811 0
49 -1537 6812 0
49 -1538 6814 0
49 -1539 6815 0
49 -1540 6816 0
49 -1541 6817 0
49 -1542 6818 0
49 -1543 6826 0
49 -1544 6827 0
49 -1545 6828 0
49 -1546 6829 0
49 -1547 6792 0
49 -1548 6797 0
49 -1549 6798 0
49 -1550 6799 0
49 -1551 6800 0
49 -1552 6801 0
49 -1553 6802 0
49 -1554 6815 0
49 -1555 6816 0
49 -1556 6817 0
49 -1557 6818 0
49 -1558 6821 0
49 -1559 6822 0
49 -1560 6823 0
49 -1561 6824 0
49 -1562 6825 0
49 -1563 6826 0
49 -1564 6827 0
49 -1565 6828 0
49 -1566 6829 0
49 -1567 6823 0
49 -1568 6824 0
49 -1569 6825 0
49 -1570 6826 0
49 -1571 6827 0
49 -1572 6828 0
49 -1573 6829 0
49 -1574 6830 0
49 -1575 6811 0
49 -1576 6812 0
49 -1577 6814 0
49 -1578 6815 0
49 -1579 6816 0
49 -1580 6817 0
49 -1581 6818 0
49 -1582 6819 0
49 -1583 6820 0
49 -1584 6821 0
49 -1585 6822 0
49 -1586 6823 0
49 -1587 6824 0
49 -1588 6825 0
49 -1589 6826 0
49 -1590 6827 0
49 -1591 6808 0
49 -1592 6809 0
49 -1593 6810 0
49 -1594 6811 0
49 -1595 6812 0
49 -1596 6814 0
49 -1597 6815 0
49 -1598 6816 0
49 -1599 6790 0
49 -1600 6803 0
49 -1601 6823 0
49 -1602 6826 0
49 -1603 6827 0
49 -1604 6828 0
49 -1605 6829 0
49 -1606 6830 0
49 -1607 6811 0
49 -1608 6815 0
49 -1609 6816 0
49 -1610 6817 0
49 -1611 6818 0
49 -1612 6819 0
49 -1613 6792 0
49 -1614 6805 0
49 -1615 6820 0
49 -1616 6821 0
49 -1617 6822 0
49 -1618 6823 0
49 -1619 6824 0
49 -1620 6825 0
49 -1621 6826 0
49 -1622 6827 0
49 -1623 6808 0
49 -1624 6809 0
49 -1625 6810 0
49 -1626 6811 0
49 -1627 6812 0
49 -1628 6814 0
49 -1629 6815 0
49 -1630 6816 0
49 -1631 6794 0
49 -1632 6807 0
49 -1633 6793 0
49 -1634 6806 0
49 -1635 6821 0
49 -1636 6809 0
49 -1637 6790 0
49 -1638 6803 0
49 -1639 6822 0
49 -1640 6810 0
49 -1641 6783 0
49 -1642 6784 0
49 -1643 6790 0
49 -1644 6820 0
49 -1645 6821 0
49 -1646 6822 0
49 -1647 6796 0
49 -1648 6797 0
49 -1649 6803 0
49 -1650 6808 0
49 -1651 6809 0
49 -1652 6810 0
49 -1653 6789 0
49 -1654 6802 0
49 -1655 6822 0
49 -1656 6823 0
49 -1657 6824 0
49 -1658 6825 0
49 -1659 6826 0
49 -1660 6827 0
49 -1661 6828 0
49 -1662 6829 0
49 -1663 6810 0
49 -1664 6811 0
49 -1665 6812 0
49 -1666 6814 0
49 -1667 6815 0
49 -1668 6816 0
49 -1669 6817 0
49 -1670 6818 0
49 -1671 6788 0
49 -1672 6801 0
49 -1673 6821 0
49 -1674 6828 0
49 -1675 6809 0
49 -1676 6817 0
49 -1677 6823 0
49 -1678 6824 0
49 -1679 6825 0
49 -1680 6826 0
49 -1681 6827 0
49 -1682 6828 0
49 -1683 6829 0
49 -1684 6830 0
49 -1685 6811 0
49 -1686 6812 0
49 -1687 6814 0
49 -1688 6815 0
49 -1689 6816 0
49 -1690 6817 0
49 -1691 6818 0
49 -1692 6819 0
49 -1693 6792 0
49 -1694 6805 0
49 -1695 6790 0
49 -1696 6803 0
49 -1697 6792 0
49 -1698 6829 0
49 -1699 6805 0
49 -1700 6818 0
49 -1701 6822 0
49 -1702 6823 0
49 -1703 6824 0
49 -1704 6825 0
49 -1705 6826 0
49 -1706 6827 0
49 -1707 6828 0
49 -1708 6829 0
49 -1709 6810 0
49 -1710 6811 0
49 -1711 6812 0
49 -1712 6814 0
49 -1713 6815 0
49 -1714 6816 0
49 -1715 6817 0
49 -1716 6818 0
49 -1717 6787 0
49 -1718 6800 0
49 -1719 6789 0
49 -1720 6802 0
49 -1721 6823 0
49 -1722 6811 0
49 -1723 6795 0
49 -1724 6813 0
49 -1725 6795 0
49 -1726 6813 0
49 -1727 6794 0
49 -1728 6807 0
49 -1729 6821 0
49 -1730 6822 0
49 -1731 6823 0
49 -1732 6824 0
49 -1733 6825 0
49 -1734 6826 0
49 -1735 6827 0
49 -1736 6828 0
49 -1737 6809 0
49 -1738 6810 0
49 -1739 6811 0
49 -1740 6812 0
49 -1741 6814 0
49 -1742 6815 0
49 -1743 6816 0
49 -1744 6817 0
49 -1745 6794 0
49 -1746 6807 0
49 -1747 6788 0
49 -1748 6801 0
49 -1749 6821 0
49 -1750 6822 0
49 -1751 6823 0
49 -1752 6824 0
49 -1753 6825 0
49 -1754 6826 0
49 -1755 6827 0
49 -1756 6828 0
49 -1757 6809 0
49 -1758 6810 0
49 -1759 6811 0
49 -1760 6812 0
49 -1761 6814 0
49 -1762 6815 0
49 -1763 6816 0
49 -1764 6817 0
49 -1765 6792 0
49 -1766 6805 0
49 -1767 6792 0
49 -1768 6805 0
49 -1769 6792 0
49 -1770 6794 0
49 -1771 6805 0
49 -1772 6807 0
49 -1773 6795 0
49 -1774 6813 0
49 -1775 6792 0
49 -1776 6805 0
49 -1777 6784 0
49 -1778 6785 0
49 -1779 6789 0
49 -1780 6791 0
49 -1781 6792 0
49 -1782 6797 0
49 -1783 6798 0
49 -1784 6818 0
49 -1785 6821 0
49 -1786 6784 0
49 -1787 6785 0
49 -1788 6797 0
49 -1789 6798 0
49 -1790 6802 0
49 -1791 6804 0
49 -1792 6805 0
49 -1793 6809 0
49 -1794 6829 0
49 -1795 6783 0
49 -1796 6784 0
49 -1797 6785 0
49 -1798 6786 0
49 -1799 6790 0
49 -1800 6796 0
49 -1801 6797 0
49 -1802 6798 0
49 -1803 6799 0
49 -1804 6803 0
49 -1805 6795 0
49 -1806 6805 0
49 -1807 6792 0
49 -1808 6813 0
49 -1809 6791 0
49 -1810 6804 0
49 -1811 6794 0
49 -1812 6807 0
49 -1813 6789 0
49 -1814 6802 0
49 -1815 6795 0
49 -1816 6813 0
49 -1817 6820 0
49 -1818 6821 0
49 -1819 6822 0
49 -1820 6823 0
49 -1821 6824 0
49 -1822 6825 0
49 -1823 6826 0
49 -1824 6827 0
49 -1825 6828 0
49 -1826 6829 0
49 -1827 6830 0
49 -1828 6808 0
49 -1829 6809 0
49 -1830 6810 0
49 -1831 6811 0
49 -1832 6812 0
49 -1833 6814 0
49 -1834 6815 0
49 -1835 6816 0
49 -1836 6817 0
49 -1837 6818 0
49 -1838 6819 0
49 -1839 6822 0
49 -1840 6810 0
49 -1841 6823 0
49 -1842 6811 0
49 -1843 6788 0
49 -1844 6801 0
49 -1845 6788 0
49 -1846 6801 0
49 -1847 6790 0
49 -1848 6803 0
49 -1849 6823 0
49 -1850 6824 0
49 -1851 6825 0
49 -1852 6826 0
49 -1853 6827 0
49 -1854 6828 0
49 -1855 6829 0
49 -1856 6830 0
49 -1857 6811 0
49 -1858 6812 0
49 -1859 6814 0
49 -1860 6815 0
49 -1861 6816 0
49 -1862 6817 0
49 -1863 6818 0
49 -1864 6819 0
49 -1865 6788 0
49 -1866 6801 0
49 -1867 6820 0
49 -1868 6829 0
49 -1869 6830 0
49 -1870 6808 0
49 -1871 6818 0
49 -1872 6819 0
49 -1873 6794 0
49 -1874 6807 0
49 -1875 6787 0
49 -1876 6800 0
49 -1877 6794 0
49 -1878 6807 0
49 -1879 6791 0
49 -1880 6804 0
49 -1881 6821 0
49 -1882 6829 0
49 -1883 6830 0
49 -1884 6809 0
49 -1885 6818 0
49 -1886 6819 0
49 -1887 6822 0
49 -1888 6810 0
49 -1889 6793 0
49 -1890 6806 0
49 -1891 6794 0
49 -1892 6807 0
49 -1893 6823 0
49 -1894 6811 0
49 -1895 6795 0
49 -1896 6813 0
49 -1897 6791 0
49 -1898 6804 0
49 -1899 6794 0
49 -1900 6807 0
49 -1901 6787 0
49 -1902 6800 0
49 -1903 6789 0
49 -1904 6802 0
49 -1905 6795 0
49 -1906 6813 0
49 -1907 6787 0
49 -1908 6800 0
49 -1909 6791 0
49 -1910 6821 0
49 -1911 6822 0
49 -1912 6823 0
49 -1913 6824 0
49 -1914 6825 0
49 -1915 6826 0
49 -1916 6827 0
49 -1917 6828 0
49 -1918 6829 0
49 -1919 6830 0
49 -1920 6804 0
49 -1921 6809 0
49 -1922 6810 0
49 -1923 6811 0
49 -1924 6812 0
49 -1925 6814 0
49 -1926 6815 0
49 -1927 6816 0
49 -1928 6817 0
49 -1929 6818 0
49 -1930 6819 0
49 -1931 6820 0
49 -1932 6808 0
49 -1933 6788 0
49 -1934 6801 0
49 -1935 6793 0
49 -1936 6806 0
49 -1937 6794 0
49 -1938 6807 0
49 -1939 6787 0
49 -1940 6800 0
49 -1941 6788 0
49 -1942 6801 0
49 -1943 6823 0
49 -1944 6827 0
49 -1945 6828 0
49 -1946 6829 0
49 -1947 6830 0
49 -1948 6811 0
49 -1949 6816 0
49 -1950 6817 0
49 -1951 6818 0
49 -1952 6819 0
49 -1953 6822 0
49 -1954 6823 0
49 -1955 6824 0
49 -1956 6825 0
49 -1957 6826 0
49 -1958 6827 0
49 -1959 6828 0
49 -1960 6829 0
49 -1961 6810 0
49 -1962 6811 0
49 -1963 6812 0
49 -1964 6814 0
49 -1965 6815 0
49 -1966 6816 0
49 -1967 6817 0
49 -1968 6818 0
49 -1969 6822 0
49 -1970 6827 0
49 -1971 6828 0
49 -1972 6810 0
49 -1973 6816 0
49 -1974 6817 0
49 -1975 6787 0
49 -1976 6800 0
49 -1977 6790 0
49 -1978 6803 0
49 -1979 6823 0
49 -1980 6824 0
49 -1981 6825 0
49 -1982 6826 0
49 -1983 6827 0
49 -1984 6828 0
49 -1985 6829 0
49 -1986 6830 0
49 -1987 6811 0
49 -1988 6812 0
49 -1989 6814 0
49 -1990 6815 0
49 -1991 6816 0
49 -1992 6817 0
49 -1993 6818 0
49 -1994 6819 0
49 -1995 6795 0
49 -1996 6813 0
49 -1997 6783 0
49 -1998 6784 0
49 -1999 6785 0
49 -2000 6820 0
49 -2001 6821 0
49 -2002 6822 0
49 -2003 6823 0
49 -2004 6824 0
49 -2005 6825 0
49 -2006 6826 0
49 -2007 6827 0
49 -2008 6828 0
49 -2009 6829 0
49 -2010 6830 0
49 -2011 6796 0
49 -2012 6797 0
49 -2013 6798 0
49 -2014 6808 0
49 -2015 6809 0
49 -2016 6810 0
49 -2017 6811 0
49 -2018 6812 0
49 -2019 6814 0
49 -2020 6815 0
49 -2021 6816 0
49 -2022 6817 0
49 -2023 6818 0
49 -2024 6819 0
49 -2025 6794 0
49 -2026 6807 0
49 -2027 6820 0
49 -2028 6821 0
49 -2029 6822 0
49 -2030 6823 0
49 -2031 6824 0
49 -2032 6825 0
49 -2033 6826 0
49 -2034 6827 0
49 -2035 6808 0
49 -2036 6809 0
49 -2037 6810 0
49 -2038 6811 0
49 -2039 6812 0
49 -2040 6814 0
49 -2041 6815 0
49 -2042 6816 0
49 -2043 6788 0
49 -2044 6801 0
49 -2045 6784 0
49 -2046 6785 0
49 -2047 6786 0
49 -2048 6787 0
49 -2049 6797 0
49 -2050 6798 0
49 -2051 6799 0
49 -2052 6800 0
49 -2053 6795 0
49 -2054 6813 0
49 -2055 6793 0
49 -2056 6806 0
49 -2057 6792 0
49 -2058 6805 0
49 -2059 6792 0
49 -2060 6805 0
49 -2061 6787 0
49 -2062 6800 0
49 -2063 6788 0
49 -2064 6801 0
49 -2065 6792 0
49 -2066 6822 0
49 -2067 6823 0
49 -2068 6824 0
49 -2069 6825 0
49 -2070 6826 0
49 -2071 6827 0
49 -2072 6828 0
49 -2073 6829 0
49 -2074 6805 0
49 -2075 6810 0
49 -2076 6811 0
49 -2077 6812 0
49 -2078 6814 0
49 -2079 6815 0
49 -2080 6816 0
49 -2081 6817 0
49 -2082 6818 0
49 -2083 6792 0
49 -2084 6805 0
49 -2085 6791 0
49 -2086 6804 0
49 -2087 6820 0
49 -2088 6821 0
49 -2089 6822 0
49 -2090 6823 0
49 -2091 6824 0
49 -2092 6825 0
49 -2093 6826 0
49 -2094 6827 0
49 -2095 6808 0
49 -2096 6809 0
49 -2097 6810 0
49 -2098 6811 0
49 -2099 6812 0
49 -2100 6814 0
49 -2101 6815 0
49 -2102 6816 0
49 -2103 6787 0
49 -2104 6800 0
49 -2105 6787 0
49 -2106 6800 0
49 -2107 6794 0
49 -2108 6807 0
49 -2109 6787 0
49 -2110 6800 0
49 -2111 6788 0
49 -2112 6822 0
49 -2113 6823 0
49 -2114 6827 0
49 -2115 6828 0
49 -2116 6829 0
49 -2117 6830 0
49 -2118 6801 0
49 -2119 6810 0
49 -2120 6811 0
49 -2121 6816 0
49 -2122 6817 0
49 -2123 6818 0
49 -2124 6819 0
49 -2125 6822 0
49 -2126 6827 0
49 -2127 6828 0
49 -2128 6829 0
49 -2129 6810 0
49 -2130 6816 0
49 -2131 6817 0
49 -2132 6818 0
49 -2133 6823 0
49 -2134 6824 0
49 -2135 6825 0
49 -2136 6826 0
49 -2137 6827 0
49 -2138 6828 0
49 -2139 6829 0
49 -2140 6830 0
49 -2141 6811 0
49 -2142 6812 0
49 -2143 6814 0
49 -2144 6815 0
49 -2145 6816 0
49 -2146 6817 0
49 -2147 6818 0
49 -2148 6819 0
49 -2149 6787 0
49 -2150 6800 0
49 -2151 6820 0
49 -2152 6808 0
49 -2153 6791 0
49 -2154 6804 0
49 -2155 6790 0
49 -2156 6803 0
49 -2157 6792 0
49 -2158 6805 0
49 -2159 6788 0
49 -2160 6801 0
49 -2161 6790 0
49 -2162 6803 0
49 -2163 6821 0
49 -2164 6822 0
49 -2165 6823 0
49 -2166 6824 0
49 -2167 6825 0
49 -2168 6826 0
49 -2169 6827 0
49 -2170 6828 0
49 -2171 6809 0
49 -2172 6810 0
49 -2173 6811 0
49 -2174 6812 0
49 -2175 6814 0
49 -2176 6815 0
49 -2177 6816 0
49 -2178 6817 0
49 -2179 6794 0
49 -2180 6807 0
49 -2181 6823 0
49 -2182 6811 0
49 -2183 6822 0
49 -2184 6828 0
49 -2185 6829 0
49 -2186 6810 0
49 -2187 6817 0
49 -2188 6818 0
49 -2189 6793 0
49 -2190 6806 0
49 -2191 6787 0
49 -2192 6800 0
49 -2193 6794 0
49 -2194 6807 0
49 -2195 6793 0
49 -2196 6806 0
49 -2197 6783 0
49 -2198 6784 0
49 -2199 6785 0
49 -2200 6786 0
49 -2201 6787 0
49 -2202 6793 0
49 -2203 6796 0
49 -2204 6797 0
49 -2205 6798 0
49 -2206 6799 0
49 -2207 6800 0
49 -2208 6806 0
49 -2209 6788 0
49 -2210 6801 0
49 -2211 6791 0
49 -2212 6804 0
49 -2213 6795 0
49 -2214 6813 0
49 -2215 6822 0
49 -2216 6823 0
49 -2217 6824 0
49 -2218 6825 0
49 -2219 6826 0
49 -2220 6827 0
49 -2221 6828 0
49 -2222 6829 0
49 -2223 6810 0
49 -2224 6811 0
49 -2225 6812 0
49 -2226 6814 0
49 -2227 6815 0
49 -2228 6816 0
49 -2229 6817 0
49 -2230 6818 0
49 -2231 6791 0
49 -2232 6804 0
49 -2233 6795 0
49 -2234 6813 0
49 -2235 6793 0
49 -2236 6806 0
49 -2237 6820 0
49 -2238 6821 0
49 -2239 6822 0
49 -2240 6823 0
49 -2241 6824 0
49 -2242 6825 0
49 -2243 6826 0
49 -2244 6827 0
49 -2245 6808 0
49 -2246 6809 0
49 -2247 6810 0
49 -2248 6811 0
49 -2249 6812 0
49 -2250 6814 0
49 -2251 6815 0
49 -2252 6816 0
49 -2253 6792 0
49 -2254 6805 0
49 -2255 6792 0
49 -2256 6805 0
49 -2257 6792 0
49 -2258 6805 0
49 -2259 6791 0
49 -2260 6804 0
49 -2261 6791 0
49 -2262 6804 0
49 -2263 6821 0
49 -2264 6822 0
49 -2265 6823 0
49 -2266 6824 0
49 -2267 6825 0
49 -2268 6826 0
49 -2269 6827 0
49 -2270 6828 0
49 -2271 6809 0
49 -2272 6810 0
49 -2273 6811 0
49 -2274 6812 0
49 -2275 6814 0
49 -2276 6815 0
49 -2277 6816 0
49 -2278 6817 0
49 -2279 6820 0
49 -2280 6830 0
49 -2281 6808 0
49 -2282 6819 0
49 -2283 6790 0
49 -2284 6803 0
49 -2285 6823 0
49 -2286 6811 0
49 -2287 6789 0
49 -2288 6802 0
49 -2289 6791 0
49 -2290 6804 0
49 -2291 6795 0
49 -2292 6813 0
49 -2293 6820 0
49 -2294 6808 0
49 -2295 6784 0
49 -2296 6785 0
49 -2297 6786 0
49 -2298 6787 0
49 -2299 6788 0
49 -2300 6789 0
49 -2301 6790 0
49 -2302 6791 0
49 -2303 6830 0
49 -2304 6797 0
49 -2305 6798 0
49 -2306 6799 0
49 -2307 6800 0
49 -2308 6801 0
49 -2309 6802 0
49 -2310 6803 0
49 -2311 6804 0
49 -2312 6819 0
49 -2313 6787 0
49 -2314 6800 0
49 -2315 6789 0
49 -2316 6802 0
49 -2317 6823 0
49 -2318 6824 0
49 -2319 6825 0
49 -2320 6826 0
49 -2321 6827 0
49 -2322 6828 0
49 -2323 6829 0
49 -2324 6830 0
49 -2325 6811 0
49 -2326 6812 0
49 -2327 6814 0
49 -2328 6815 0
49 -2329 6816 0
49 -2330 6817 0
49 -2331 6818 0
49 -2332 6819 0
49 -2333 6794 0
49 -2334 6807 0
49 -2335 6823 0
49 -2336 6824 0
49 -2337 6825 0
49 -2338 6826 0
49 -2339 6827 0
49 -2340 6828 0
49 -2341 6829 0
49 -2342 6830 0
49 -2343 6811 0
49 -2344 6812 0
49 -2345 6814 0
49 -2346 6815 0
49 -2347 6816 0
49 -2348 6817 0
49 -2349 6818 0
49 -2350 6819 0
49 -2351 6787 0
49 -2352 6800 0
49 -2353 6792 0
49 -2354 6805 0
49 -2355 6787 0
49 -2356 6800 0
49 -2357 6823 0
49 -2358 6824 0
49 -2359 6825 0
49 -2360 6826 0
49 -2361 6827 0
49 -2362 6828 0
49 -2363 6829 0
49 -2364 6830 0
49 -2365 6811 0
49 -2366 6812 0
49 -2367 6814 0
49 -2368 6815 0
49 -2369 6816 0
49 -2370 6817 0
49 -2371 6818 0
49 -2372 6819 0
49 -2373 6820 0
49 -2374 6808 0
49 -2375 6793 0
49 -2376 6806 0
49 -2377 6822 0
49 -2378 6823 0
49 -2379 6824 0
49 -2380 6825 0
49 -2381 6826 0
49 -2382 6827 0
49 -2383 6828 0
49 -2384 6829 0
49 -2385 6810 0
49 -2386 6811 0
49 -2387 6812 0
49 -2388 6814 0
49 -2389 6815 0
49 -2390 6816 0
49 -2391 6817 0
49 -2392 6818 0
49 -2393 6788 0
49 -2394 6801 0
49 -2395 6795 0
49 -2396 6813 0
49 -2397 6823 0
49 -2398 6826 0
49 -2399 6827 0
49 -2400 6828 0
49 -2401 6829 0
49 -2402 6830 0
49 -2403 6811 0
49 -2404 6815 0
49 -2405 6816 0
49 -2406 6817 0
49 -2407 6818 0
49 -2408 6819 0
49 -2409 6787 0
49 -2410 6800 0
49 -2411 6821 0
49 -2412 6809 0
49 -2413 6794 0
49 -2414 6807 0
49 -2415 6823 0
49 -2416 6824 0
49 -2417 6825 0
49 -2418 6826 0
49 -2419 6827 0
49 -2420 6828 0
49 -2421 6829 0
49 -2422 6830 0
49 -2423 6811 0
49 -2424 6812 0
49 -2425 6814 0
49 -2426 6815 0
49 -2427 6816 0
49 -2428 6817 0
49 -2429 6818 0
49 -2430 6819 0
49 -2431 6820 0
49 -2432 6808 0
49 -2433 6784 0
49 -2434 6785 0
49 -2435 6786 0
49 -2436 6787 0
49 -2437 6797 0
49 -2438 6798 0
49 -2439 6799 0
49 -2440 6800 0
49 -2441 6793 0
49 -2442 6806 0
49 -2443 6790 0
49 -2444 6803 0
49 -2445 6788 0
49 -2446 6801 0
49 -2447 6795 0
49 -2448 6813 0
49 -2449 6822 0
49 -2450 6823 0
49 -2451 6824 0
49 -2452 6825 0
49 -2453 6826 0
49 -2454 6827 0
49 -2455 6828 0
49 -2456 6829 0
49 -2457 6810 0
49 -2458 6811 0
49 -2459 6812 0
49 -2460 6814 0
49 -2461 6815 0
49 -2462 6816 0
49 -2463 6817 0
49 -2464 6818 0
49 -2465 6788 0
49 -2466 6801 0
49 -2467 6790 0
49 -2468 6803 0
49 -2469 6784 0
49 -2470 6792 0
49 -2471 6797 0
49 -2472 6805 0
49 -2473 6823 0
49 -2474 6824 0
49 -2475 6825 0
49 -2476 6826 0
49 -2477 6827 0
49 -2478 6828 0
49 -2479 6829 0
49 -2480 6830 0
49 -2481 6811 0
49 -2482 6812 0
49 -2483 6814 0
49 -2484 6815 0
49 -2485 6816 0
49 -2486 6817 0
49 -2487 6818 0
49 -2488 6819 0
49 -2489 6820 0
49 -2490 6821 0
49 -2491 6822 0
49 -2492 6823 0
49 -2493 6824 0
49 -2494 6825 0
49 -2495 6826 0
49 -2496 6827 0
49 -2497 6828 0
49 -2498 6829 0
49 -2499 6830 0
49 -2500 6808 0
49 -2501 6809 0
49 -2502 6810 0
49 -2503 6811 0
49 -2504 6812 0
49 -2505 6814 0
49 -2506 6815 0
49 -2507 6816 0
49 -2508 6817 0
49 -2509 6818 0
49 -2510 6819 0
49 -2511 6793 0
49 -2512 6806 0
49 -2513 6788 0
49 -2514 6801 0
49 -2515 6822 0
49 -2516 6810 0
49 -2517 6821 0
49 -2518 6822 0
49 -2519 6823 0
49 -2520 6824 0
49 -2521 6825 0
49 -2522 6826 0
49 -2523 6827 0
49 -2524 6828 0
49 -2525 6809 0
49 -2526 6810 0
49 -2527 6811 0
49 -2528 6812 0
49 -2529 6814 0
49 -2530 6815 0
49 -2531 6816 0
49 -2532 6817 0
49 -2533 6795 0
49 -2534 6813 0
49 -2535 6791 0
49 -2536 6804 0
49 -2537 6784 0
49 -2538 6785 0
49 -2539 6786 0
49 -2540 6787 0
49 -2541 6797 0
49 -2542 6798 0
49 -2543 6799 0
49 -2544 6800 0
49 -2545 6823 0
49 -2546 6811 0
49 -2547 6783 0
49 -2548 6784 0
49 -2549 6790 0
49 -2550 6796 0
49 -2551 6797 0
49 -2552 6803 0
49 -2553 6787 0
49 -2554 6800 0
49 -2555 6790 0
49 -2556 6803 0
49 -2557 6790 0
49 -2558 6803 0
49 -2559 6821 0
49 -2560 6822 0
49 -2561 6823 0
49 -2562 6824 0
49 -2563 6825 0
49 -2564 6826 0
49 -2565 6827 0
49 -2566 6828 0
49 -2567 6809 0
49 -2568 6810 0
49 -2569 6811 0
49 -2570 6812 0
49 -2571 6814 0
49 -2572 6815 0
49 -2573 6816 0
49 -2574 6817 0
49 -2575 6788 0
49 -2576 6801 0
49 -2577 6792 0
49 -2578 6805 0
49 -2579 6789 0
49 -2580 6802 0
49 -2581 6794 0
49 -2582 6807 0
49 -2583 6788 0
49 -2584 6801 0
49 -2585 6793 0
49 -2586 6806 0
49 -2587 6820 0
49 -2588 6821 0
49 -2589 6822 0
49 -2590 6823 0
49 -2591 6824 0
49 -2592 6825 0
49 -2593 6826 0
49 -2594 6827 0
49 -2595 6808 0
49 -2596 6809 0
49 -2597 6810 0
49 -2598 6811 0
49 -2599 6812 0
49 -2600 6814 0
49 -2601 6815 0
49 -2602 6816 0
49 -2603 6791 0
49 -2604 6804 0
49 -2605 6787 0
49 -2606 6800 0
49 -2607 6821 0
49 -2608 6822 0
49 -2609 6823 0
49 -2610 6824 0
49 -2611 6825 0
49 -2612 6826 0
49 -2613 6827 0
49 -2614 6828 0
49 -2615 6829 0
49 -2616 6830 0
49 -2617 6809 0
49 -2618 6810 0
49 -2619 6811 0
49 -2620 6812 0
49 -2621 6814 0
49 -2622 6815 0
49 -2623 6816 0
49 -2624 6817 0
49 -2625 6818 0
49 -2626 6819 0
49 -2627 6822 0
49 -2628 6823 0
49 -2629 6824 0
49 -2630 6825 0
49 -2631 6826 0
49 -2632 6827 0
49 -2633 6828 0
49 -2634 6829 0
49 -2635 6810 0
49 -2636 6811 0
49 -2637 6812 0
49 -2638 6814 0
49 -2639 6815 0
49 -2640 6816 0
49 -2641 6817 0
49 -2642 6818 0
49 -2643 6821 0
49 -2644 6822 0
49 -2645 6823 0
49 -2646 6824 0
49 -2647 6825 0
49 -2648 6826 0
49 -2649 6827 0
49 -2650 6828 0
49 -2651 6809 0
49 -2652 6810 0
49 -2653 6811 0
49 -2654 6812 0
49 -2655 6814 0
49 -2656 6815 0
49 -2657 6816 0
49 -2658 6817 0
49 -2659 6787 0
49 -2660 6800 0
49 -2661 6787 0
49 -2662 6800 0
49 -2663 6790 0
49 -2664 6803 0
49 -2665 6793 0
49 -2666 6796 0
49 -2667 6797 0
49 -2668 6798 0
49 -2669 6799 0
49 -2670 6800 0
49 -2671 6801 0
49 -2672 6802 0
49 -2673 6803 0
49 -2674 6804 0
49 -2675 6805 0
49 -2676 6806 0
49 -2677 6783 0
49 -2678 6784 0
49 -2679 6785 0
49 -2680 6786 0
49 -2681 6787 0
49 -2682 6788 0
49 -2683 6789 0
49 -2684 6790 0
49 -2685 6791 0
49 -2686 6792 0
49 -2687 6793 0
49 -2688 6806 0
49 -2689 6820 0
49 -2690 6821 0
49 -2691 6822 0
49 -2692 6823 0
49 -2693 6824 0
49 -2694 6825 0
49 -2695 6826 0
49 -2696 6827 0
49 -2697 6808 0
49 -2698 6809 0
49 -2699 6810 0
49 -2700 6811 0
49 -2701 6812 0
49 -2702 6814 0
49 -2703 6815 0
49 -2704 6816 0
49 -2705 6822 0
49 -2706 6810 0
49 -2707 6791 0
49 -2708 6792 0
49 -2709 6793 0
49 -2710 6820 0
49 -2711 6821 0
49 -2712 6822 0
49 -2713 6823 0
49 -2714 6804 0
49 -2715 6805 0
49 -2716 6806 0
49 -2717 6808 0
49 -2718 6809 0
49 -2719 6810 0
49 -2720 6811 0
49 -2721 6787 0
49 -2722 6800 0
49 -2723 6791 0
49 -2724 6804 0
49 -2725 6794 0
49 -2726 6807 0
49 -2727 6823 0
49 -2728 6824 0
49 -2729 6825 0
49 -2730 6826 0
49 -2731 6827 0
49 -2732 6828 0
49 -2733 6829 0
49 -2734 6830 0
49 -2735 6811 0
49 -2736 6812 0
49 -2737 6814 0
49 -2738 6815 0
49 -2739 6816 0
49 -2740 6817 0
49 -2741 6818 0
49 -2742 6819 0
49 -2743 6822 0
49 -2744 6823 0
49 -2745 6824 0
49 -2746 6825 0
49 -2747 6826 0
49 -2748 6827 0
49 -2749 6828 0
49 -2750 6829 0
49 -2751 6810 0
49 -2752 6811 0
49 -2753 6812 0
49 -2754 6814 0
49 -2755 6815 0
49 -2756 6816 0
49 -2757 6817 0
49 -2758 6818 0
49 -2759 6823 0
49 -2760 6827 0
49 -2761 6828 0
49 -2762 6829 0
49 -2763 6830 0
49 -2764 6811 0
49 -2765 6816 0
49 -2766 6817 0
49 -2767 6818 0
49 -2768 6819 0
49 -2769 6823 0
49 -2770 6811 0
49 -2771 6820 0
49 -2772 6808 0
49 -2773 6794 0
49 -2774 6807 0
49 -2775 6795 0
49 -2776 6813 0
49 -2777 6788 0
49 -2778 6801 0
49 -2779 6789 0
49 -2780 6802 0
49 -2781 6784 0
49 -2782 6785 0
49 -2783 6791 0
49 -2784 6797 0
49 -2785 6798 0
49 -2786 6804 0
49 -2787 6823 0
49 -2788 6811 0
49 -2789 6793 0
49 -2790 6806 0
49 -2791 6787 0
49 -2792 6800 0
49 -2793 6823 0
49 -2794 6824 0
49 -2795 6825 0
49 -2796 6826 0
49 -2797 6827 0
49 -2798 6828 0
49 -2799 6829 0
49 -2800 6830 0
49 -2801 6811 0
49 -2802 6812 0
49 -2803 6814 0
49 -2804 6815 0
49 -2805 6816 0
49 -2806 6817 0
49 -2807 6818 0
49 -2808 6819 0
49 -2809 6793 0
49 -2810 6806 0
49 -2811 6823 0
49 -2812 6824 0
49 -2813 6825 0
49 -2814 6826 0
49 -2815 6827 0
49 -2816 6828 0
49 -2817 6829 0
49 -2818 6830 0
49 -2819 6811 0
49 -2820 6812 0
49 -2821 6814 0
49 -2822 6815 0
49 -2823 6816 0
49 -2824 6817 0
49 -2825 6818 0
49 -2826 6819 0
49 -2827 6822 0
49 -2828 6823 0
49 -2829 6824 0
49 -2830 6825 0
49 -2831 6826 0
49 -2832 6827 0
49 -2833 6828 0
49 -2834 6829 0
49 -2835 6810 0
49 -2836 6811 0
49 -2837 6812 0
49 -2838 6814 0
49 -2839 6815 0
49 -2840 6816 0
49 -2841 6817 0
49 -2842 6818 0
49 -2843 6791 0
49 -2844 6804 0
49 -2845 6823 0
49 -2846 6826 0
49 -2847 6827 0
49 -2848 6828 0
49 -2849 6829 0
49 -2850 6830 0
49 -2851 6811 0
49 -2852 6815 0
49 -2853 6816 0
49 -2854 6817 0
49 -2855 6818 0
49 -2856 6819 0
49 -2857 6787 0
49 -2858 6800 0
49 -2859 6821 0
49 -2860 6822 0
49 -2861 6823 0
49 -2862 6824 0
49 -2863 6825 0
49 -2864 6826 0
49 -2865 6827 0
49 -2866 6828 0
49 -2867 6809 0
49 -2868 6810 0
49 -2869 6811 0
49 -2870 6812 0
49 -2871 6814 0
49 -2872 6815 0
49 -2873 6816 0
49 -2874 6817 0
49 -2875 6823 0
49 -2876 6826 0
49 -2877 6827 0
49 -2878 6828 0
49 -2879 6829 0
49 -2880 6830 0
49 -2881 6811 0
49 -2882 6815 0
49 -2883 6816 0
49 -2884 6817 0
49 -2885 6818 0
49 -2886 6819 0
