c Dataset: scen04
c Encoding: POSE
c DecisionVars: 1960
c OrderVars: 1960
c CardinalityAuxVars: 0
c LabelVars: 48
c TotalVars: 3969
c OrderClauses: 7160
c CardinalityClauses: 0
c DistanceClauses: 4770
c LabelLinkClauses: 1960
c SoftClauses: 48
c HardClauses: 13890
c TotalClauses: 13938
p wcnf 3969 13938 49
1 -3922 0
1 -3923 0
1 -3924 0
1 -3925 0
1 -3926 0
1 -3927 0
1 -3928 0
1 -3929 0
1 -3930 0
1 -3931 0
1 -3932 0
1 -3933 0
1 -3934 0
1 -3935 0
1 -3936 0
1 -3937 0
1 -3938 0
1 -3939 0
1 -3940 0
1 -3941 0
1 -3942 0
1 -3943 0
1 -3944 0
1 -3945 0
1 -3946 0
1 -3947 0
1 -3948 0
1 -3949 0
1 -3950 0
1 -3951 0
1 -3952 0
1 -3953 0
1 -3954 0
1 -3955 0
1 -3956 0
1 -3957 0
1 -3958 0
1 -3959 0
1 -3960 0
1 -3961 0
1 -3962 0
1 -3963 0
1 -3964 0
1 -3965 0
1 -3966 0
1 -3967 0
1 -3968 0
1 -3969 0
49 -1 1962 0
49 -1962 1 0
49 1962 0
49 -2 1963 0
49 -1963 2 0
49 1963 0
49 -6 1967 0
49 -1967 6 0
49 -1965 1964 0
49 -1966 1965 0
49 -1967 1966 0
49 1964 0
49 -3 1964 0
49 -3 -1965 0
49 -1964 1965 3 0
49 -4 1965 0
49 -4 -1966 0
49 -1965 1966 4 0
49 -5 1966 0
49 -5 -1967 0
49 -1966 1967 5 0
49 -10 1971 0
49 -1971 10 0
49 -1969 1968 0
49 -1970 1969 0
49 -1971 1970 0
49 1968 0
49 -7 1968 0
49 -7 -1969 0
49 -1968 1969 7 0
49 -8 1969 0
49 -8 -1970 0
49 -1969 1970 8 0
49 -9 1970 0
49 -9 -1971 0
49 -1970 1971 9 0
49 -11 1972 0
49 -1972 11 0
49 1972 0
49 -12 1973 0
49 -1973 12 0
49 1973 0
49 -13 1974 0
49 -1974 13 0
49 1974 0
49 -14 1975 0
49 -1975 14 0
49 1975 0
49 -15 1976 0
49 -1976 15 0
49 1976 0
49 -16 1977 0
49 -1977 16 0
49 1977 0
49 -22 1983 0
49 -1983 22 0
49 -1979 1978 0
49 -1980 1979 0
49 -1981 1980 0
49 -1982 1981 0
49 -1983 1982 0
49 1978 0
49 -17 1978 0
49 -17 -1979 0
49 -1978 1979 17 0
49 -18 1979 0
49 -18 -1980 0
49 -1979 1980 18 0
49 -19 1980 0
49 -19 -1981 0
49 -1980 1981 19 0
49 -20 1981 0
49 -20 -1982 0
49 -1981 1982 20 0
49 -21 1982 0
49 -21 -1983 0
49 -1982 1983 21 0
49 -28 1989 0
49 -1989 28 0
49 -1985 1984 0
49 -1986 1985 0
49 -1987 1986 0
49 -1988 1987 0
49 -1989 1988 0
49 1984 0
49 -23 1984 0
49 -23 -1985 0
49 -1984 1985 23 0
49 -24 1985 0
49 -24 -1986 0
49 -1985 1986 24 0
49 -25 1986 0
49 -25 -1987 0
49 -1986 1987 25 0
49 -26 1987 0
49 -26 -1988 0
49 -1987 1988 26 0
49 -27 1988 0
49 -27 -1989 0
49 -1988 1989 27 0
49 -29 1990 0
49 -1990 29 0
49 1990 0
49 -30 1991 0
49 -1991 30 0
49 1991 0
49 -31 1992 0
49 -1992 31 0
49 1992 0
49 -32 1993 0
49 -1993 32 0
49 1993 0
49 -43 2004 0
49 -2004 43 0
49 -1995 1994 0
49 -1996 1995 0
49 -1997 1996 0
49 -1998 1997 0
49 -1999 1998 0
49 -2000 1999 0
49 -2001 2000 0
49 -2002 2001 0
49 -2003 2002 0
49 -2004 2003 0
49 1994 0
49 -33 1994 0
49 -33 -1995 0
49 -1994 1995 33 0
49 -34 1995 0
49 -34 -1996 0
49 -1995 1996 34 0
49 -35 1996 0
49 -35 -1997 0
49 -1996 1997 35 0
49 -36 1997 0
49 -36 -1998 0
49 -1997 1998 36 0
49 -37 1998 0
49 -37 -1999 0
49 -1998 1999 37 0
49 -38 1999 0
49 -38 -2000 0
49 -1999 2000 38 0
49 -39 2000 0
49 -39 -2001 0
49 -2000 2001 39 0
49 -40 2001 0
49 -40 -2002 0
49 -2001 2002 40 0
49 -41 2002 0
49 -41 -2003 0
49 -2002 2003 41 0
49 -42 2003 0
49 -42 -2004 0
49 -2003 2004 42 0
49 -54 2015 0
49 -2015 54 0
49 -2006 2005 0
49 -2007 2006 0
49 -2008 2007 0
49 -2009 2008 0
49 -2010 2009 0
49 -2011 2010 0
49 -2012 2011 0
49 -2013 2012 0
49 -2014 2013 0
49 -2015 2014 0
49 2005 0
49 -44 2005 0
49 -44 -2006 0
49 -2005 2006 44 0
49 -45 2006 0
49 -45 -2007 0
49 -2006 2007 45 0
49 -46 2007 0
49 -46 -2008 0
49 -2007 2008 46 0
49 -47 2008 0
49 -47 -2009 0
49 -2008 2009 47 0
49 -48 2009 0
49 -48 -2010 0
49 -2009 2010 48 0
49 -49 2010 0
49 -49 -2011 0
49 -2010 2011 49 0
49 -50 2011 0
49 -50 -2012 0
49 -2011 2012 50 0
49 -51 2012 0
49 -51 -2013 0
49 -2012 2013 51 0
49 -52 2013 0
49 -52 -2014 0
49 -2013 2014 52 0
49 -53 2014 0
49 -53 -2015 0
49 -2014 2015 53 0
49 -57 2018 0
49 -2018 57 0
49 -2017 2016 0
49 -2018 2017 0
49 2016 0
49 -55 2016 0
49 -55 -2017 0
49 -2016 2017 55 0
49 -56 2017 0
49 -56 -2018 0
49 -2017 2018 56 0
49 -60 2021 0
49 -2021 60 0
49 -2020 2019 0
49 -2021 2020 0
49 2019 0
49 -58 2019 0
49 -58 -2020 0
49 -2019 2020 58 0
49 -59 2020 0
49 -59 -2021 0
49 -2020 2021 59 0
49 -61 2022 0
49 -2022 61 0
49 2022 0
49 -62 2023 0
49 -2023 62 0
49 2023 0
49 -65 2026 0
49 -2026 65 0
49 -2025 2024 0
49 -2026 2025 0
49 2024 0
49 -63 2024 0
49 -63 -2025 0
49 -2024 2025 63 0
49 -64 2025 0
49 -64 -2026 0
49 -2025 2026 64 0
49 -68 2029 0
49 -2029 68 0
49 -2028 2027 0
49 -2029 2028 0
49 2027 0
49 -66 2027 0
49 -66 -2028 0
49 -2027 2028 66 0
49 -67 2028 0
49 -67 -2029 0
49 -2028 2029 67 0
49 -69 2030 0
49 -2030 69 0
49 2030 0
49 -70 2031 0
49 -2031 70 0
49 2031 0
49 -71 2032 0
49 -2032 71 0
49 2032 0
49 -72 2033 0
49 -2033 72 0
49 2033 0
49 -73 2034 0
49 -2034 73 0
49 2034 0
49 -74 2035 0
49 -2035 74 0
49 2035 0
49 -75 2036 0
49 -2036 75 0
49 2036 0
49 -76 2037 0
49 -2037 76 0
49 2037 0
49 -86 2047 0
49 -2047 86 0
49 -2039 2038 0
49 -2040 2039 0
49 -2041 2040 0
49 -2042 2041 0
49 -2043 2042 0
49 -2044 2043 0
49 -2045 2044 0
49 -2046 2045 0
49 -2047 2046 0
49 2038 0
49 -77 2038 0
49 -77 -2039 0
49 -2038 2039 77 0
49 -78 2039 0
49 -78 -2040 0
49 -2039 2040 78 0
49 -79 2040 0
49 -79 -2041 0
49 -2040 2041 79 0
49 -80 2041 0
49 -80 -2042 0
49 -2041 2042 80 0
49 -81 2042 0
49 -81 -2043 0
49 -2042 2043 81 0
49 -82 2043 0
49 -82 -2044 0
49 -2043 2044 82 0
49 -83 2044 0
49 -83 -2045 0
49 -2044 2045 83 0
49 -84 2045 0
49 -84 -2046 0
49 -2045 2046 84 0
49 -85 2046 0
49 -85 -2047 0
49 -2046 2047 85 0
49 -96 2057 0
49 -2057 96 0
49 -2049 2048 0
49 -2050 2049 0
49 -2051 2050 0
49 -2052 2051 0
49 -2053 2052 0
49 -2054 2053 0
49 -2055 2054 0
49 -2056 2055 0
49 -2057 2056 0
49 2048 0
49 -87 2048 0
49 -87 -2049 0
49 -2048 2049 87 0
49 -88 2049 0
49 -88 -2050 0
49 -2049 2050 88 0
49 -89 2050 0
49 -89 -2051 0
49 -2050 2051 89 0
49 -90 2051 0
49 -90 -2052 0
49 -2051 2052 90 0
49 -91 2052 0
49 -91 -2053 0
49 -2052 2053 91 0
49 -92 2053 0
49 -92 -2054 0
49 -2053 2054 92 0
49 -93 2054 0
49 -93 -2055 0
49 -2054 2055 93 0
49 -94 2055 0
49 -94 -2056 0
49 -2055 2056 94 0
49 -95 2056 0
49 -95 -2057 0
49 -2056 2057 95 0
49 -97 2058 0
49 -2058 97 0
49 2058 0
49 -98 2059 0
49 -2059 98 0
49 2059 0
49 -100 2061 0
49 -2061 100 0
49 -2061 2060 0
49 2060 0
49 -99 2060 0
49 -99 -2061 0
49 -2060 2061 99 0
49 -102 2063 0
49 -2063 102 0
49 -2063 2062 0
49 2062 0
49 -101 2062 0
49 -101 -2063 0
49 -2062 2063 101 0
49 -103 2064 0
49 -2064 103 0
49 2064 0
49 -104 2065 0
49 -2065 104 0
49 2065 0
49 -105 2066 0
49 -2066 105 0
49 2066 0
49 -106 2067 0
49 -2067 106 0
49 2067 0
49 -108 2069 0
49 -2069 108 0
49 -2069 2068 0
49 2068 0
49 -107 2068 0
49 -107 -2069 0
49 -2068 2069 107 0
49 -110 2071 0
49 -2071 110 0
49 -2071 2070 0
49 2070 0
49 -109 2070 0
49 -109 -2071 0
49 -2070 2071 109 0
49 -111 2072 0
49 -2072 111 0
49 2072 0
49 -112 2073 0
49 -2073 112 0
49 2073 0
49 -114 2075 0
49 -2075 114 0
49 -2075 2074 0
49 2074 0
49 -113 2074 0
49 -113 -2075 0
49 -2074 2075 113 0
49 -116 2077 0
49 -2077 116 0
49 -2077 2076 0
49 2076 0
49 -115 2076 0
49 -115 -2077 0
49 -2076 2077 115 0
49 -120 2081 0
49 -2081 120 0
49 -2079 2078 0
49 -2080 2079 0
49 -2081 2080 0
49 2078 0
49 -117 2078 0
49 -117 -2079 0
49 -2078 2079 117 0
49 -118 2079 0
49 -118 -2080 0
49 -2079 2080 118 0
49 -119 2080 0
49 -119 -2081 0
49 -2080 2081 119 0
49 -124 2085 0
49 -2085 124 0
49 -2083 2082 0
49 -2084 2083 0
49 -2085 2084 0
49 2082 0
49 -121 2082 0
49 -121 -2083 0
49 -2082 2083 121 0
49 -122 2083 0
49 -122 -2084 0
49 -2083 2084 122 0
49 -123 2084 0
49 -123 -2085 0
49 -2084 2085 123 0
49 -125 2086 0
49 -2086 125 0
49 2086 0
49 -126 2087 0
49 -2087 126 0
49 2087 0
49 -127 2088 0
49 -2088 127 0
49 2088 0
49 -128 2089 0
49 -2089 128 0
49 2089 0
49 -129 2090 0
49 -2090 129 0
49 2090 0
49 -130 2091 0
49 -2091 130 0
49 2091 0
49 -131 2092 0
49 -2092 131 0
49 2092 0
49 -132 2093 0
49 -2093 132 0
49 2093 0
49 -134 2095 0
49 -2095 134 0
49 -2095 2094 0
49 2094 0
49 -133 2094 0
49 -133 -2095 0
49 -2094 2095 133 0
49 -136 2097 0
49 -2097 136 0
49 -2097 2096 0
49 2096 0
49 -135 2096 0
49 -135 -2097 0
49 -2096 2097 135 0
49 -137 2098 0
49 -2098 137 0
49 2098 0
49 -138 2099 0
49 -2099 138 0
49 2099 0
49 -139 2100 0
49 -2100 139 0
49 2100 0
49 -140 2101 0
49 -2101 140 0
49 2101 0
49 -141 2102 0
49 -2102 141 0
49 2102 0
49 -142 2103 0
49 -2103 142 0
49 2103 0
49 -143 2104 0
49 -2104 143 0
49 2104 0
49 -144 2105 0
49 -2105 144 0
49 2105 0
49 -145 2106 0
49 -2106 145 0
49 2106 0
49 -146 2107 0
49 -2107 146 0
49 2107 0
49 -147 2108 0
49 -2108 147 0
49 2108 0
49 -148 2109 0
49 -2109 148 0
49 2109 0
49 -149 2110 0
49 -2110 149 0
49 2110 0
49 -150 2111 0
49 -2111 150 0
49 2111 0
49 -151 2112 0
49 -2112 151 0
49 2112 0
49 -152 2113 0
49 -2113 152 0
49 2113 0
49 -153 2114 0
49 -2114 153 0
49 2114 0
49 -154 2115 0
49 -2115 154 0
49 2115 0
49 -155 2116 0
49 -2116 155 0
49 2116 0
49 -156 2117 0
49 -2117 156 0
49 2117 0
49 -157 2118 0
49 -2118 157 0
49 2118 0
49 -158 2119 0
49 -2119 158 0
49 2119 0
49 -159 2120 0
49 -2120 159 0
49 2120 0
49 -160 2121 0
49 -2121 160 0
49 2121 0
49 -161 2122 0
49 -2122 161 0
49 2122 0
49 -162 2123 0
49 -2123 162 0
49 2123 0
49 -163 2124 0
49 -2124 163 0
49 2124 0
49 -164 2125 0
49 -2125 164 0
49 2125 0
49 -169 2130 0
49 -2130 169 0
49 -2127 2126 0
49 -2128 2127 0
49 -2129 2128 0
49 -2130 2129 0
49 2126 0
49 -165 2126 0
49 -165 -2127 0
49 -2126 2127 165 0
49 -166 2127 0
49 -166 -2128 0
49 -2127 2128 166 0
49 -167 2128 0
49 -167 -2129 0
49 -2128 2129 167 0
49 -168 2129 0
49 -168 -2130 0
49 -2129 2130 168 0
49 -174 2135 0
49 -2135 174 0
49 -2132 2131 0
49 -2133 2132 0
49 -2134 2133 0
49 -2135 2134 0
49 2131 0
49 -170 2131 0
49 -170 -2132 0
49 -2131 2132 170 0
49 -171 2132 0
49 -171 -2133 0
49 -2132 2133 171 0
49 -172 2133 0
49 -172 -2134 0
49 -2133 2134 172 0
49 -173 2134 0
49 -173 -2135 0
49 -2134 2135 173 0
49 -175 2136 0
49 -2136 175 0
49 2136 0
49 -176 2137 0
49 -2137 176 0
49 2137 0
49 -177 2138 0
49 -2138 177 0
49 2138 0
49 -178 2139 0
49 -2139 178 0
49 2139 0
49 -179 2140 0
49 -2140 179 0
49 2140 0
49 -180 2141 0
49 -2141 180 0
49 2141 0
49 -181 2142 0
49 -2142 181 0
49 2142 0
49 -182 2143 0
49 -2143 182 0
49 2143 0
49 -187 2148 0
49 -2148 187 0
49 -2145 2144 0
49 -2146 2145 0
49 -2147 2146 0
49 -2148 2147 0
49 2144 0
49 -183 2144 0
49 -183 -2145 0
49 -2144 2145 183 0
49 -184 2145 0
49 -184 -2146 0
49 -2145 2146 184 0
49 -185 2146 0
49 -185 -2147 0
49 -2146 2147 185 0
49 -186 2147 0
49 -186 -2148 0
49 -2147 2148 186 0
49 -192 2153 0
49 -2153 192 0
49 -2150 2149 0
49 -2151 2150 0
49 -2152 2151 0
49 -2153 2152 0
49 2149 0
49 -188 2149 0
49 -188 -2150 0
49 -2149 2150 188 0
49 -189 2150 0
49 -189 -2151 0
49 -2150 2151 189 0
49 -190 2151 0
49 -190 -2152 0
49 -2151 2152 190 0
49 -191 2152 0
49 -191 -2153 0
49 -2152 2153 191 0
49 -194 2155 0
49 -2155 194 0
49 -2155 2154 0
49 2154 0
49 -193 2154 0
49 -193 -2155 0
49 -2154 2155 193 0
49 -196 2157 0
49 -2157 196 0
49 -2157 2156 0
49 2156 0
49 -195 2156 0
49 -195 -2157 0
49 -2156 2157 195 0
49 -197 2158 0
49 -2158 197 0
49 2158 0
49 -198 2159 0
49 -2159 198 0
49 2159 0
49 -201 2162 0
49 -2162 201 0
49 -2161 2160 0
49 -2162 2161 0
49 2160 0
49 -199 2160 0
49 -199 -2161 0
49 -2160 2161 199 0
49 -200 2161 0
49 -200 -2162 0
49 -2161 2162 200 0
49 -204 2165 0
49 -2165 204 0
49 -2164 2163 0
49 -2165 2164 0
49 2163 0
49 -202 2163 0
49 -202 -2164 0
49 -2163 2164 202 0
49 -203 2164 0
49 -203 -2165 0
49 -2164 2165 203 0
49 -205 2166 0
49 -2166 205 0
49 2166 0
49 -206 2167 0
49 -2167 206 0
49 2167 0
49 -207 2168 0
49 -2168 207 0
49 2168 0
49 -208 2169 0
49 -2169 208 0
49 2169 0
49 -209 2170 0
49 -2170 209 0
49 2170 0
49 -210 2171 0
49 -2171 210 0
49 2171 0
49 -211 2172 0
49 -2172 211 0
49 2172 0
49 -212 2173 0
49 -2173 212 0
49 2173 0
49 -221 2182 0
49 -2182 221 0
49 -2175 2174 0
49 -2176 2175 0
49 -2177 2176 0
49 -2178 2177 0
49 -2179 2178 0
49 -2180 2179 0
49 -2181 2180 0
49 -2182 2181 0
49 2174 0
49 -213 2174 0
49 -213 -2175 0
49 -2174 2175 213 0
49 -214 2175 0
49 -214 -2176 0
49 -2175 2176 214 0
49 -215 2176 0
49 -215 -2177 0
49 -2176 2177 215 0
49 -216 2177 0
49 -216 -2178 0
49 -2177 2178 216 0
49 -217 2178 0
49 -217 -2179 0
49 -2178 2179 217 0
49 -218 2179 0
49 -218 -2180 0
49 -2179 2180 218 0
49 -219 2180 0
49 -219 -2181 0
49 -2180 2181 219 0
49 -220 2181 0
49 -220 -2182 0
49 -2181 2182 220 0
49 -230 2191 0
49 -2191 230 0
49 -2184 2183 0
49 -2185 2184 0
49 -2186 2185 0
49 -2187 2186 0
49 -2188 2187 0
49 -2189 2188 0
49 -2190 2189 0
49 -2191 2190 0
49 2183 0
49 -222 2183 0
49 -222 -2184 0
49 -2183 2184 222 0
49 -223 2184 0
49 -223 -2185 0
49 -2184 2185 223 0
49 -224 2185 0
49 -224 -2186 0
49 -2185 2186 224 0
49 -225 2186 0
49 -225 -2187 0
49 -2186 2187 225 0
49 -226 2187 0
49 -226 -2188 0
49 -2187 2188 226 0
49 -227 2188 0
49 -227 -2189 0
49 -2188 2189 227 0
49 -228 2189 0
49 -228 -2190 0
49 -2189 2190 228 0
49 -229 2190 0
49 -229 -2191 0
49 -2190 2191 229 0
49 -231 2192 0
49 -2192 231 0
49 2192 0
49 -232 2193 0
49 -2193 232 0
49 2193 0
49 -233 2194 0
49 -2194 233 0
49 2194 0
49 -234 2195 0
49 -2195 234 0
49 2195 0
49 -235 2196 0
49 -2196 235 0
49 2196 0
49 -236 2197 0
49 -2197 236 0
49 2197 0
49 -244 2205 0
49 -2205 244 0
49 -2199 2198 0
49 -2200 2199 0
49 -2201 2200 0
49 -2202 2201 0
49 -2203 2202 0
49 -2204 2203 0
49 -2205 2204 0
49 2198 0
49 -237 2198 0
49 -237 -2199 0
49 -2198 2199 237 0
49 -238 2199 0
49 -238 -2200 0
49 -2199 2200 238 0
49 -239 2200 0
49 -239 -2201 0
49 -2200 2201 239 0
49 -240 2201 0
49 -240 -2202 0
49 -2201 2202 240 0
49 -241 2202 0
49 -241 -2203 0
49 -2202 2203 241 0
49 -242 2203 0
49 -242 -2204 0
49 -2203 2204 242 0
49 -243 2204 0
49 -243 -2205 0
49 -2204 2205 243 0
49 -252 2213 0
49 -2213 252 0
49 -2207 2206 0
49 -2208 2207 0
49 -2209 2208 0
49 -2210 2209 0
49 -2211 2210 0
49 -2212 2211 0
49 -2213 2212 0
49 2206 0
49 -245 2206 0
49 -245 -2207 0
49 -2206 2207 245 0
49 -246 2207 0
49 -246 -2208 0
49 -2207 2208 246 0
49 -247 2208 0
49 -247 -2209 0
49 -2208 2209 247 0
49 -248 2209 0
49 -248 -2210 0
49 -2209 2210 248 0
49 -249 2210 0
49 -249 -2211 0
49 -2210 2211 249 0
49 -250 2211 0
49 -250 -2212 0
49 -2211 2212 250 0
49 -251 2212 0
49 -251 -2213 0
49 -2212 2213 251 0
49 -253 2214 0
49 -2214 253 0
49 2214 0
49 -254 2215 0
49 -2215 254 0
49 2215 0
49 -262 2223 0
49 -2223 262 0
49 -2217 2216 0
49 -2218 2217 0
49 -2219 2218 0
49 -2220 2219 0
49 -2221 2220 0
49 -2222 2221 0
49 -2223 2222 0
49 2216 0
49 -255 2216 0
49 -255 -2217 0
49 -2216 2217 255 0
49 -256 2217 0
49 -256 -2218 0
49 -2217 2218 256 0
49 -257 2218 0
49 -257 -2219 0
49 -2218 2219 257 0
49 -258 2219 0
49 -258 -2220 0
49 -2219 2220 258 0
49 -259 2220 0
49 -259 -2221 0
49 -2220 2221 259 0
49 -260 2221 0
49 -260 -2222 0
49 -2221 2222 260 0
49 -261 2222 0
49 -261 -2223 0
49 -2222 2223 261 0
49 -270 2231 0
49 -2231 270 0
49 -2225 2224 0
49 -2226 2225 0
49 -2227 2226 0
49 -2228 2227 0
49 -2229 2228 0
49 -2230 2229 0
49 -2231 2230 0
49 2224 0
49 -263 2224 0
49 -263 -2225 0
49 -2224 2225 263 0
49 -264 2225 0
49 -264 -2226 0
49 -2225 2226 264 0
49 -265 2226 0
49 -265 -2227 0
49 -2226 2227 265 0
49 -266 2227 0
49 -266 -2228 0
49 -2227 2228 266 0
49 -267 2228 0
49 -267 -2229 0
49 -2228 2229 267 0
49 -268 2229 0
49 -268 -2230 0
49 -2229 2230 268 0
49 -269 2230 0
49 -269 -2231 0
49 -2230 2231 269 0
49 -272 2233 0
49 -2233 272 0
49 -2233 2232 0
49 2232 0
49 -271 2232 0
49 -271 -2233 0
49 -2232 2233 271 0
49 -274 2235 0
49 -2235 274 0
49 -2235 2234 0
49 2234 0
49 -273 2234 0
49 -273 -2235 0
49 -2234 2235 273 0
49 -275 2236 0
49 -2236 275 0
49 2236 0
49 -276 2237 0
49 -2237 276 0
49 2237 0
49 -277 2238 0
49 -2238 277 0
49 2238 0
49 -278 2239 0
49 -2239 278 0
49 2239 0
49 -281 2242 0
49 -2242 281 0
49 -2241 2240 0
49 -2242 2241 0
49 2240 0
49 -279 2240 0
49 -279 -2241 0
49 -2240 2241 279 0
49 -280 2241 0
49 -280 -2242 0
49 -2241 2242 280 0
49 -284 2245 0
49 -2245 284 0
49 -2244 2243 0
49 -2245 2244 0
49 2243 0
49 -282 2243 0
49 -282 -2244 0
49 -2243 2244 282 0
49 -283 2244 0
49 -283 -2245 0
49 -2244 2245 283 0
49 -285 2246 0
49 -2246 285 0
49 2246 0
49 -286 2247 0
49 -2247 286 0
49 2247 0
49 -288 2249 0
49 -2249 288 0
49 -2249 2248 0
49 2248 0
49 -287 2248 0
49 -287 -2249 0
49 -2248 2249 287 0
49 -290 2251 0
49 -2251 290 0
49 -2251 2250 0
49 2250 0
49 -289 2250 0
49 -289 -2251 0
49 -2250 2251 289 0
49 -291 2252 0
49 -2252 291 0
49 2252 0
49 -292 2253 0
49 -2253 292 0
49 2253 0
49 -293 2254 0
49 -2254 293 0
49 2254 0
49 -294 2255 0
49 -2255 294 0
49 2255 0
49 -295 2256 0
49 -2256 295 0
49 2256 0
49 -296 2257 0
49 -2257 296 0
49 2257 0
49 -297 2258 0
49 -2258 297 0
49 2258 0
49 -298 2259 0
49 -2259 298 0
49 2259 0
49 -299 2260 0
49 -2260 299 0
49 2260 0
49 -300 2261 0
49 -2261 300 0
49 2261 0
49 -301 2262 0
49 -2262 301 0
49 2262 0
49 -302 2263 0
49 -2263 302 0
49 2263 0
49 -303 2264 0
49 -2264 303 0
49 2264 0
49 -304 2265 0
49 -2265 304 0
49 2265 0
49 -307 2268 0
49 -2268 307 0
49 -2267 2266 0
49 -2268 2267 0
49 2266 0
49 -305 2266 0
49 -305 -2267 0
49 -2266 2267 305 0
49 -306 2267 0
49 -306 -2268 0
49 -2267 2268 306 0
49 -310 2271 0
49 -2271 310 0
49 -2270 2269 0
49 -2271 2270 0
49 2269 0
49 -308 2269 0
49 -308 -2270 0
49 -2269 2270 308 0
49 -309 2270 0
49 -309 -2271 0
49 -2270 2271 309 0
49 -311 2272 0
49 -2272 311 0
49 2272 0
49 -312 2273 0
49 -2273 312 0
49 2273 0
49 -313 2274 0
49 -2274 313 0
49 2274 0
49 -314 2275 0
49 -2275 314 0
49 2275 0
49 -315 2276 0
49 -2276 315 0
49 2276 0
49 -316 2277 0
49 -2277 316 0
49 2277 0
49 -317 2278 0
49 -2278 317 0
49 2278 0
49 -318 2279 0
49 -2279 318 0
49 2279 0
49 -319 2280 0
49 -2280 319 0
49 2280 0
49 -320 2281 0
49 -2281 320 0
49 2281 0
49 -321 2282 0
49 -2282 321 0
49 2282 0
49 -322 2283 0
49 -2283 322 0
49 2283 0
49 -323 2284 0
49 -2284 323 0
49 2284 0
49 -324 2285 0
49 -2285 324 0
49 2285 0
49 -325 2286 0
49 -2286 325 0
49 2286 0
49 -326 2287 0
49 -2287 326 0
49 2287 0
49 -327 2288 0
49 -2288 327 0
49 2288 0
49 -328 2289 0
49 -2289 328 0
49 2289 0
49 -329 2290 0
49 -2290 329 0
49 2290 0
49 -330 2291 0
49 -2291 330 0
49 2291 0
49 -331 2292 0
49 -2292 331 0
49 2292 0
49 -332 2293 0
49 -2293 332 0
49 2293 0
49 -334 2295 0
49 -2295 334 0
49 -2295 2294 0
49 2294 0
49 -333 2294 0
49 -333 -2295 0
49 -2294 2295 333 0
49 -336 2297 0
49 -2297 336 0
49 -2297 2296 0
49 2296 0
49 -335 2296 0
49 -335 -2297 0
49 -2296 2297 335 0
49 -338 2299 0
49 -2299 338 0
49 -2299 2298 0
49 2298 0
49 -337 2298 0
49 -337 -2299 0
49 -2298 2299 337 0
49 -340 2301 0
49 -2301 340 0
49 -2301 2300 0
49 2300 0
49 -339 2300 0
49 -339 -2301 0
49 -2300 2301 339 0
49 -345 2306 0
49 -2306 345 0
49 -2303 2302 0
49 -2304 2303 0
49 -2305 2304 0
49 -2306 2305 0
49 2302 0
49 -341 2302 0
49 -341 -2303 0
49 -2302 2303 341 0
49 -342 2303 0
49 -342 -2304 0
49 -2303 2304 342 0
49 -343 2304 0
49 -343 -2305 0
49 -2304 2305 343 0
49 -344 2305 0
49 -344 -2306 0
49 -2305 2306 344 0
49 -350 2311 0
49 -2311 350 0
49 -2308 2307 0
49 -2309 2308 0
49 -2310 2309 0
49 -2311 2310 0
49 2307 0
49 -346 2307 0
49 -346 -2308 0
49 -2307 2308 346 0
49 -347 2308 0
49 -347 -2309 0
49 -2308 2309 347 0
49 -348 2309 0
49 -348 -2310 0
49 -2309 2310 348 0
49 -349 2310 0
49 -349 -2311 0
49 -2310 2311 349 0
49 -351 2312 0
49 -2312 351 0
49 2312 0
49 -352 2313 0
49 -2313 352 0
49 2313 0
49 -353 2314 0
49 -2314 353 0
49 2314 0
49 -354 2315 0
49 -2315 354 0
49 2315 0
49 -355 2316 0
49 -2316 355 0
49 2316 0
49 -356 2317 0
49 -2317 356 0
49 2317 0
49 -357 2318 0
49 -2318 357 0
49 2318 0
49 -358 2319 0
49 -2319 358 0
49 2319 0
49 -359 2320 0
49 -2320 359 0
49 2320 0
49 -360 2321 0
49 -2321 360 0
49 2321 0
49 -362 2323 0
49 -2323 362 0
49 -2323 2322 0
49 2322 0
49 -361 2322 0
49 -361 -2323 0
49 -2322 2323 361 0
49 -364 2325 0
49 -2325 364 0
49 -2325 2324 0
49 2324 0
49 -363 2324 0
49 -363 -2325 0
49 -2324 2325 363 0
49 -365 2326 0
49 -2326 365 0
49 2326 0
49 -366 2327 0
49 -2327 366 0
49 2327 0
49 -367 2328 0
49 -2328 367 0
49 2328 0
49 -368 2329 0
49 -2329 368 0
49 2329 0
49 -369 2330 0
49 -2330 369 0
49 2330 0
49 -370 2331 0
49 -2331 370 0
49 2331 0
49 -373 2334 0
49 -2334 373 0
49 -2333 2332 0
49 -2334 2333 0
49 2332 0
49 -371 2332 0
49 -371 -2333 0
49 -2332 2333 371 0
49 -372 2333 0
49 -372 -2334 0
49 -2333 2334 372 0
49 -376 2337 0
49 -2337 376 0
49 -2336 2335 0
49 -2337 2336 0
49 2335 0
49 -374 2335 0
49 -374 -2336 0
49 -2335 2336 374 0
49 -375 2336 0
49 -375 -2337 0
49 -2336 2337 375 0
49 -378 2339 0
49 -2339 378 0
49 -2339 2338 0
49 2338 0
49 -377 2338 0
49 -377 -2339 0
49 -2338 2339 377 0
49 -380 2341 0
49 -2341 380 0
49 -2341 2340 0
49 2340 0
49 -379 2340 0
49 -379 -2341 0
49 -2340 2341 379 0
49 -381 2342 0
49 -2342 381 0
49 2342 0
49 -382 2343 0
49 -2343 382 0
49 2343 0
49 -383 2344 0
49 -2344 383 0
49 2344 0
49 -384 2345 0
49 -2345 384 0
49 2345 0
49 -388 2349 0
49 -2349 388 0
49 -2347 2346 0
49 -2348 2347 0
49 -2349 2348 0
49 2346 0
49 -385 2346 0
49 -385 -2347 0
49 -2346 2347 385 0
49 -386 2347 0
49 -386 -2348 0
49 -2347 2348 386 0
49 -387 2348 0
49 -387 -2349 0
49 -2348 2349 387 0
49 -392 2353 0
49 -2353 392 0
49 -2351 2350 0
49 -2352 2351 0
49 -2353 2352 0
49 2350 0
49 -389 2350 0
49 -389 -2351 0
49 -2350 2351 389 0
49 -390 2351 0
49 -390 -2352 0
49 -2351 2352 390 0
49 -391 2352 0
49 -391 -2353 0
49 -2352 2353 391 0
49 -393 2354 0
49 -2354 393 0
49 2354 0
49 -394 2355 0
49 -2355 394 0
49 2355 0
49 -398 2359 0
49 -2359 398 0
49 -2357 2356 0
49 -2358 2357 0
49 -2359 2358 0
49 2356 0
49 -395 2356 0
49 -395 -2357 0
49 -2356 2357 395 0
49 -396 2357 0
49 -396 -2358 0
49 -2357 2358 396 0
49 -397 2358 0
49 -397 -2359 0
49 -2358 2359 397 0
49 -402 2363 0
49 -2363 402 0
49 -2361 2360 0
49 -2362 2361 0
49 -2363 2362 0
49 2360 0
49 -399 2360 0
49 -399 -2361 0
49 -2360 2361 399 0
49 -400 2361 0
49 -400 -2362 0
49 -2361 2362 400 0
49 -401 2362 0
49 -401 -2363 0
49 -2362 2363 401 0
49 -404 2365 0
49 -2365 404 0
49 -2365 2364 0
49 2364 0
49 -403 2364 0
49 -403 -2365 0
49 -2364 2365 403 0
49 -406 2367 0
49 -2367 406 0
49 -2367 2366 0
49 2366 0
49 -405 2366 0
49 -405 -2367 0
49 -2366 2367 405 0
49 -407 2368 0
49 -2368 407 0
49 2368 0
49 -408 2369 0
49 -2369 408 0
49 2369 0
49 -418 2379 0
49 -2379 418 0
49 -2371 2370 0
49 -2372 2371 0
49 -2373 2372 0
49 -2374 2373 0
49 -2375 2374 0
49 -2376 2375 0
49 -2377 2376 0
49 -2378 2377 0
49 -2379 2378 0
49 2370 0
49 -409 2370 0
49 -409 -2371 0
49 -2370 2371 409 0
49 -410 2371 0
49 -410 -2372 0
49 -2371 2372 410 0
49 -411 2372 0
49 -411 -2373 0
49 -2372 2373 411 0
49 -412 2373 0
49 -412 -2374 0
49 -2373 2374 412 0
49 -413 2374 0
49 -413 -2375 0
49 -2374 2375 413 0
49 -414 2375 0
49 -414 -2376 0
49 -2375 2376 414 0
49 -415 2376 0
49 -415 -2377 0
49 -2376 2377 415 0
49 -416 2377 0
49 -416 -2378 0
49 -2377 2378 416 0
49 -417 2378 0
49 -417 -2379 0
49 -2378 2379 417 0
49 -428 2389 0
49 -2389 428 0
49 -2381 2380 0
49 -2382 2381 0
49 -2383 2382 0
49 -2384 2383 0
49 -2385 2384 0
49 -2386 2385 0
49 -2387 2386 0
49 -2388 2387 0
49 -2389 2388 0
49 2380 0
49 -419 2380 0
49 -419 -2381 0
49 -2380 2381 419 0
49 -420 2381 0
49 -420 -2382 0
49 -2381 2382 420 0
49 -421 2382 0
49 -421 -2383 0
49 -2382 2383 421 0
49 -422 2383 0
49 -422 -2384 0
49 -2383 2384 422 0
49 -423 2384 0
49 -423 -2385 0
49 -2384 2385 423 0
49 -424 2385 0
49 -424 -2386 0
49 -2385 2386 424 0
49 -425 2386 0
49 -425 -2387 0
49 -2386 2387 425 0
49 -426 2387 0
49 -426 -2388 0
49 -2387 2388 426 0
49 -427 2388 0
49 -427 -2389 0
49 -2388 2389 427 0
49 -429 2390 0
49 -2390 429 0
49 2390 0
49 -430 2391 0
49 -2391 430 0
49 2391 0
49 -439 2400 0
49 -2400 439 0
49 -2393 2392 0
49 -2394 2393 0
49 -2395 2394 0
49 -2396 2395 0
49 -2397 2396 0
49 -2398 2397 0
49 -2399 2398 0
49 -2400 2399 0
49 2392 0
49 -431 2392 0
49 -431 -2393 0
49 -2392 2393 431 0
49 -432 2393 0
49 -432 -2394 0
49 -2393 2394 432 0
49 -433 2394 0
49 -433 -2395 0
49 -2394 2395 433 0
49 -434 2395 0
49 -434 -2396 0
49 -2395 2396 434 0
49 -435 2396 0
49 -435 -2397 0
49 -2396 2397 435 0
49 -436 2397 0
49 -436 -2398 0
49 -2397 2398 436 0
49 -437 2398 0
49 -437 -2399 0
49 -2398 2399 437 0
49 -438 2399 0
49 -438 -2400 0
49 -2399 2400 438 0
49 -448 2409 0
49 -2409 448 0
49 -2402 2401 0
49 -2403 2402 0
49 -2404 2403 0
49 -2405 2404 0
49 -2406 2405 0
49 -2407 2406 0
49 -2408 2407 0
49 -2409 2408 0
49 2401 0
49 -440 2401 0
49 -440 -2402 0
49 -2401 2402 440 0
49 -441 2402 0
49 -441 -2403 0
49 -2402 2403 441 0
49 -442 2403 0
49 -442 -2404 0
49 -2403 2404 442 0
49 -443 2404 0
49 -443 -2405 0
49 -2404 2405 443 0
49 -444 2405 0
49 -444 -2406 0
49 -2405 2406 444 0
49 -445 2406 0
49 -445 -2407 0
49 -2406 2407 445 0
49 -446 2407 0
49 -446 -2408 0
49 -2407 2408 446 0
49 -447 2408 0
49 -447 -2409 0
49 -2408 2409 447 0
49 -449 2410 0
49 -2410 449 0
49 2410 0
49 -450 2411 0
49 -2411 450 0
49 2411 0
49 -451 2412 0
49 -2412 451 0
49 2412 0
49 -452 2413 0
49 -2413 452 0
49 2413 0
49 -453 2414 0
49 -2414 453 0
49 2414 0
49 -454 2415 0
49 -2415 454 0
49 2415 0
49 -455 2416 0
49 -2416 455 0
49 2416 0
49 -456 2417 0
49 -2417 456 0
49 2417 0
49 -457 2418 0
49 -2418 457 0
49 2418 0
49 -458 2419 0
49 -2419 458 0
49 2419 0
49 -459 2420 0
49 -2420 459 0
49 2420 0
49 -460 2421 0
49 -2421 460 0
49 2421 0
49 -462 2423 0
49 -2423 462 0
49 -2423 2422 0
49 2422 0
49 -461 2422 0
49 -461 -2423 0
49 -2422 2423 461 0
49 -464 2425 0
49 -2425 464 0
49 -2425 2424 0
49 2424 0
49 -463 2424 0
49 -463 -2425 0
49 -2424 2425 463 0
49 -465 2426 0
49 -2426 465 0
49 2426 0
49 -466 2427 0
49 -2427 466 0
49 2427 0
49 -467 2428 0
49 -2428 467 0
49 2428 0
49 -468 2429 0
49 -2429 468 0
49 2429 0
49 -470 2431 0
49 -2431 470 0
49 -2431 2430 0
49 2430 0
49 -469 2430 0
49 -469 -2431 0
49 -2430 2431 469 0
49 -472 2433 0
49 -2433 472 0
49 -2433 2432 0
49 2432 0
49 -471 2432 0
49 -471 -2433 0
49 -2432 2433 471 0
49 -474 2435 0
49 -2435 474 0
49 -2435 2434 0
49 2434 0
49 -473 2434 0
49 -473 -2435 0
49 -2434 2435 473 0
49 -476 2437 0
49 -2437 476 0
49 -2437 2436 0
49 2436 0
49 -475 2436 0
49 -475 -2437 0
49 -2436 2437 475 0
49 -477 2438 0
49 -2438 477 0
49 2438 0
49 -478 2439 0
49 -2439 478 0
49 2439 0
49 -479 2440 0
49 -2440 479 0
49 2440 0
49 -480 2441 0
49 -2441 480 0
49 2441 0
49 -484 2445 0
49 -2445 484 0
49 -2443 2442 0
49 -2444 2443 0
49 -2445 2444 0
49 2442 0
49 -481 2442 0
49 -481 -2443 0
49 -2442 2443 481 0
49 -482 2443 0
49 -482 -2444 0
49 -2443 2444 482 0
49 -483 2444 0
49 -483 -2445 0
49 -2444 2445 483 0
49 -488 2449 0
49 -2449 488 0
49 -2447 2446 0
49 -2448 2447 0
49 -2449 2448 0
49 2446 0
49 -485 2446 0
49 -485 -2447 0
49 -2446 2447 485 0
49 -486 2447 0
49 -486 -2448 0
49 -2447 2448 486 0
49 -487 2448 0
49 -487 -2449 0
49 -2448 2449 487 0
49 -489 2450 0
49 -2450 489 0
49 2450 0
49 -490 2451 0
49 -2451 490 0
49 2451 0
49 -491 2452 0
49 -2452 491 0
49 2452 0
49 -492 2453 0
49 -2453 492 0
49 2453 0
49 -493 2454 0
49 -2454 493 0
49 2454 0
49 -494 2455 0
49 -2455 494 0
49 2455 0
49 -495 2456 0
49 -2456 495 0
49 2456 0
49 -496 2457 0
49 -2457 496 0
49 2457 0
49 -498 2459 0
49 -2459 498 0
49 -2459 2458 0
49 2458 0
49 -497 2458 0
49 -497 -2459 0
49 -2458 2459 497 0
49 -500 2461 0
49 -2461 500 0
49 -2461 2460 0
49 2460 0
49 -499 2460 0
49 -499 -2461 0
49 -2460 2461 499 0
49 -501 2462 0
49 -2462 501 0
49 2462 0
49 -502 2463 0
49 -2463 502 0
49 2463 0
49 -503 2464 0
49 -2464 503 0
49 2464 0
49 -504 2465 0
49 -2465 504 0
49 2465 0
49 -505 2466 0
49 -2466 505 0
49 2466 0
49 -506 2467 0
49 -2467 506 0
49 2467 0
49 -515 2476 0
49 -2476 515 0
49 -2469 2468 0
49 -2470 2469 0
49 -2471 2470 0
49 -2472 2471 0
49 -2473 2472 0
49 -2474 2473 0
49 -2475 2474 0
49 -2476 2475 0
49 2468 0
49 -507 2468 0
49 -507 -2469 0
49 -2468 2469 507 0
49 -508 2469 0
49 -508 -2470 0
49 -2469 2470 508 0
49 -509 2470 0
49 -509 -2471 0
49 -2470 2471 509 0
49 -510 2471 0
49 -510 -2472 0
49 -2471 2472 510 0
49 -511 2472 0
49 -511 -2473 0
49 -2472 2473 511 0
49 -512 2473 0
49 -512 -2474 0
49 -2473 2474 512 0
49 -513 2474 0
49 -513 -2475 0
49 -2474 2475 513 0
49 -514 2475 0
49 -514 -2476 0
49 -2475 2476 514 0
49 -524 2485 0
49 -2485 524 0
49 -2478 2477 0
49 -2479 2478 0
49 -2480 2479 0
49 -2481 2480 0
49 -2482 2481 0
49 -2483 2482 0
49 -2484 2483 0
49 -2485 2484 0
49 2477 0
49 -516 2477 0
49 -516 -2478 0
49 -2477 2478 516 0
49 -517 2478 0
49 -517 -2479 0
49 -2478 2479 517 0
49 -518 2479 0
49 -518 -2480 0
49 -2479 2480 518 0
49 -519 2480 0
49 -519 -2481 0
49 -2480 2481 519 0
49 -520 2481 0
49 -520 -2482 0
49 -2481 2482 520 0
49 -521 2482 0
49 -521 -2483 0
49 -2482 2483 521 0
49 -522 2483 0
49 -522 -2484 0
49 -2483 2484 522 0
49 -523 2484 0
49 -523 -2485 0
49 -2484 2485 523 0
49 -530 2491 0
49 -2491 530 0
49 -2487 2486 0
49 -2488 2487 0
49 -2489 2488 0
49 -2490 2489 0
49 -2491 2490 0
49 2486 0
49 -525 2486 0
49 -525 -2487 0
49 -2486 2487 525 0
49 -526 2487 0
49 -526 -2488 0
49 -2487 2488 526 0
49 -527 2488 0
49 -527 -2489 0
49 -2488 2489 527 0
49 -528 2489 0
49 -528 -2490 0
49 -2489 2490 528 0
49 -529 2490 0
49 -529 -2491 0
49 -2490 2491 529 0
49 -536 2497 0
49 -2497 536 0
49 -2493 2492 0
49 -2494 2493 0
49 -2495 2494 0
49 -2496 2495 0
49 -2497 2496 0
49 2492 0
49 -531 2492 0
49 -531 -2493 0
49 -2492 2493 531 0
49 -532 2493 0
49 -532 -2494 0
49 -2493 2494 532 0
49 -533 2494 0
49 -533 -2495 0
49 -2494 2495 533 0
49 -534 2495 0
49 -534 -2496 0
49 -2495 2496 534 0
49 -535 2496 0
49 -535 -2497 0
49 -2496 2497 535 0
49 -539 2500 0
49 -2500 539 0
49 -2499 2498 0
49 -2500 2499 0
49 2498 0
49 -537 2498 0
49 -537 -2499 0
49 -2498 2499 537 0
49 -538 2499 0
49 -538 -2500 0
49 -2499 2500 538 0
49 -542 2503 0
49 -2503 542 0
49 -2502 2501 0
49 -2503 2502 0
49 2501 0
49 -540 2501 0
49 -540 -2502 0
49 -2501 2502 540 0
49 -541 2502 0
49 -541 -2503 0
49 -2502 2503 541 0
49 -550 2511 0
49 -2511 550 0
49 -2505 2504 0
49 -2506 2505 0
49 -2507 2506 0
49 -2508 2507 0
49 -2509 2508 0
49 -2510 2509 0
49 -2511 2510 0
49 2504 0
49 -543 2504 0
49 -543 -2505 0
49 -2504 2505 543 0
49 -544 2505 0
49 -544 -2506 0
49 -2505 2506 544 0
49 -545 2506 0
49 -545 -2507 0
49 -2506 2507 545 0
49 -546 2507 0
49 -546 -2508 0
49 -2507 2508 546 0
49 -547 2508 0
49 -547 -2509 0
49 -2508 2509 547 0
49 -548 2509 0
49 -548 -2510 0
49 -2509 2510 548 0
49 -549 2510 0
49 -549 -2511 0
49 -2510 2511 549 0
49 -558 2519 0
49 -2519 558 0
49 -2513 2512 0
49 -2514 2513 0
49 -2515 2514 0
49 -2516 2515 0
49 -2517 2516 0
49 -2518 2517 0
49 -2519 2518 0
49 2512 0
49 -551 2512 0
49 -551 -2513 0
49 -2512 2513 551 0
49 -552 2513 0
49 -552 -2514 0
49 -2513 2514 552 0
49 -553 2514 0
49 -553 -2515 0
49 -2514 2515 553 0
49 -554 2515 0
49 -554 -2516 0
49 -2515 2516 554 0
49 -555 2516 0
49 -555 -2517 0
49 -2516 2517 555 0
49 -556 2517 0
49 -556 -2518 0
49 -2517 2518 556 0
49 -557 2518 0
49 -557 -2519 0
49 -2518 2519 557 0
49 -559 2520 0
49 -2520 559 0
49 2520 0
49 -560 2521 0
49 -2521 560 0
49 2521 0
49 -561 2522 0
49 -2522 561 0
49 2522 0
49 -562 2523 0
49 -2523 562 0
49 2523 0
49 -563 2524 0
49 -2524 563 0
49 2524 0
49 -564 2525 0
49 -2525 564 0
49 2525 0
49 -565 2526 0
49 -2526 565 0
49 2526 0
49 -566 2527 0
49 -2527 566 0
49 2527 0
49 -567 2528 0
49 -2528 567 0
49 2528 0
49 -568 2529 0
49 -2529 568 0
49 2529 0
49 -569 2530 0
49 -2530 569 0
49 2530 0
49 -570 2531 0
49 -2531 570 0
49 2531 0
49 -571 2532 0
49 -2532 571 0
49 2532 0
49 -572 2533 0
49 -2533 572 0
49 2533 0
49 -573 2534 0
49 -2534 573 0
49 2534 0
49 -574 2535 0
49 -2535 574 0
49 2535 0
49 -575 2536 0
49 -2536 575 0
49 2536 0
49 -576 2537 0
49 -2537 576 0
49 2537 0
49 -584 2545 0
49 -2545 584 0
49 -2539 2538 0
49 -2540 2539 0
49 -2541 2540 0
49 -2542 2541 0
49 -2543 2542 0
49 -2544 2543 0
49 -2545 2544 0
49 2538 0
49 -577 2538 0
49 -577 -2539 0
49 -2538 2539 577 0
49 -578 2539 0
49 -578 -2540 0
49 -2539 2540 578 0
49 -579 2540 0
49 -579 -2541 0
49 -2540 2541 579 0
49 -580 2541 0
49 -580 -2542 0
49 -2541 2542 580 0
49 -581 2542 0
49 -581 -2543 0
49 -2542 2543 581 0
49 -582 2543 0
49 -582 -2544 0
49 -2543 2544 582 0
49 -583 2544 0
49 -583 -2545 0
49 -2544 2545 583 0
49 -592 2553 0
49 -2553 592 0
49 -2547 2546 0
49 -2548 2547 0
49 -2549 2548 0
49 -2550 2549 0
49 -2551 2550 0
49 -2552 2551 0
49 -2553 2552 0
49 2546 0
49 -585 2546 0
49 -585 -2547 0
49 -2546 2547 585 0
49 -586 2547 0
49 -586 -2548 0
49 -2547 2548 586 0
49 -587 2548 0
49 -587 -2549 0
49 -2548 2549 587 0
49 -588 2549 0
49 -588 -2550 0
49 -2549 2550 588 0
49 -589 2550 0
49 -589 -2551 0
49 -2550 2551 589 0
49 -590 2551 0
49 -590 -2552 0
49 -2551 2552 590 0
49 -591 2552 0
49 -591 -2553 0
49 -2552 2553 591 0
49 -593 2554 0
49 -2554 593 0
49 2554 0
49 -594 2555 0
49 -2555 594 0
49 2555 0
49 -595 2556 0
49 -2556 595 0
49 2556 0
49 -596 2557 0
49 -2557 596 0
49 2557 0
49 -600 2561 0
49 -2561 600 0
49 -2559 2558 0
49 -2560 2559 0
49 -2561 2560 0
49 2558 0
49 -597 2558 0
49 -597 -2559 0
49 -2558 2559 597 0
49 -598 2559 0
49 -598 -2560 0
49 -2559 2560 598 0
49 -599 2560 0
49 -599 -2561 0
49 -2560 2561 599 0
49 -604 2565 0
49 -2565 604 0
49 -2563 2562 0
49 -2564 2563 0
49 -2565 2564 0
49 2562 0
49 -601 2562 0
49 -601 -2563 0
49 -2562 2563 601 0
49 -602 2563 0
49 -602 -2564 0
49 -2563 2564 602 0
49 -603 2564 0
49 -603 -2565 0
49 -2564 2565 603 0
49 -606 2567 0
49 -2567 606 0
49 -2567 2566 0
49 2566 0
49 -605 2566 0
49 -605 -2567 0
49 -2566 2567 605 0
49 -608 2569 0
49 -2569 608 0
49 -2569 2568 0
49 2568 0
49 -607 2568 0
49 -607 -2569 0
49 -2568 2569 607 0
49 -610 2571 0
49 -2571 610 0
49 -2571 2570 0
49 2570 0
49 -609 2570 0
49 -609 -2571 0
49 -2570 2571 609 0
49 -612 2573 0
49 -2573 612 0
49 -2573 2572 0
49 2572 0
49 -611 2572 0
49 -611 -2573 0
49 -2572 2573 611 0
49 -616 2577 0
49 -2577 616 0
49 -2575 2574 0
49 -2576 2575 0
49 -2577 2576 0
49 2574 0
49 -613 2574 0
49 -613 -2575 0
49 -2574 2575 613 0
49 -614 2575 0
49 -614 -2576 0
49 -2575 2576 614 0
49 -615 2576 0
49 -615 -2577 0
49 -2576 2577 615 0
49 -620 2581 0
49 -2581 620 0
49 -2579 2578 0
49 -2580 2579 0
49 -2581 2580 0
49 2578 0
49 -617 2578 0
49 -617 -2579 0
49 -2578 2579 617 0
49 -618 2579 0
49 -618 -2580 0
49 -2579 2580 618 0
49 -619 2580 0
49 -619 -2581 0
49 -2580 2581 619 0
49 -625 2586 0
49 -2586 625 0
49 -2583 2582 0
49 -2584 2583 0
49 -2585 2584 0
49 -2586 2585 0
49 2582 0
49 -621 2582 0
49 -621 -2583 0
49 -2582 2583 621 0
49 -622 2583 0
49 -622 -2584 0
49 -2583 2584 622 0
49 -623 2584 0
49 -623 -2585 0
49 -2584 2585 623 0
49 -624 2585 0
49 -624 -2586 0
49 -2585 2586 624 0
49 -630 2591 0
49 -2591 630 0
49 -2588 2587 0
49 -2589 2588 0
49 -2590 2589 0
49 -2591 2590 0
49 2587 0
49 -626 2587 0
49 -626 -2588 0
49 -2587 2588 626 0
49 -627 2588 0
49 -627 -2589 0
49 -2588 2589 627 0
49 -628 2589 0
49 -628 -2590 0
49 -2589 2590 628 0
49 -629 2590 0
49 -629 -2591 0
49 -2590 2591 629 0
49 -631 2592 0
49 -2592 631 0
49 2592 0
49 -632 2593 0
49 -2593 632 0
49 2593 0
49 -633 2594 0
49 -2594 633 0
49 2594 0
49 -634 2595 0
49 -2595 634 0
49 2595 0
49 -635 2596 0
49 -2596 635 0
49 2596 0
49 -636 2597 0
49 -2597 636 0
49 2597 0
49 -637 2598 0
49 -2598 637 0
49 2598 0
49 -638 2599 0
49 -2599 638 0
49 2599 0
49 -639 2600 0
49 -2600 639 0
49 2600 0
49 -640 2601 0
49 -2601 640 0
49 2601 0
49 -649 2610 0
49 -2610 649 0
49 -2603 2602 0
49 -2604 2603 0
49 -2605 2604 0
49 -2606 2605 0
49 -2607 2606 0
49 -2608 2607 0
49 -2609 2608 0
49 -2610 2609 0
49 2602 0
49 -641 2602 0
49 -641 -2603 0
49 -2602 2603 641 0
49 -642 2603 0
49 -642 -2604 0
49 -2603 2604 642 0
49 -643 2604 0
49 -643 -2605 0
49 -2604 2605 643 0
49 -644 2605 0
49 -644 -2606 0
49 -2605 2606 644 0
49 -645 2606 0
49 -645 -2607 0
49 -2606 2607 645 0
49 -646 2607 0
49 -646 -2608 0
49 -2607 2608 646 0
49 -647 2608 0
49 -647 -2609 0
49 -2608 2609 647 0
49 -648 2609 0
49 -648 -2610 0
49 -2609 2610 648 0
49 -658 2619 0
49 -2619 658 0
49 -2612 2611 0
49 -2613 2612 0
49 -2614 2613 0
49 -2615 2614 0
49 -2616 2615 0
49 -2617 2616 0
49 -2618 2617 0
49 -2619 2618 0
49 2611 0
49 -650 2611 0
49 -650 -2612 0
49 -2611 2612 650 0
49 -651 2612 0
49 -651 -2613 0
49 -2612 2613 651 0
49 -652 2613 0
49 -652 -2614 0
49 -2613 2614 652 0
49 -653 2614 0
49 -653 -2615 0
49 -2614 2615 653 0
49 -654 2615 0
49 -654 -2616 0
49 -2615 2616 654 0
49 -655 2616 0
49 -655 -2617 0
49 -2616 2617 655 0
49 -656 2617 0
49 -656 -2618 0
49 -2617 2618 656 0
49 -657 2618 0
49 -657 -2619 0
49 -2618 2619 657 0
49 -661 2622 0
49 -2622 661 0
49 -2621 2620 0
49 -2622 2621 0
49 2620 0
49 -659 2620 0
49 -659 -2621 0
49 -2620 2621 659 0
49 -660 2621 0
49 -660 -2622 0
49 -2621 2622 660 0
49 -664 2625 0
49 -2625 664 0
49 -2624 2623 0
49 -2625 2624 0
49 2623 0
49 -662 2623 0
49 -662 -2624 0
49 -2623 2624 662 0
49 -663 2624 0
49 -663 -2625 0
49 -2624 2625 663 0
49 -665 2626 0
49 -2626 665 0
49 2626 0
49 -666 2627 0
49 -2627 666 0
49 2627 0
49 -668 2629 0
49 -2629 668 0
49 -2629 2628 0
49 2628 0
49 -667 2628 0
49 -667 -2629 0
49 -2628 2629 667 0
49 -670 2631 0
49 -2631 670 0
49 -2631 2630 0
49 2630 0
49 -669 2630 0
49 -669 -2631 0
49 -2630 2631 669 0
49 -675 2636 0
49 -2636 675 0
49 -2633 2632 0
49 -2634 2633 0
49 -2635 2634 0
49 -2636 2635 0
49 2632 0
49 -671 2632 0
49 -671 -2633 0
49 -2632 2633 671 0
49 -672 2633 0
49 -672 -2634 0
49 -2633 2634 672 0
49 -673 2634 0
49 -673 -2635 0
49 -2634 2635 673 0
49 -674 2635 0
49 -674 -2636 0
49 -2635 2636 674 0
49 -680 2641 0
49 -2641 680 0
49 -2638 2637 0
49 -2639 2638 0
49 -2640 2639 0
49 -2641 2640 0
49 2637 0
49 -676 2637 0
49 -676 -2638 0
49 -2637 2638 676 0
49 -677 2638 0
49 -677 -2639 0
49 -2638 2639 677 0
49 -678 2639 0
49 -678 -2640 0
49 -2639 2640 678 0
49 -679 2640 0
49 -679 -2641 0
49 -2640 2641 679 0
49 -681 2642 0
49 -2642 681 0
49 2642 0
49 -682 2643 0
49 -2643 682 0
49 2643 0
49 -683 2644 0
49 -2644 683 0
49 2644 0
49 -684 2645 0
49 -2645 684 0
49 2645 0
49 -693 2654 0
49 -2654 693 0
49 -2647 2646 0
49 -2648 2647 0
49 -2649 2648 0
49 -2650 2649 0
49 -2651 2650 0
49 -2652 2651 0
49 -2653 2652 0
49 -2654 2653 0
49 2646 0
49 -685 2646 0
49 -685 -2647 0
49 -2646 2647 685 0
49 -686 2647 0
49 -686 -2648 0
49 -2647 2648 686 0
49 -687 2648 0
49 -687 -2649 0
49 -2648 2649 687 0
49 -688 2649 0
49 -688 -2650 0
49 -2649 2650 688 0
49 -689 2650 0
49 -689 -2651 0
49 -2650 2651 689 0
49 -690 2651 0
49 -690 -2652 0
49 -2651 2652 690 0
49 -691 2652 0
49 -691 -2653 0
49 -2652 2653 691 0
49 -692 2653 0
49 -692 -2654 0
49 -2653 2654 692 0
49 -702 2663 0
49 -2663 702 0
49 -2656 2655 0
49 -2657 2656 0
49 -2658 2657 0
49 -2659 2658 0
49 -2660 2659 0
49 -2661 2660 0
49 -2662 2661 0
49 -2663 2662 0
49 2655 0
49 -694 2655 0
49 -694 -2656 0
49 -2655 2656 694 0
49 -695 2656 0
49 -695 -2657 0
49 -2656 2657 695 0
49 -696 2657 0
49 -696 -2658 0
49 -2657 2658 696 0
49 -697 2658 0
49 -697 -2659 0
49 -2658 2659 697 0
49 -698 2659 0
49 -698 -2660 0
49 -2659 2660 698 0
49 -699 2660 0
49 -699 -2661 0
49 -2660 2661 699 0
49 -700 2661 0
49 -700 -2662 0
49 -2661 2662 700 0
49 -701 2662 0
49 -701 -2663 0
49 -2662 2663 701 0
49 -705 2666 0
49 -2666 705 0
49 -2665 2664 0
49 -2666 2665 0
49 2664 0
49 -703 2664 0
49 -703 -2665 0
49 -2664 2665 703 0
49 -704 2665 0
49 -704 -2666 0
49 -2665 2666 704 0
49 -708 2669 0
49 -2669 708 0
49 -2668 2667 0
49 -2669 2668 0
49 2667 0
49 -706 2667 0
49 -706 -2668 0
49 -2667 2668 706 0
49 -707 2668 0
49 -707 -2669 0
49 -2668 2669 707 0
49 -709 2670 0
49 -2670 709 0
49 2670 0
49 -710 2671 0
49 -2671 710 0
49 2671 0
49 -711 2672 0
49 -2672 711 0
49 2672 0
49 -712 2673 0
49 -2673 712 0
49 2673 0
49 -713 2674 0
49 -2674 713 0
49 2674 0
49 -714 2675 0
49 -2675 714 0
49 2675 0
49 -724 2685 0
49 -2685 724 0
49 -2677 2676 0
49 -2678 2677 0
49 -2679 2678 0
49 -2680 2679 0
49 -2681 2680 0
49 -2682 2681 0
49 -2683 2682 0
49 -2684 2683 0
49 -2685 2684 0
49 2676 0
49 -715 2676 0
49 -715 -2677 0
49 -2676 2677 715 0
49 -716 2677 0
49 -716 -2678 0
49 -2677 2678 716 0
49 -717 2678 0
49 -717 -2679 0
49 -2678 2679 717 0
49 -718 2679 0
49 -718 -2680 0
49 -2679 2680 718 0
49 -719 2680 0
49 -719 -2681 0
49 -2680 2681 719 0
49 -720 2681 0
49 -720 -2682 0
49 -2681 2682 720 0
49 -721 2682 0
49 -721 -2683 0
49 -2682 2683 721 0
49 -722 2683 0
49 -722 -2684 0
49 -2683 2684 722 0
49 -723 2684 0
49 -723 -2685 0
49 -2684 2685 723 0
49 -734 2695 0
49 -2695 734 0
49 -2687 2686 0
49 -2688 2687 0
49 -2689 2688 0
49 -2690 2689 0
49 -2691 2690 0
49 -2692 2691 0
49 -2693 2692 0
49 -2694 2693 0
49 -2695 2694 0
49 2686 0
49 -725 2686 0
49 -725 -2687 0
49 -2686 2687 725 0
49 -726 2687 0
49 -726 -2688 0
49 -2687 2688 726 0
49 -727 2688 0
49 -727 -2689 0
49 -2688 2689 727 0
49 -728 2689 0
49 -728 -2690 0
49 -2689 2690 728 0
49 -729 2690 0
49 -729 -2691 0
49 -2690 2691 729 0
49 -730 2691 0
49 -730 -2692 0
49 -2691 2692 730 0
49 -731 2692 0
49 -731 -2693 0
49 -2692 2693 731 0
49 -732 2693 0
49 -732 -2694 0
49 -2693 2694 732 0
49 -733 2694 0
49 -733 -2695 0
49 -2694 2695 733 0
49 -742 2703 0
49 -2703 742 0
49 -2697 2696 0
49 -2698 2697 0
49 -2699 2698 0
49 -2700 2699 0
49 -2701 2700 0
49 -2702 2701 0
49 -2703 2702 0
49 2696 0
49 -735 2696 0
49 -735 -2697 0
49 -2696 2697 735 0
49 -736 2697 0
49 -736 -2698 0
49 -2697 2698 736 0
49 -737 2698 0
49 -737 -2699 0
49 -2698 2699 737 0
49 -738 2699 0
49 -738 -2700 0
49 -2699 2700 738 0
49 -739 2700 0
49 -739 -2701 0
49 -2700 2701 739 0
49 -740 2701 0
49 -740 -2702 0
49 -2701 2702 740 0
49 -741 2702 0
49 -741 -2703 0
49 -2702 2703 741 0
49 -750 2711 0
49 -2711 750 0
49 -2705 2704 0
49 -2706 2705 0
49 -2707 2706 0
49 -2708 2707 0
49 -2709 2708 0
49 -2710 2709 0
49 -2711 2710 0
49 2704 0
49 -743 2704 0
49 -743 -2705 0
49 -2704 2705 743 0
49 -744 2705 0
49 -744 -2706 0
49 -2705 2706 744 0
49 -745 2706 0
49 -745 -2707 0
49 -2706 2707 745 0
49 -746 2707 0
49 -746 -2708 0
49 -2707 2708 746 0
49 -747 2708 0
49 -747 -2709 0
49 -2708 2709 747 0
49 -748 2709 0
49 -748 -2710 0
49 -2709 2710 748 0
49 -749 2710 0
49 -749 -2711 0
49 -2710 2711 749 0
49 -751 2712 0
49 -2712 751 0
49 2712 0
49 -752 2713 0
49 -2713 752 0
49 2713 0
49 -754 2715 0
49 -2715 754 0
49 -2715 2714 0
49 2714 0
49 -753 2714 0
49 -753 -2715 0
49 -2714 2715 753 0
49 -756 2717 0
49 -2717 756 0
49 -2717 2716 0
49 2716 0
49 -755 2716 0
49 -755 -2717 0
49 -2716 2717 755 0
49 -757 2718 0
49 -2718 757 0
49 2718 0
49 -758 2719 0
49 -2719 758 0
49 2719 0
49 -759 2720 0
49 -2720 759 0
49 2720 0
49 -760 2721 0
49 -2721 760 0
49 2721 0
49 -761 2722 0
49 -2722 761 0
49 2722 0
49 -762 2723 0
49 -2723 762 0
49 2723 0
49 -763 2724 0
49 -2724 763 0
49 2724 0
49 -764 2725 0
49 -2725 764 0
49 2725 0
49 -768 2729 0
49 -2729 768 0
49 -2727 2726 0
49 -2728 2727 0
49 -2729 2728 0
49 2726 0
49 -765 2726 0
49 -765 -2727 0
49 -2726 2727 765 0
49 -766 2727 0
49 -766 -2728 0
49 -2727 2728 766 0
49 -767 2728 0
49 -767 -2729 0
49 -2728 2729 767 0
49 -772 2733 0
49 -2733 772 0
49 -2731 2730 0
49 -2732 2731 0
49 -2733 2732 0
49 2730 0
49 -769 2730 0
49 -769 -2731 0
49 -2730 2731 769 0
49 -770 2731 0
49 -770 -2732 0
49 -2731 2732 770 0
49 -771 2732 0
49 -771 -2733 0
49 -2732 2733 771 0
49 -773 2734 0
49 -2734 773 0
49 2734 0
49 -774 2735 0
49 -2735 774 0
49 2735 0
49 -775 2736 0
49 -2736 775 0
49 2736 0
49 -776 2737 0
49 -2737 776 0
49 2737 0
49 -777 2738 0
49 -2738 777 0
49 2738 0
49 -778 2739 0
49 -2739 778 0
49 2739 0
49 -779 2740 0
49 -2740 779 0
49 2740 0
49 -780 2741 0
49 -2741 780 0
49 2741 0
49 -783 2744 0
49 -2744 783 0
49 -2743 2742 0
49 -2744 2743 0
49 2742 0
49 -781 2742 0
49 -781 -2743 0
49 -2742 2743 781 0
49 -782 2743 0
49 -782 -2744 0
49 -2743 2744 782 0
49 -786 2747 0
49 -2747 786 0
49 -2746 2745 0
49 -2747 2746 0
49 2745 0
49 -784 2745 0
49 -784 -2746 0
49 -2745 2746 784 0
49 -785 2746 0
49 -785 -2747 0
49 -2746 2747 785 0
49 -787 2748 0
49 -2748 787 0
49 2748 0
49 -788 2749 0
49 -2749 788 0
49 2749 0
49 -789 2750 0
49 -2750 789 0
49 2750 0
49 -790 2751 0
49 -2751 790 0
49 2751 0
49 -791 2752 0
49 -2752 791 0
49 2752 0
49 -792 2753 0
49 -2753 792 0
49 2753 0
49 -793 2754 0
49 -2754 793 0
49 2754 0
49 -794 2755 0
49 -2755 794 0
49 2755 0
49 -797 2758 0
49 -2758 797 0
49 -2757 2756 0
49 -2758 2757 0
49 2756 0
49 -795 2756 0
49 -795 -2757 0
49 -2756 2757 795 0
49 -796 2757 0
49 -796 -2758 0
49 -2757 2758 796 0
49 -800 2761 0
49 -2761 800 0
49 -2760 2759 0
49 -2761 2760 0
49 2759 0
49 -798 2759 0
49 -798 -2760 0
49 -2759 2760 798 0
49 -799 2760 0
49 -799 -2761 0
49 -2760 2761 799 0
49 -802 2763 0
49 -2763 802 0
49 -2763 2762 0
49 2762 0
49 -801 2762 0
49 -801 -2763 0
49 -2762 2763 801 0
49 -804 2765 0
49 -2765 804 0
49 -2765 2764 0
49 2764 0
49 -803 2764 0
49 -803 -2765 0
49 -2764 2765 803 0
49 -805 2766 0
49 -2766 805 0
49 2766 0
49 -806 2767 0
49 -2767 806 0
49 2767 0
49 -807 2768 0
49 -2768 807 0
49 2768 0
49 -808 2769 0
49 -2769 808 0
49 2769 0
49 -809 2770 0
49 -2770 809 0
49 2770 0
49 -810 2771 0
49 -2771 810 0
49 2771 0
49 -812 2773 0
49 -2773 812 0
49 -2773 2772 0
49 2772 0
49 -811 2772 0
49 -811 -2773 0
49 -2772 2773 811 0
49 -814 2775 0
49 -2775 814 0
49 -2775 2774 0
49 2774 0
49 -813 2774 0
49 -813 -2775 0
49 -2774 2775 813 0
49 -815 2776 0
49 -2776 815 0
49 2776 0
49 -816 2777 0
49 -2777 816 0
49 2777 0
49 -818 2779 0
49 -2779 818 0
49 -2779 2778 0
49 2778 0
49 -817 2778 0
49 -817 -2779 0
49 -2778 2779 817 0
49 -820 2781 0
49 -2781 820 0
49 -2781 2780 0
49 2780 0
49 -819 2780 0
49 -819 -2781 0
49 -2780 2781 819 0
49 -821 2782 0
49 -2782 821 0
49 2782 0
49 -822 2783 0
49 -2783 822 0
49 2783 0
49 -823 2784 0
49 -2784 823 0
49 2784 0
49 -824 2785 0
49 -2785 824 0
49 2785 0
49 -835 2796 0
49 -2796 835 0
49 -2787 2786 0
49 -2788 2787 0
49 -2789 2788 0
49 -2790 2789 0
49 -2791 2790 0
49 -2792 2791 0
49 -2793 2792 0
49 -2794 2793 0
49 -2795 2794 0
49 -2796 2795 0
49 2786 0
49 -825 2786 0
49 -825 -2787 0
49 -2786 2787 825 0
49 -826 2787 0
49 -826 -2788 0
49 -2787 2788 826 0
49 -827 2788 0
49 -827 -2789 0
49 -2788 2789 827 0
49 -828 2789 0
49 -828 -2790 0
49 -2789 2790 828 0
49 -829 2790 0
49 -829 -2791 0
49 -2790 2791 829 0
49 -830 2791 0
49 -830 -2792 0
49 -2791 2792 830 0
49 -831 2792 0
49 -831 -2793 0
49 -2792 2793 831 0
49 -832 2793 0
49 -832 -2794 0
49 -2793 2794 832 0
49 -833 2794 0
49 -833 -2795 0
49 -2794 2795 833 0
49 -834 2795 0
49 -834 -2796 0
49 -2795 2796 834 0
49 -846 2807 0
49 -2807 846 0
49 -2798 2797 0
49 -2799 2798 0
49 -2800 2799 0
49 -2801 2800 0
49 -2802 2801 0
49 -2803 2802 0
49 -2804 2803 0
49 -2805 2804 0
49 -2806 2805 0
49 -2807 2806 0
49 2797 0
49 -836 2797 0
49 -836 -2798 0
49 -2797 2798 836 0
49 -837 2798 0
49 -837 -2799 0
49 -2798 2799 837 0
49 -838 2799 0
49 -838 -2800 0
49 -2799 2800 838 0
49 -839 2800 0
49 -839 -2801 0
49 -2800 2801 839 0
49 -840 2801 0
49 -840 -2802 0
49 -2801 2802 840 0
49 -841 2802 0
49 -841 -2803 0
49 -2802 2803 841 0
49 -842 2803 0
49 -842 -2804 0
49 -2803 2804 842 0
49 -843 2804 0
49 -843 -2805 0
49 -2804 2805 843 0
49 -844 2805 0
49 -844 -2806 0
49 -2805 2806 844 0
49 -845 2806 0
49 -845 -2807 0
49 -2806 2807 845 0
49 -847 2808 0
49 -2808 847 0
49 2808 0
49 -848 2809 0
49 -2809 848 0
49 2809 0
49 -849 2810 0
49 -2810 849 0
49 2810 0
49 -850 2811 0
49 -2811 850 0
49 2811 0
49 -853 2814 0
49 -2814 853 0
49 -2813 2812 0
49 -2814 2813 0
49 2812 0
49 -851 2812 0
49 -851 -2813 0
49 -2812 2813 851 0
49 -852 2813 0
49 -852 -2814 0
49 -2813 2814 852 0
49 -856 2817 0
49 -2817 856 0
49 -2816 2815 0
49 -2817 2816 0
49 2815 0
49 -854 2815 0
49 -854 -2816 0
49 -2815 2816 854 0
49 -855 2816 0
49 -855 -2817 0
49 -2816 2817 855 0
49 -858 2819 0
49 -2819 858 0
49 -2819 2818 0
49 2818 0
49 -857 2818 0
49 -857 -2819 0
49 -2818 2819 857 0
49 -860 2821 0
49 -2821 860 0
49 -2821 2820 0
49 2820 0
49 -859 2820 0
49 -859 -2821 0
49 -2820 2821 859 0
49 -861 2822 0
49 -2822 861 0
49 2822 0
49 -862 2823 0
49 -2823 862 0
49 2823 0
49 -863 2824 0
49 -2824 863 0
49 2824 0
49 -864 2825 0
49 -2825 864 0
49 2825 0
49 -865 2826 0
49 -2826 865 0
49 2826 0
49 -866 2827 0
49 -2827 866 0
49 2827 0
49 -867 2828 0
49 -2828 867 0
49 2828 0
49 -868 2829 0
49 -2829 868 0
49 2829 0
49 -870 2831 0
49 -2831 870 0
49 -2831 2830 0
49 2830 0
49 -869 2830 0
49 -869 -2831 0
49 -2830 2831 869 0
49 -872 2833 0
49 -2833 872 0
49 -2833 2832 0
49 2832 0
49 -871 2832 0
49 -871 -2833 0
49 -2832 2833 871 0
49 -879 2840 0
49 -2840 879 0
49 -2835 2834 0
49 -2836 2835 0
49 -2837 2836 0
49 -2838 2837 0
49 -2839 2838 0
49 -2840 2839 0
49 2834 0
49 -873 2834 0
49 -873 -2835 0
49 -2834 2835 873 0
49 -874 2835 0
49 -874 -2836 0
49 -2835 2836 874 0
49 -875 2836 0
49 -875 -2837 0
49 -2836 2837 875 0
49 -876 2837 0
49 -876 -2838 0
49 -2837 2838 876 0
49 -877 2838 0
49 -877 -2839 0
49 -2838 2839 877 0
49 -878 2839 0
49 -878 -2840 0
49 -2839 2840 878 0
49 -886 2847 0
49 -2847 886 0
49 -2842 2841 0
49 -2843 2842 0
49 -2844 2843 0
49 -2845 2844 0
49 -2846 2845 0
49 -2847 2846 0
49 2841 0
49 -880 2841 0
49 -880 -2842 0
49 -2841 2842 880 0
49 -881 2842 0
49 -881 -2843 0
49 -2842 2843 881 0
49 -882 2843 0
49 -882 -2844 0
49 -2843 2844 882 0
49 -883 2844 0
49 -883 -2845 0
49 -2844 2845 883 0
49 -884 2845 0
49 -884 -2846 0
49 -2845 2846 884 0
49 -885 2846 0
49 -885 -2847 0
49 -2846 2847 885 0
49 -888 2849 0
49 -2849 888 0
49 -2849 2848 0
49 2848 0
49 -887 2848 0
49 -887 -2849 0
49 -2848 2849 887 0
49 -890 2851 0
49 -2851 890 0
49 -2851 2850 0
49 2850 0
49 -889 2850 0
49 -889 -2851 0
49 -2850 2851 889 0
49 -891 2852 0
49 -2852 891 0
49 2852 0
49 -892 2853 0
49 -2853 892 0
49 2853 0
49 -894 2855 0
49 -2855 894 0
49 -2855 2854 0
49 2854 0
49 -893 2854 0
49 -893 -2855 0
49 -2854 2855 893 0
49 -896 2857 0
49 -2857 896 0
49 -2857 2856 0
49 2856 0
49 -895 2856 0
49 -895 -2857 0
49 -2856 2857 895 0
49 -897 2858 0
49 -2858 897 0
49 2858 0
49 -898 2859 0
49 -2859 898 0
49 2859 0
49 -899 2860 0
49 -2860 899 0
49 2860 0
49 -900 2861 0
49 -2861 900 0
49 2861 0
49 -901 2862 0
49 -2862 901 0
49 2862 0
49 -902 2863 0
49 -2863 902 0
49 2863 0
49 -906 2867 0
49 -2867 906 0
49 -2865 2864 0
49 -2866 2865 0
49 -2867 2866 0
49 2864 0
49 -903 2864 0
49 -903 -2865 0
49 -2864 2865 903 0
49 -904 2865 0
49 -904 -2866 0
49 -2865 2866 904 0
49 -905 2866 0
49 -905 -2867 0
49 -2866 2867 905 0
49 -910 2871 0
49 -2871 910 0
49 -2869 2868 0
49 -2870 2869 0
49 -2871 2870 0
49 2868 0
49 -907 2868 0
49 -907 -2869 0
49 -2868 2869 907 0
49 -908 2869 0
49 -908 -2870 0
49 -2869 2870 908 0
49 -909 2870 0
49 -909 -2871 0
49 -2870 2871 909 0
49 -911 2872 0
49 -2872 911 0
49 2872 0
49 -912 2873 0
49 -2873 912 0
49 2873 0
49 -913 2874 0
49 -2874 913 0
49 2874 0
49 -914 2875 0
49 -2875 914 0
49 2875 0
49 -915 2876 0
49 -2876 915 0
49 2876 0
49 -916 2877 0
49 -2877 916 0
49 2877 0
49 -918 2879 0
49 -2879 918 0
49 -2879 2878 0
49 2878 0
49 -917 2878 0
49 -917 -2879 0
49 -2878 2879 917 0
49 -920 2881 0
49 -2881 920 0
49 -2881 2880 0
49 2880 0
49 -919 2880 0
49 -919 -2881 0
49 -2880 2881 919 0
49 -921 2882 0
49 -2882 921 0
49 2882 0
49 -922 2883 0
49 -2883 922 0
49 2883 0
49 -923 2884 0
49 -2884 923 0
49 2884 0
49 -924 2885 0
49 -2885 924 0
49 2885 0
49 -925 2886 0
49 -2886 925 0
49 2886 0
49 -926 2887 0
49 -2887 926 0
49 2887 0
49 -930 2891 0
49 -2891 930 0
49 -2889 2888 0
49 -2890 2889 0
49 -2891 2890 0
49 2888 0
49 -927 2888 0
49 -927 -2889 0
49 -2888 2889 927 0
49 -928 2889 0
49 -928 -2890 0
49 -2889 2890 928 0
49 -929 2890 0
49 -929 -2891 0
49 -2890 2891 929 0
49 -934 2895 0
49 -2895 934 0
49 -2893 2892 0
49 -2894 2893 0
49 -2895 2894 0
49 2892 0
49 -931 2892 0
49 -931 -2893 0
49 -2892 2893 931 0
49 -932 2893 0
49 -932 -2894 0
49 -2893 2894 932 0
49 -933 2894 0
49 -933 -2895 0
49 -2894 2895 933 0
49 -935 2896 0
49 -2896 935 0
49 2896 0
49 -936 2897 0
49 -2897 936 0
49 2897 0
49 -937 2898 0
49 -2898 937 0
49 2898 0
49 -938 2899 0
49 -2899 938 0
49 2899 0
49 -946 2907 0
49 -2907 946 0
49 -2901 2900 0
49 -2902 2901 0
49 -2903 2902 0
49 -2904 2903 0
49 -2905 2904 0
49 -2906 2905 0
49 -2907 2906 0
49 2900 0
49 -939 2900 0
49 -939 -2901 0
49 -2900 2901 939 0
49 -940 2901 0
49 -940 -2902 0
49 -2901 2902 940 0
49 -941 2902 0
49 -941 -2903 0
49 -2902 2903 941 0
49 -942 2903 0
49 -942 -2904 0
49 -2903 2904 942 0
49 -943 2904 0
49 -943 -2905 0
49 -2904 2905 943 0
49 -944 2905 0
49 -944 -2906 0
49 -2905 2906 944 0
49 -945 2906 0
49 -945 -2907 0
49 -2906 2907 945 0
49 -954 2915 0
49 -2915 954 0
49 -2909 2908 0
49 -2910 2909 0
49 -2911 2910 0
49 -2912 2911 0
49 -2913 2912 0
49 -2914 2913 0
49 -2915 2914 0
49 2908 0
49 -947 2908 0
49 -947 -2909 0
49 -2908 2909 947 0
49 -948 2909 0
49 -948 -2910 0
49 -2909 2910 948 0
49 -949 2910 0
49 -949 -2911 0
49 -2910 2911 949 0
49 -950 2911 0
49 -950 -2912 0
49 -2911 2912 950 0
49 -951 2912 0
49 -951 -2913 0
49 -2912 2913 951 0
49 -952 2913 0
49 -952 -2914 0
49 -2913 2914 952 0
49 -953 2914 0
49 -953 -2915 0
49 -2914 2915 953 0
49 -958 2919 0
49 -2919 958 0
49 -2917 2916 0
49 -2918 2917 0
49 -2919 2918 0
49 2916 0
49 -955 2916 0
49 -955 -2917 0
49 -2916 2917 955 0
49 -956 2917 0
49 -956 -2918 0
49 -2917 2918 956 0
49 -957 2918 0
49 -957 -2919 0
49 -2918 2919 957 0
49 -962 2923 0
49 -2923 962 0
49 -2921 2920 0
49 -2922 2921 0
49 -2923 2922 0
49 2920 0
49 -959 2920 0
49 -959 -2921 0
49 -2920 2921 959 0
49 -960 2921 0
49 -960 -2922 0
49 -2921 2922 960 0
49 -961 2922 0
49 -961 -2923 0
49 -2922 2923 961 0
49 -965 2926 0
49 -2926 965 0
49 -2925 2924 0
49 -2926 2925 0
49 2924 0
49 -963 2924 0
49 -963 -2925 0
49 -2924 2925 963 0
49 -964 2925 0
49 -964 -2926 0
49 -2925 2926 964 0
49 -968 2929 0
49 -2929 968 0
49 -2928 2927 0
49 -2929 2928 0
49 2927 0
49 -966 2927 0
49 -966 -2928 0
49 -2927 2928 966 0
49 -967 2928 0
49 -967 -2929 0
49 -2928 2929 967 0
49 -1001 2962 0
49 -2962 1001 0
49 -2931 2930 0
49 -2932 2931 0
49 -2933 2932 0
49 -2934 2933 0
49 -2935 2934 0
49 -2936 2935 0
49 -2937 2936 0
49 -2938 2937 0
49 -2939 2938 0
49 -2940 2939 0
49 -2941 2940 0
49 -2942 2941 0
49 -2943 2942 0
49 -2944 2943 0
49 -2945 2944 0
49 -2946 2945 0
49 -2947 2946 0
49 -2948 2947 0
49 -2949 2948 0
49 -2950 2949 0
49 -2951 2950 0
49 -2952 2951 0
49 -2953 2952 0
49 -2954 2953 0
49 -2955 2954 0
49 -2956 2955 0
49 -2957 2956 0
49 -2958 2957 0
49 -2959 2958 0
49 -2960 2959 0
49 -2961 2960 0
49 -2962 2961 0
49 2930 0
49 -969 2930 0
49 -969 -2931 0
49 -2930 2931 969 0
49 -970 2931 0
49 -970 -2932 0
49 -2931 2932 970 0
49 -971 2932 0
49 -971 -2933 0
49 -2932 2933 971 0
49 -972 2933 0
49 -972 -2934 0
49 -2933 2934 972 0
49 -973 2934 0
49 -973 -2935 0
49 -2934 2935 973 0
49 -974 2935 0
49 -974 -2936 0
49 -2935 2936 974 0
49 -975 2936 0
49 -975 -2937 0
49 -2936 2937 975 0
49 -976 2937 0
49 -976 -2938 0
49 -2937 2938 976 0
49 -977 2938 0
49 -977 -2939 0
49 -2938 2939 977 0
49 -978 2939 0
49 -978 -2940 0
49 -2939 2940 978 0
49 -979 2940 0
49 -979 -2941 0
49 -2940 2941 979 0
49 -980 2941 0
49 -980 -2942 0
49 -2941 2942 980 0
49 -981 2942 0
49 -981 -2943 0
49 -2942 2943 981 0
49 -982 2943 0
49 -982 -2944 0
49 -2943 2944 982 0
49 -983 2944 0
49 -983 -2945 0
49 -2944 2945 983 0
49 -984 2945 0
49 -984 -2946 0
49 -2945 2946 984 0
49 -985 2946 0
49 -985 -2947 0
49 -2946 2947 985 0
49 -986 2947 0
49 -986 -2948 0
49 -2947 2948 986 0
49 -987 2948 0
49 -987 -2949 0
49 -2948 2949 987 0
49 -988 2949 0
49 -988 -2950 0
49 -2949 2950 988 0
49 -989 2950 0
49 -989 -2951 0
49 -2950 2951 989 0
49 -990 2951 0
49 -990 -2952 0
49 -2951 2952 990 0
49 -991 2952 0
49 -991 -2953 0
49 -2952 2953 991 0
49 -992 2953 0
49 -992 -2954 0
49 -2953 2954 992 0
49 -993 2954 0
49 -993 -2955 0
49 -2954 2955 993 0
49 -994 2955 0
49 -994 -2956 0
49 -2955 2956 994 0
49 -995 2956 0
49 -995 -2957 0
49 -2956 2957 995 0
49 -996 2957 0
49 -996 -2958 0
49 -2957 2958 996 0
49 -997 2958 0
49 -997 -2959 0
49 -2958 2959 997 0
49 -998 2959 0
49 -998 -2960 0
49 -2959 2960 998 0
49 -999 2960 0
49 -999 -2961 0
49 -2960 2961 999 0
49 -1000 2961 0
49 -1000 -2962 0
49 -2961 2962 1000 0
49 -1034 2995 0
49 -2995 1034 0
49 -2964 2963 0
49 -2965 2964 0
49 -2966 2965 0
49 -2967 2966 0
49 -2968 2967 0
49 -2969 2968 0
49 -2970 2969 0
49 -2971 2970 0
49 -2972 2971 0
49 -2973 2972 0
49 -2974 2973 0
49 -2975 2974 0
49 -2976 2975 0
49 -2977 2976 0
49 -2978 2977 0
49 -2979 2978 0
49 -2980 2979 0
49 -2981 2980 0
49 -2982 2981 0
49 -2983 2982 0
49 -2984 2983 0
49 -2985 2984 0
49 -2986 2985 0
49 -2987 2986 0
49 -2988 2987 0
49 -2989 2988 0
49 -2990 2989 0
49 -2991 2990 0
49 -2992 2991 0
49 -2993 2992 0
49 -2994 2993 0
49 -2995 2994 0
49 2963 0
49 -1002 2963 0
49 -1002 -2964 0
49 -2963 2964 1002 0
49 -1003 2964 0
49 -1003 -2965 0
49 -2964 2965 1003 0
49 -1004 2965 0
49 -1004 -2966 0
49 -2965 2966 1004 0
49 -1005 2966 0
49 -1005 -2967 0
49 -2966 2967 1005 0
49 -1006 2967 0
49 -1006 -2968 0
49 -2967 2968 1006 0
49 -1007 2968 0
49 -1007 -2969 0
49 -2968 2969 1007 0
49 -1008 2969 0
49 -1008 -2970 0
49 -2969 2970 1008 0
49 -1009 2970 0
49 -1009 -2971 0
49 -2970 2971 1009 0
49 -1010 2971 0
49 -1010 -2972 0
49 -2971 2972 1010 0
49 -1011 2972 0
49 -1011 -2973 0
49 -2972 2973 1011 0
49 -1012 2973 0
49 -1012 -2974 0
49 -2973 2974 1012 0
49 -1013 2974 0
49 -1013 -2975 0
49 -2974 2975 1013 0
49 -1014 2975 0
49 -1014 -2976 0
49 -2975 2976 1014 0
49 -1015 2976 0
49 -1015 -2977 0
49 -2976 2977 1015 0
49 -1016 2977 0
49 -1016 -2978 0
49 -2977 2978 1016 0
49 -1017 2978 0
49 -1017 -2979 0
49 -2978 2979 1017 0
49 -1018 2979 0
49 -1018 -2980 0
49 -2979 2980 1018 0
49 -1019 2980 0
49 -1019 -2981 0
49 -2980 2981 1019 0
49 -1020 2981 0
49 -1020 -2982 0
49 -2981 2982 1020 0
49 -1021 2982 0
49 -1021 -2983 0
49 -2982 2983 1021 0
49 -1022 2983 0
49 -1022 -2984 0
49 -2983 2984 1022 0
49 -1023 2984 0
49 -1023 -2985 0
49 -2984 2985 1023 0
49 -1024 2985 0
49 -1024 -2986 0
49 -2985 2986 1024 0
49 -1025 2986 0
49 -1025 -2987 0
49 -2986 2987 1025 0
49 -1026 2987 0
49 -1026 -2988 0
49 -2987 2988 1026 0
49 -1027 2988 0
49 -1027 -2989 0
49 -2988 2989 1027 0
49 -1028 2989 0
49 -1028 -2990 0
49 -2989 2990 1028 0
49 -1029 2990 0
49 -1029 -2991 0
49 -2990 2991 1029 0
49 -1030 2991 0
49 -1030 -2992 0
49 -2991 2992 1030 0
49 -1031 2992 0
49 -1031 -2993 0
49 -2992 2993 1031 0
49 -1032 2993 0
49 -1032 -2994 0
49 -2993 2994 1032 0
49 -1033 2994 0
49 -1033 -2995 0
49 -2994 2995 1033 0
49 -1035 2996 0
49 -2996 1035 0
49 2996 0
49 -1036 2997 0
49 -2997 1036 0
49 2997 0
49 -1037 2998 0
49 -2998 1037 0
49 2998 0
49 -1038 2999 0
49 -2999 1038 0
49 2999 0
49 -1039 3000 0
49 -3000 1039 0
49 3000 0
49 -1040 3001 0
49 -3001 1040 0
49 3001 0
49 -1042 3003 0
49 -3003 1042 0
49 -3003 3002 0
49 3002 0
49 -1041 3002 0
49 -1041 -3003 0
49 -3002 3003 1041 0
49 -1044 3005 0
49 -3005 1044 0
49 -3005 3004 0
49 3004 0
49 -1043 3004 0
49 -1043 -3005 0
49 -3004 3005 1043 0
49 -1052 3013 0
49 -3013 1052 0
49 -3007 3006 0
49 -3008 3007 0
49 -3009 3008 0
49 -3010 3009 0
49 -3011 3010 0
49 -3012 3011 0
49 -3013 3012 0
49 3006 0
49 -1045 3006 0
49 -1045 -3007 0
49 -3006 3007 1045 0
49 -1046 3007 0
49 -1046 -3008 0
49 -3007 3008 1046 0
49 -1047 3008 0
49 -1047 -3009 0
49 -3008 3009 1047 0
49 -1048 3009 0
49 -1048 -3010 0
49 -3009 3010 1048 0
49 -1049 3010 0
49 -1049 -3011 0
49 -3010 3011 1049 0
49 -1050 3011 0
49 -1050 -3012 0
49 -3011 3012 1050 0
49 -1051 3012 0
49 -1051 -3013 0
49 -3012 3013 1051 0
49 -1060 3021 0
49 -3021 1060 0
49 -3015 3014 0
49 -3016 3015 0
49 -3017 3016 0
49 -3018 3017 0
49 -3019 3018 0
49 -3020 3019 0
49 -3021 3020 0
49 3014 0
49 -1053 3014 0
49 -1053 -3015 0
49 -3014 3015 1053 0
49 -1054 3015 0
49 -1054 -3016 0
49 -3015 3016 1054 0
49 -1055 3016 0
49 -1055 -3017 0
49 -3016 3017 1055 0
49 -1056 3017 0
49 -1056 -3018 0
49 -3017 3018 1056 0
49 -1057 3018 0
49 -1057 -3019 0
49 -3018 3019 1057 0
49 -1058 3019 0
49 -1058 -3020 0
49 -3019 3020 1058 0
49 -1059 3020 0
49 -1059 -3021 0
49 -3020 3021 1059 0
49 -1061 3022 0
49 -3022 1061 0
49 3022 0
49 -1062 3023 0
49 -3023 1062 0
49 3023 0
49 -1080 3041 0
49 -3041 1080 0
49 -3025 3024 0
49 -3026 3025 0
49 -3027 3026 0
49 -3028 3027 0
49 -3029 3028 0
49 -3030 3029 0
49 -3031 3030 0
49 -3032 3031 0
49 -3033 3032 0
49 -3034 3033 0
49 -3035 3034 0
49 -3036 3035 0
49 -3037 3036 0
49 -3038 3037 0
49 -3039 3038 0
49 -3040 3039 0
49 -3041 3040 0
49 3024 0
49 -1063 3024 0
49 -1063 -3025 0
49 -3024 3025 1063 0
49 -1064 3025 0
49 -1064 -3026 0
49 -3025 3026 1064 0
49 -1065 3026 0
49 -1065 -3027 0
49 -3026 3027 1065 0
49 -1066 3027 0
49 -1066 -3028 0
49 -3027 3028 1066 0
49 -1067 3028 0
49 -1067 -3029 0
49 -3028 3029 1067 0
49 -1068 3029 0
49 -1068 -3030 0
49 -3029 3030 1068 0
49 -1069 3030 0
49 -1069 -3031 0
49 -3030 3031 1069 0
49 -1070 3031 0
49 -1070 -3032 0
49 -3031 3032 1070 0
49 -1071 3032 0
49 -1071 -3033 0
49 -3032 3033 1071 0
49 -1072 3033 0
49 -1072 -3034 0
49 -3033 3034 1072 0
49 -1073 3034 0
49 -1073 -3035 0
49 -3034 3035 1073 0
49 -1074 3035 0
49 -1074 -3036 0
49 -3035 3036 1074 0
49 -1075 3036 0
49 -1075 -3037 0
49 -3036 3037 1075 0
49 -1076 3037 0
49 -1076 -3038 0
49 -3037 3038 1076 0
49 -1077 3038 0
49 -1077 -3039 0
49 -3038 3039 1077 0
49 -1078 3039 0
49 -1078 -3040 0
49 -3039 3040 1078 0
49 -1079 3040 0
49 -1079 -3041 0
49 -3040 3041 1079 0
49 -1098 3059 0
49 -3059 1098 0
49 -3043 3042 0
49 -3044 3043 0
49 -3045 3044 0
49 -3046 3045 0
49 -3047 3046 0
49 -3048 3047 0
49 -3049 3048 0
49 -3050 3049 0
49 -3051 3050 0
49 -3052 3051 0
49 -3053 3052 0
49 -3054 3053 0
49 -3055 3054 0
49 -3056 3055 0
49 -3057 3056 0
49 -3058 3057 0
49 -3059 3058 0
49 3042 0
49 -1081 3042 0
49 -1081 -3043 0
49 -3042 3043 1081 0
49 -1082 3043 0
49 -1082 -3044 0
49 -3043 3044 1082 0
49 -1083 3044 0
49 -1083 -3045 0
49 -3044 3045 1083 0
49 -1084 3045 0
49 -1084 -3046 0
49 -3045 3046 1084 0
49 -1085 3046 0
49 -1085 -3047 0
49 -3046 3047 1085 0
49 -1086 3047 0
49 -1086 -3048 0
49 -3047 3048 1086 0
49 -1087 3048 0
49 -1087 -3049 0
49 -3048 3049 1087 0
49 -1088 3049 0
49 -1088 -3050 0
49 -3049 3050 1088 0
49 -1089 3050 0
49 -1089 -3051 0
49 -3050 3051 1089 0
49 -1090 3051 0
49 -1090 -3052 0
49 -3051 3052 1090 0
49 -1091 3052 0
49 -1091 -3053 0
49 -3052 3053 1091 0
49 -1092 3053 0
49 -1092 -3054 0
49 -3053 3054 1092 0
49 -1093 3054 0
49 -1093 -3055 0
49 -3054 3055 1093 0
49 -1094 3055 0
49 -1094 -3056 0
49 -3055 3056 1094 0
49 -1095 3056 0
49 -1095 -3057 0
49 -3056 3057 1095 0
49 -1096 3057 0
49 -1096 -3058 0
49 -3057 3058 1096 0
49 -1097 3058 0
49 -1097 -3059 0
49 -3058 3059 1097 0
49 -1124 3085 0
49 -3085 1124 0
49 -3061 3060 0
49 -3062 3061 0
49 -3063 3062 0
49 -3064 3063 0
49 -3065 3064 0
49 -3066 3065 0
49 -3067 3066 0
49 -3068 3067 0
49 -3069 3068 0
49 -3070 3069 0
49 -3071 3070 0
49 -3072 3071 0
49 -3073 3072 0
49 -3074 3073 0
49 -3075 3074 0
49 -3076 3075 0
49 -3077 3076 0
49 -3078 3077 0
49 -3079 3078 0
49 -3080 3079 0
49 -3081 3080 0
49 -3082 3081 0
49 -3083 3082 0
49 -3084 3083 0
49 -3085 3084 0
49 3060 0
49 -1099 3060 0
49 -1099 -3061 0
49 -3060 3061 1099 0
49 -1100 3061 0
49 -1100 -3062 0
49 -3061 3062 1100 0
49 -1101 3062 0
49 -1101 -3063 0
49 -3062 3063 1101 0
49 -1102 3063 0
49 -1102 -3064 0
49 -3063 3064 1102 0
49 -1103 3064 0
49 -1103 -3065 0
49 -3064 3065 1103 0
49 -1104 3065 0
49 -1104 -3066 0
49 -3065 3066 1104 0
49 -1105 3066 0
49 -1105 -3067 0
49 -3066 3067 1105 0
49 -1106 3067 0
49 -1106 -3068 0
49 -3067 3068 1106 0
49 -1107 3068 0
49 -1107 -3069 0
49 -3068 3069 1107 0
49 -1108 3069 0
49 -1108 -3070 0
49 -3069 3070 1108 0
49 -1109 3070 0
49 -1109 -3071 0
49 -3070 3071 1109 0
49 -1110 3071 0
49 -1110 -3072 0
49 -3071 3072 1110 0
49 -1111 3072 0
49 -1111 -3073 0
49 -3072 3073 1111 0
49 -1112 3073 0
49 -1112 -3074 0
49 -3073 3074 1112 0
49 -1113 3074 0
49 -1113 -3075 0
49 -3074 3075 1113 0
49 -1114 3075 0
49 -1114 -3076 0
49 -3075 3076 1114 0
49 -1115 3076 0
49 -1115 -3077 0
49 -3076 3077 1115 0
49 -1116 3077 0
49 -1116 -3078 0
49 -3077 3078 1116 0
49 -1117 3078 0
49 -1117 -3079 0
49 -3078 3079 1117 0
49 -1118 3079 0
49 -1118 -3080 0
49 -3079 3080 1118 0
49 -1119 3080 0
49 -1119 -3081 0
49 -3080 3081 1119 0
49 -1120 3081 0
49 -1120 -3082 0
49 -3081 3082 1120 0
49 -1121 3082 0
49 -1121 -3083 0
49 -3082 3083 1121 0
49 -1122 3083 0
49 -1122 -3084 0
49 -3083 3084 1122 0
49 -1123 3084 0
49 -1123 -3085 0
49 -3084 3085 1123 0
49 -1150 3111 0
49 -3111 1150 0
49 -3087 3086 0
49 -3088 3087 0
49 -3089 3088 0
49 -3090 3089 0
49 -3091 3090 0
49 -3092 3091 0
49 -3093 3092 0
49 -3094 3093 0
49 -3095 3094 0
49 -3096 3095 0
49 -3097 3096 0
49 -3098 3097 0
49 -3099 3098 0
49 -3100 3099 0
49 -3101 3100 0
49 -3102 3101 0
49 -3103 3102 0
49 -3104 3103 0
49 -3105 3104 0
49 -3106 3105 0
49 -3107 3106 0
49 -3108 3107 0
49 -3109 3108 0
49 -3110 3109 0
49 -3111 3110 0
49 3086 0
49 -1125 3086 0
49 -1125 -3087 0
49 -3086 3087 1125 0
49 -1126 3087 0
49 -1126 -3088 0
49 -3087 3088 1126 0
49 -1127 3088 0
49 -1127 -3089 0
49 -3088 3089 1127 0
49 -1128 3089 0
49 -1128 -3090 0
49 -3089 3090 1128 0
49 -1129 3090 0
49 -1129 -3091 0
49 -3090 3091 1129 0
49 -1130 3091 0
49 -1130 -3092 0
49 -3091 3092 1130 0
49 -1131 3092 0
49 -1131 -3093 0
49 -3092 3093 1131 0
49 -1132 3093 0
49 -1132 -3094 0
49 -3093 3094 1132 0
49 -1133 3094 0
49 -1133 -3095 0
49 -3094 3095 1133 0
49 -1134 3095 0
49 -1134 -3096 0
49 -3095 3096 1134 0
49 -1135 3096 0
49 -1135 -3097 0
49 -3096 3097 1135 0
49 -1136 3097 0
49 -1136 -3098 0
49 -3097 3098 1136 0
49 -1137 3098 0
49 -1137 -3099 0
49 -3098 3099 1137 0
49 -1138 3099 0
49 -1138 -3100 0
49 -3099 3100 1138 0
49 -1139 3100 0
49 -1139 -3101 0
49 -3100 3101 1139 0
49 -1140 3101 0
49 -1140 -3102 0
49 -3101 3102 1140 0
49 -1141 3102 0
49 -1141 -3103 0
49 -3102 3103 1141 0
49 -1142 3103 0
49 -1142 -3104 0
49 -3103 3104 1142 0
49 -1143 3104 0
49 -1143 -3105 0
49 -3104 3105 1143 0
49 -1144 3105 0
49 -1144 -3106 0
49 -3105 3106 1144 0
49 -1145 3106 0
49 -1145 -3107 0
49 -3106 3107 1145 0
49 -1146 3107 0
49 -1146 -3108 0
49 -3107 3108 1146 0
49 -1147 3108 0
49 -1147 -3109 0
49 -3108 3109 1147 0
49 -1148 3109 0
49 -1148 -3110 0
49 -3109 3110 1148 0
49 -1149 3110 0
49 -1149 -3111 0
49 -3110 3111 1149 0
49 -1169 3130 0
49 -3130 1169 0
49 -3113 3112 0
49 -3114 3113 0
49 -3115 3114 0
49 -3116 3115 0
49 -3117 3116 0
49 -3118 3117 0
49 -3119 3118 0
49 -3120 3119 0
49 -3121 3120 0
49 -3122 3121 0
49 -3123 3122 0
49 -3124 3123 0
49 -3125 3124 0
49 -3126 3125 0
49 -3127 3126 0
49 -3128 3127 0
49 -3129 3128 0
49 -3130 3129 0
49 3112 0
49 -1151 3112 0
49 -1151 -3113 0
49 -3112 3113 1151 0
49 -1152 3113 0
49 -1152 -3114 0
49 -3113 3114 1152 0
49 -1153 3114 0
49 -1153 -3115 0
49 -3114 3115 1153 0
49 -1154 3115 0
49 -1154 -3116 0
49 -3115 3116 1154 0
49 -1155 3116 0
49 -1155 -3117 0
49 -3116 3117 1155 0
49 -1156 3117 0
49 -1156 -3118 0
49 -3117 3118 1156 0
49 -1157 3118 0
49 -1157 -3119 0
49 -3118 3119 1157 0
49 -1158 3119 0
49 -1158 -3120 0
49 -3119 3120 1158 0
49 -1159 3120 0
49 -1159 -3121 0
49 -3120 3121 1159 0
49 -1160 3121 0
49 -1160 -3122 0
49 -3121 3122 1160 0
49 -1161 3122 0
49 -1161 -3123 0
49 -3122 3123 1161 0
49 -1162 3123 0
49 -1162 -3124 0
49 -3123 3124 1162 0
49 -1163 3124 0
49 -1163 -3125 0
49 -3124 3125 1163 0
49 -1164 3125 0
49 -1164 -3126 0
49 -3125 3126 1164 0
49 -1165 3126 0
49 -1165 -3127 0
49 -3126 3127 1165 0
49 -1166 3127 0
49 -1166 -3128 0
49 -3127 3128 1166 0
49 -1167 3128 0
49 -1167 -3129 0
49 -3128 3129 1167 0
49 -1168 3129 0
49 -1168 -3130 0
49 -3129 3130 1168 0
49 -1188 3149 0
49 -3149 1188 0
49 -3132 3131 0
49 -3133 3132 0
49 -3134 3133 0
49 -3135 3134 0
49 -3136 3135 0
49 -3137 3136 0
49 -3138 3137 0
49 -3139 3138 0
49 -3140 3139 0
49 -3141 3140 0
49 -3142 3141 0
49 -3143 3142 0
49 -3144 3143 0
49 -3145 3144 0
49 -3146 3145 0
49 -3147 3146 0
49 -3148 3147 0
49 -3149 3148 0
49 3131 0
49 -1170 3131 0
49 -1170 -3132 0
49 -3131 3132 1170 0
49 -1171 3132 0
49 -1171 -3133 0
49 -3132 3133 1171 0
49 -1172 3133 0
49 -1172 -3134 0
49 -3133 3134 1172 0
49 -1173 3134 0
49 -1173 -3135 0
49 -3134 3135 1173 0
49 -1174 3135 0
49 -1174 -3136 0
49 -3135 3136 1174 0
49 -1175 3136 0
49 -1175 -3137 0
49 -3136 3137 1175 0
49 -1176 3137 0
49 -1176 -3138 0
49 -3137 3138 1176 0
49 -1177 3138 0
49 -1177 -3139 0
49 -3138 3139 1177 0
49 -1178 3139 0
49 -1178 -3140 0
49 -3139 3140 1178 0
49 -1179 3140 0
49 -1179 -3141 0
49 -3140 3141 1179 0
49 -1180 3141 0
49 -1180 -3142 0
49 -3141 3142 1180 0
49 -1181 3142 0
49 -1181 -3143 0
49 -3142 3143 1181 0
49 -1182 3143 0
49 -1182 -3144 0
49 -3143 3144 1182 0
49 -1183 3144 0
49 -1183 -3145 0
49 -3144 3145 1183 0
49 -1184 3145 0
49 -1184 -3146 0
49 -3145 3146 1184 0
49 -1185 3146 0
49 -1185 -3147 0
49 -3146 3147 1185 0
49 -1186 3147 0
49 -1186 -3148 0
49 -3147 3148 1186 0
49 -1187 3148 0
49 -1187 -3149 0
49 -3148 3149 1187 0
49 -1189 3150 0
49 -3150 1189 0
49 3150 0
49 -1190 3151 0
49 -3151 1190 0
49 3151 0
49 -1198 3159 0
49 -3159 1198 0
49 -3153 3152 0
49 -3154 3153 0
49 -3155 3154 0
49 -3156 3155 0
49 -3157 3156 0
49 -3158 3157 0
49 -3159 3158 0
49 3152 0
49 -1191 3152 0
49 -1191 -3153 0
49 -3152 3153 1191 0
49 -1192 3153 0
49 -1192 -3154 0
49 -3153 3154 1192 0
49 -1193 3154 0
49 -1193 -3155 0
49 -3154 3155 1193 0
49 -1194 3155 0
49 -1194 -3156 0
49 -3155 3156 1194 0
49 -1195 3156 0
49 -1195 -3157 0
49 -3156 3157 1195 0
49 -1196 3157 0
49 -1196 -3158 0
49 -3157 3158 1196 0
49 -1197 3158 0
49 -1197 -3159 0
49 -3158 3159 1197 0
49 -1206 3167 0
49 -3167 1206 0
49 -3161 3160 0
49 -3162 3161 0
49 -3163 3162 0
49 -3164 3163 0
49 -3165 3164 0
49 -3166 3165 0
49 -3167 3166 0
49 3160 0
49 -1199 3160 0
49 -1199 -3161 0
49 -3160 3161 1199 0
49 -1200 3161 0
49 -1200 -3162 0
49 -3161 3162 1200 0
49 -1201 3162 0
49 -1201 -3163 0
49 -3162 3163 1201 0
49 -1202 3163 0
49 -1202 -3164 0
49 -3163 3164 1202 0
49 -1203 3164 0
49 -1203 -3165 0
49 -3164 3165 1203 0
49 -1204 3165 0
49 -1204 -3166 0
49 -3165 3166 1204 0
49 -1205 3166 0
49 -1205 -3167 0
49 -3166 3167 1205 0
49 -1218 3179 0
49 -3179 1218 0
49 -3169 3168 0
49 -3170 3169 0
49 -3171 3170 0
49 -3172 3171 0
49 -3173 3172 0
49 -3174 3173 0
49 -3175 3174 0
49 -3176 3175 0
49 -3177 3176 0
49 -3178 3177 0
49 -3179 3178 0
49 3168 0
49 -1207 3168 0
49 -1207 -3169 0
49 -3168 3169 1207 0
49 -1208 3169 0
49 -1208 -3170 0
49 -3169 3170 1208 0
49 -1209 3170 0
49 -1209 -3171 0
49 -3170 3171 1209 0
49 -1210 3171 0
49 -1210 -3172 0
49 -3171 3172 1210 0
49 -1211 3172 0
49 -1211 -3173 0
49 -3172 3173 1211 0
49 -1212 3173 0
49 -1212 -3174 0
49 -3173 3174 1212 0
49 -1213 3174 0
49 -1213 -3175 0
49 -3174 3175 1213 0
49 -1214 3175 0
49 -1214 -3176 0
49 -3175 3176 1214 0
49 -1215 3176 0
49 -1215 -3177 0
49 -3176 3177 1215 0
49 -1216 3177 0
49 -1216 -3178 0
49 -3177 3178 1216 0
49 -1217 3178 0
49 -1217 -3179 0
49 -3178 3179 1217 0
49 -1230 3191 0
49 -3191 1230 0
49 -3181 3180 0
49 -3182 3181 0
49 -3183 3182 0
49 -3184 3183 0
49 -3185 3184 0
49 -3186 3185 0
49 -3187 3186 0
49 -3188 3187 0
49 -3189 3188 0
49 -3190 3189 0
49 -3191 3190 0
49 3180 0
49 -1219 3180 0
49 -1219 -3181 0
49 -3180 3181 1219 0
49 -1220 3181 0
49 -1220 -3182 0
49 -3181 3182 1220 0
49 -1221 3182 0
49 -1221 -3183 0
49 -3182 3183 1221 0
49 -1222 3183 0
49 -1222 -3184 0
49 -3183 3184 1222 0
49 -1223 3184 0
49 -1223 -3185 0
49 -3184 3185 1223 0
49 -1224 3185 0
49 -1224 -3186 0
49 -3185 3186 1224 0
49 -1225 3186 0
49 -1225 -3187 0
49 -3186 3187 1225 0
49 -1226 3187 0
49 -1226 -3188 0
49 -3187 3188 1226 0
49 -1227 3188 0
49 -1227 -3189 0
49 -3188 3189 1227 0
49 -1228 3189 0
49 -1228 -3190 0
49 -3189 3190 1228 0
49 -1229 3190 0
49 -1229 -3191 0
49 -3190 3191 1229 0
49 -1237 3198 0
49 -3198 1237 0
49 -3193 3192 0
49 -3194 3193 0
49 -3195 3194 0
49 -3196 3195 0
49 -3197 3196 0
49 -3198 3197 0
49 3192 0
49 -1231 3192 0
49 -1231 -3193 0
49 -3192 3193 1231 0
49 -1232 3193 0
49 -1232 -3194 0
49 -3193 3194 1232 0
49 -1233 3194 0
49 -1233 -3195 0
49 -3194 3195 1233 0
49 -1234 3195 0
49 -1234 -3196 0
49 -3195 3196 1234 0
49 -1235 3196 0
49 -1235 -3197 0
49 -3196 3197 1235 0
49 -1236 3197 0
49 -1236 -3198 0
49 -3197 3198 1236 0
49 -1244 3205 0
49 -3205 1244 0
49 -3200 3199 0
49 -3201 3200 0
49 -3202 3201 0
49 -3203 3202 0
49 -3204 3203 0
49 -3205 3204 0
49 3199 0
49 -1238 3199 0
49 -1238 -3200 0
49 -3199 3200 1238 0
49 -1239 3200 0
49 -1239 -3201 0
49 -3200 3201 1239 0
49 -1240 3201 0
49 -1240 -3202 0
49 -3201 3202 1240 0
49 -1241 3202 0
49 -1241 -3203 0
49 -3202 3203 1241 0
49 -1242 3203 0
49 -1242 -3204 0
49 -3203 3204 1242 0
49 -1243 3204 0
49 -1243 -3205 0
49 -3204 3205 1243 0
49 -1245 3206 0
49 -3206 1245 0
49 3206 0
49 -1246 3207 0
49 -3207 1246 0
49 3207 0
49 -1247 3208 0
49 -3208 1247 0
49 3208 0
49 -1248 3209 0
49 -3209 1248 0
49 3209 0
49 -1252 3213 0
49 -3213 1252 0
49 -3211 3210 0
49 -3212 3211 0
49 -3213 3212 0
49 3210 0
49 -1249 3210 0
49 -1249 -3211 0
49 -3210 3211 1249 0
49 -1250 3211 0
49 -1250 -3212 0
49 -3211 3212 1250 0
49 -1251 3212 0
49 -1251 -3213 0
49 -3212 3213 1251 0
49 -1256 3217 0
49 -3217 1256 0
49 -3215 3214 0
49 -3216 3215 0
49 -3217 3216 0
49 3214 0
49 -1253 3214 0
49 -1253 -3215 0
49 -3214 3215 1253 0
49 -1254 3215 0
49 -1254 -3216 0
49 -3215 3216 1254 0
49 -1255 3216 0
49 -1255 -3217 0
49 -3216 3217 1255 0
49 -1259 3220 0
49 -3220 1259 0
49 -3219 3218 0
49 -3220 3219 0
49 3218 0
49 -1257 3218 0
49 -1257 -3219 0
49 -3218 3219 1257 0
49 -1258 3219 0
49 -1258 -3220 0
49 -3219 3220 1258 0
49 -1262 3223 0
49 -3223 1262 0
49 -3222 3221 0
49 -3223 3222 0
49 3221 0
49 -1260 3221 0
49 -1260 -3222 0
49 -3221 3222 1260 0
49 -1261 3222 0
49 -1261 -3223 0
49 -3222 3223 1261 0
49 -1263 3224 0
49 -3224 1263 0
49 3224 0
49 -1264 3225 0
49 -3225 1264 0
49 3225 0
49 -1265 3226 0
49 -3226 1265 0
49 3226 0
49 -1266 3227 0
49 -3227 1266 0
49 3227 0
49 -1267 3228 0
49 -3228 1267 0
49 3228 0
49 -1268 3229 0
49 -3229 1268 0
49 3229 0
49 -1269 3230 0
49 -3230 1269 0
49 3230 0
49 -1270 3231 0
49 -3231 1270 0
49 3231 0
49 -1271 3232 0
49 -3232 1271 0
49 3232 0
49 -1272 3233 0
49 -3233 1272 0
49 3233 0
49 -1273 3234 0
49 -3234 1273 0
49 3234 0
49 -1274 3235 0
49 -3235 1274 0
49 3235 0
49 -1278 3239 0
49 -3239 1278 0
49 -3237 3236 0
49 -3238 3237 0
49 -3239 3238 0
49 3236 0
49 -1275 3236 0
49 -1275 -3237 0
49 -3236 3237 1275 0
49 -1276 3237 0
49 -1276 -3238 0
49 -3237 3238 1276 0
49 -1277 3238 0
49 -1277 -3239 0
49 -3238 3239 1277 0
49 -1282 3243 0
49 -3243 1282 0
49 -3241 3240 0
49 -3242 3241 0
49 -3243 3242 0
49 3240 0
49 -1279 3240 0
49 -1279 -3241 0
49 -3240 3241 1279 0
49 -1280 3241 0
49 -1280 -3242 0
49 -3241 3242 1280 0
49 -1281 3242 0
49 -1281 -3243 0
49 -3242 3243 1281 0
49 -1283 3244 0
49 -3244 1283 0
49 3244 0
49 -1284 3245 0
49 -3245 1284 0
49 3245 0
49 -1285 3246 0
49 -3246 1285 0
49 3246 0
49 -1286 3247 0
49 -3247 1286 0
49 3247 0
49 -1290 3251 0
49 -3251 1290 0
49 -3249 3248 0
49 -3250 3249 0
49 -3251 3250 0
49 3248 0
49 -1287 3248 0
49 -1287 -3249 0
49 -3248 3249 1287 0
49 -1288 3249 0
49 -1288 -3250 0
49 -3249 3250 1288 0
49 -1289 3250 0
49 -1289 -3251 0
49 -3250 3251 1289 0
49 -1294 3255 0
49 -3255 1294 0
49 -3253 3252 0
49 -3254 3253 0
49 -3255 3254 0
49 3252 0
49 -1291 3252 0
49 -1291 -3253 0
49 -3252 3253 1291 0
49 -1292 3253 0
49 -1292 -3254 0
49 -3253 3254 1292 0
49 -1293 3254 0
49 -1293 -3255 0
49 -3254 3255 1293 0
49 -1300 3261 0
49 -3261 1300 0
49 -3257 3256 0
49 -3258 3257 0
49 -3259 3258 0
49 -3260 3259 0
49 -3261 3260 0
49 3256 0
49 -1295 3256 0
49 -1295 -3257 0
49 -3256 3257 1295 0
49 -1296 3257 0
49 -1296 -3258 0
49 -3257 3258 1296 0
49 -1297 3258 0
49 -1297 -3259 0
49 -3258 3259 1297 0
49 -1298 3259 0
49 -1298 -3260 0
49 -3259 3260 1298 0
49 -1299 3260 0
49 -1299 -3261 0
49 -3260 3261 1299 0
49 -1306 3267 0
49 -3267 1306 0
49 -3263 3262 0
49 -3264 3263 0
49 -3265 3264 0
49 -3266 3265 0
49 -3267 3266 0
49 3262 0
49 -1301 3262 0
49 -1301 -3263 0
49 -3262 3263 1301 0
49 -1302 3263 0
49 -1302 -3264 0
49 -3263 3264 1302 0
49 -1303 3264 0
49 -1303 -3265 0
49 -3264 3265 1303 0
49 -1304 3265 0
49 -1304 -3266 0
49 -3265 3266 1304 0
49 -1305 3266 0
49 -1305 -3267 0
49 -3266 3267 1305 0
49 -1310 3271 0
49 -3271 1310 0
49 -3269 3268 0
49 -3270 3269 0
49 -3271 3270 0
49 3268 0
49 -1307 3268 0
49 -1307 -3269 0
49 -3268 3269 1307 0
49 -1308 3269 0
49 -1308 -3270 0
49 -3269 3270 1308 0
49 -1309 3270 0
49 -1309 -3271 0
49 -3270 3271 1309 0
49 -1314 3275 0
49 -3275 1314 0
49 -3273 3272 0
49 -3274 3273 0
49 -3275 3274 0
49 3272 0
49 -1311 3272 0
49 -1311 -3273 0
49 -3272 3273 1311 0
49 -1312 3273 0
49 -1312 -3274 0
49 -3273 3274 1312 0
49 -1313 3274 0
49 -1313 -3275 0
49 -3274 3275 1313 0
49 -1315 3276 0
49 -3276 1315 0
49 3276 0
49 -1316 3277 0
49 -3277 1316 0
49 3277 0
49 -1317 3278 0
49 -3278 1317 0
49 3278 0
49 -1318 3279 0
49 -3279 1318 0
49 3279 0
49 -1320 3281 0
49 -3281 1320 0
49 -3281 3280 0
49 3280 0
49 -1319 3280 0
49 -1319 -3281 0
49 -3280 3281 1319 0
49 -1322 3283 0
49 -3283 1322 0
49 -3283 3282 0
49 3282 0
49 -1321 3282 0
49 -1321 -3283 0
49 -3282 3283 1321 0
49 -1326 3287 0
49 -3287 1326 0
49 -3285 3284 0
49 -3286 3285 0
49 -3287 3286 0
49 3284 0
49 -1323 3284 0
49 -1323 -3285 0
49 -3284 3285 1323 0
49 -1324 3285 0
49 -1324 -3286 0
49 -3285 3286 1324 0
49 -1325 3286 0
49 -1325 -3287 0
49 -3286 3287 1325 0
49 -1330 3291 0
49 -3291 1330 0
49 -3289 3288 0
49 -3290 3289 0
49 -3291 3290 0
49 3288 0
49 -1327 3288 0
49 -1327 -3289 0
49 -3288 3289 1327 0
49 -1328 3289 0
49 -1328 -3290 0
49 -3289 3290 1328 0
49 -1329 3290 0
49 -1329 -3291 0
49 -3290 3291 1329 0
49 -1332 3293 0
49 -3293 1332 0
49 -3293 3292 0
49 3292 0
49 -1331 3292 0
49 -1331 -3293 0
49 -3292 3293 1331 0
49 -1334 3295 0
49 -3295 1334 0
49 -3295 3294 0
49 3294 0
49 -1333 3294 0
49 -1333 -3295 0
49 -3294 3295 1333 0
49 -1337 3298 0
49 -3298 1337 0
49 -3297 3296 0
49 -3298 3297 0
49 3296 0
49 -1335 3296 0
49 -1335 -3297 0
49 -3296 3297 1335 0
49 -1336 3297 0
49 -1336 -3298 0
49 -3297 3298 1336 0
49 -1340 3301 0
49 -3301 1340 0
49 -3300 3299 0
49 -3301 3300 0
49 3299 0
49 -1338 3299 0
49 -1338 -3300 0
49 -3299 3300 1338 0
49 -1339 3300 0
49 -1339 -3301 0
49 -3300 3301 1339 0
49 -1343 3304 0
49 -3304 1343 0
49 -3303 3302 0
49 -3304 3303 0
49 3302 0
49 -1341 3302 0
49 -1341 -3303 0
49 -3302 3303 1341 0
49 -1342 3303 0
49 -1342 -3304 0
49 -3303 3304 1342 0
49 -1346 3307 0
49 -3307 1346 0
49 -3306 3305 0
49 -3307 3306 0
49 3305 0
49 -1344 3305 0
49 -1344 -3306 0
49 -3305 3306 1344 0
49 -1345 3306 0
49 -1345 -3307 0
49 -3306 3307 1345 0
49 -1351 3312 0
49 -3312 1351 0
49 -3309 3308 0
49 -3310 3309 0
49 -3311 3310 0
49 -3312 3311 0
49 3308 0
49 -1347 3308 0
49 -1347 -3309 0
49 -3308 3309 1347 0
49 -1348 3309 0
49 -1348 -3310 0
49 -3309 3310 1348 0
49 -1349 3310 0
49 -1349 -3311 0
49 -3310 3311 1349 0
49 -1350 3311 0
49 -1350 -3312 0
49 -3311 3312 1350 0
49 -1356 3317 0
49 -3317 1356 0
49 -3314 3313 0
49 -3315 3314 0
49 -3316 3315 0
49 -3317 3316 0
49 3313 0
49 -1352 3313 0
49 -1352 -3314 0
49 -3313 3314 1352 0
49 -1353 3314 0
49 -1353 -3315 0
49 -3314 3315 1353 0
49 -1354 3315 0
49 -1354 -3316 0
49 -3315 3316 1354 0
49 -1355 3316 0
49 -1355 -3317 0
49 -3316 3317 1355 0
49 -1358 3319 0
49 -3319 1358 0
49 -3319 3318 0
49 3318 0
49 -1357 3318 0
49 -1357 -3319 0
49 -3318 3319 1357 0
49 -1360 3321 0
49 -3321 1360 0
49 -3321 3320 0
49 3320 0
49 -1359 3320 0
49 -1359 -3321 0
49 -3320 3321 1359 0
49 -1364 3325 0
49 -3325 1364 0
49 -3323 3322 0
49 -3324 3323 0
49 -3325 3324 0
49 3322 0
49 -1361 3322 0
49 -1361 -3323 0
49 -3322 3323 1361 0
49 -1362 3323 0
49 -1362 -3324 0
49 -3323 3324 1362 0
49 -1363 3324 0
49 -1363 -3325 0
49 -3324 3325 1363 0
49 -1368 3329 0
49 -3329 1368 0
49 -3327 3326 0
49 -3328 3327 0
49 -3329 3328 0
49 3326 0
49 -1365 3326 0
49 -1365 -3327 0
49 -3326 3327 1365 0
49 -1366 3327 0
49 -1366 -3328 0
49 -3327 3328 1366 0
49 -1367 3328 0
49 -1367 -3329 0
49 -3328 3329 1367 0
49 -1372 3333 0
49 -3333 1372 0
49 -3331 3330 0
49 -3332 3331 0
49 -3333 3332 0
49 3330 0
49 -1369 3330 0
49 -1369 -3331 0
49 -3330 3331 1369 0
49 -1370 3331 0
49 -1370 -3332 0
49 -3331 3332 1370 0
49 -1371 3332 0
49 -1371 -3333 0
49 -3332 3333 1371 0
49 -1376 3337 0
49 -3337 1376 0
49 -3335 3334 0
49 -3336 3335 0
49 -3337 3336 0
49 3334 0
49 -1373 3334 0
49 -1373 -3335 0
49 -3334 3335 1373 0
49 -1374 3335 0
49 -1374 -3336 0
49 -3335 3336 1374 0
49 -1375 3336 0
49 -1375 -3337 0
49 -3336 3337 1375 0
49 -1378 3339 0
49 -3339 1378 0
49 -3339 3338 0
49 3338 0
49 -1377 3338 0
49 -1377 -3339 0
49 -3338 3339 1377 0
49 -1380 3341 0
49 -3341 1380 0
49 -3341 3340 0
49 3340 0
49 -1379 3340 0
49 -1379 -3341 0
49 -3340 3341 1379 0
49 -1382 3343 0
49 -3343 1382 0
49 -3343 3342 0
49 3342 0
49 -1381 3342 0
49 -1381 -3343 0
49 -3342 3343 1381 0
49 -1384 3345 0
49 -3345 1384 0
49 -3345 3344 0
49 3344 0
49 -1383 3344 0
49 -1383 -3345 0
49 -3344 3345 1383 0
49 -1386 3347 0
49 -3347 1386 0
49 -3347 3346 0
49 3346 0
49 -1385 3346 0
49 -1385 -3347 0
49 -3346 3347 1385 0
49 -1388 3349 0
49 -3349 1388 0
49 -3349 3348 0
49 3348 0
49 -1387 3348 0
49 -1387 -3349 0
49 -3348 3349 1387 0
49 -1389 3350 0
49 -3350 1389 0
49 3350 0
49 -1390 3351 0
49 -3351 1390 0
49 3351 0
49 -1392 3353 0
49 -3353 1392 0
49 -3353 3352 0
49 3352 0
49 -1391 3352 0
49 -1391 -3353 0
49 -3352 3353 1391 0
49 -1394 3355 0
49 -3355 1394 0
49 -3355 3354 0
49 3354 0
49 -1393 3354 0
49 -1393 -3355 0
49 -3354 3355 1393 0
49 -1395 3356 0
49 -3356 1395 0
49 3356 0
49 -1396 3357 0
49 -3357 1396 0
49 3357 0
49 -1399 3360 0
49 -3360 1399 0
49 -3359 3358 0
49 -3360 3359 0
49 3358 0
49 -1397 3358 0
49 -1397 -3359 0
49 -3358 3359 1397 0
49 -1398 3359 0
49 -1398 -3360 0
49 -3359 3360 1398 0
49 -1402 3363 0
49 -3363 1402 0
49 -3362 3361 0
49 -3363 3362 0
49 3361 0
49 -1400 3361 0
49 -1400 -3362 0
49 -3361 3362 1400 0
49 -1401 3362 0
49 -1401 -3363 0
49 -3362 3363 1401 0
49 -1404 3365 0
49 -3365 1404 0
49 -3365 3364 0
49 3364 0
49 -1403 3364 0
49 -1403 -3365 0
49 -3364 3365 1403 0
49 -1406 3367 0
49 -3367 1406 0
49 -3367 3366 0
49 3366 0
49 -1405 3366 0
49 -1405 -3367 0
49 -3366 3367 1405 0
49 -1408 3369 0
49 -3369 1408 0
49 -3369 3368 0
49 3368 0
49 -1407 3368 0
49 -1407 -3369 0
49 -3368 3369 1407 0
49 -1410 3371 0
49 -3371 1410 0
49 -3371 3370 0
49 3370 0
49 -1409 3370 0
49 -1409 -3371 0
49 -3370 3371 1409 0
49 -1411 3372 0
49 -3372 1411 0
49 3372 0
49 -1412 3373 0
49 -3373 1412 0
49 3373 0
49 -1415 3376 0
49 -3376 1415 0
49 -3375 3374 0
49 -3376 3375 0
49 3374 0
49 -1413 3374 0
49 -1413 -3375 0
49 -3374 3375 1413 0
49 -1414 3375 0
49 -1414 -3376 0
49 -3375 3376 1414 0
49 -1418 3379 0
49 -3379 1418 0
49 -3378 3377 0
49 -3379 3378 0
49 3377 0
49 -1416 3377 0
49 -1416 -3378 0
49 -3377 3378 1416 0
49 -1417 3378 0
49 -1417 -3379 0
49 -3378 3379 1417 0
49 -1423 3384 0
49 -3384 1423 0
49 -3381 3380 0
49 -3382 3381 0
49 -3383 3382 0
49 -3384 3383 0
49 3380 0
49 -1419 3380 0
49 -1419 -3381 0
49 -3380 3381 1419 0
49 -1420 3381 0
49 -1420 -3382 0
49 -3381 3382 1420 0
49 -1421 3382 0
49 -1421 -3383 0
49 -3382 3383 1421 0
49 -1422 3383 0
49 -1422 -3384 0
49 -3383 3384 1422 0
49 -1428 3389 0
49 -3389 1428 0
49 -3386 3385 0
49 -3387 3386 0
49 -3388 3387 0
49 -3389 3388 0
49 3385 0
49 -1424 3385 0
49 -1424 -3386 0
49 -3385 3386 1424 0
49 -1425 3386 0
49 -1425 -3387 0
49 -3386 3387 1425 0
49 -1426 3387 0
49 -1426 -3388 0
49 -3387 3388 1426 0
49 -1427 3388 0
49 -1427 -3389 0
49 -3388 3389 1427 0
49 -1436 3397 0
49 -3397 1436 0
49 -3391 3390 0
49 -3392 3391 0
49 -3393 3392 0
49 -3394 3393 0
49 -3395 3394 0
49 -3396 3395 0
49 -3397 3396 0
49 3390 0
49 -1429 3390 0
49 -1429 -3391 0
49 -3390 3391 1429 0
49 -1430 3391 0
49 -1430 -3392 0
49 -3391 3392 1430 0
49 -1431 3392 0
49 -1431 -3393 0
49 -3392 3393 1431 0
49 -1432 3393 0
49 -1432 -3394 0
49 -3393 3394 1432 0
49 -1433 3394 0
49 -1433 -3395 0
49 -3394 3395 1433 0
49 -1434 3395 0
49 -1434 -3396 0
49 -3395 3396 1434 0
49 -1435 3396 0
49 -1435 -3397 0
49 -3396 3397 1435 0
49 -1444 3405 0
49 -3405 1444 0
49 -3399 3398 0
49 -3400 3399 0
49 -3401 3400 0
49 -3402 3401 0
49 -3403 3402 0
49 -3404 3403 0
49 -3405 3404 0
49 3398 0
49 -1437 3398 0
49 -1437 -3399 0
49 -3398 3399 1437 0
49 -1438 3399 0
49 -1438 -3400 0
49 -3399 3400 1438 0
49 -1439 3400 0
49 -1439 -3401 0
49 -3400 3401 1439 0
49 -1440 3401 0
49 -1440 -3402 0
49 -3401 3402 1440 0
49 -1441 3402 0
49 -1441 -3403 0
49 -3402 3403 1441 0
49 -1442 3403 0
49 -1442 -3404 0
49 -3403 3404 1442 0
49 -1443 3404 0
49 -1443 -3405 0
49 -3404 3405 1443 0
49 -1448 3409 0
49 -3409 1448 0
49 -3407 3406 0
49 -3408 3407 0
49 -3409 3408 0
49 3406 0
49 -1445 3406 0
49 -1445 -3407 0
49 -3406 3407 1445 0
49 -1446 3407 0
49 -1446 -3408 0
49 -3407 3408 1446 0
49 -1447 3408 0
49 -1447 -3409 0
49 -3408 3409 1447 0
49 -1452 3413 0
49 -3413 1452 0
49 -3411 3410 0
49 -3412 3411 0
49 -3413 3412 0
49 3410 0
49 -1449 3410 0
49 -1449 -3411 0
49 -3410 3411 1449 0
49 -1450 3411 0
49 -1450 -3412 0
49 -3411 3412 1450 0
49 -1451 3412 0
49 -1451 -3413 0
49 -3412 3413 1451 0
49 -1456 3417 0
49 -3417 1456 0
49 -3415 3414 0
49 -3416 3415 0
49 -3417 3416 0
49 3414 0
49 -1453 3414 0
49 -1453 -3415 0
49 -3414 3415 1453 0
49 -1454 3415 0
49 -1454 -3416 0
49 -3415 3416 1454 0
49 -1455 3416 0
49 -1455 -3417 0
49 -3416 3417 1455 0
49 -1460 3421 0
49 -3421 1460 0
49 -3419 3418 0
49 -3420 3419 0
49 -3421 3420 0
49 3418 0
49 -1457 3418 0
49 -1457 -3419 0
49 -3418 3419 1457 0
49 -1458 3419 0
49 -1458 -3420 0
49 -3419 3420 1458 0
49 -1459 3420 0
49 -1459 -3421 0
49 -3420 3421 1459 0
49 -1464 3425 0
49 -3425 1464 0
49 -3423 3422 0
49 -3424 3423 0
49 -3425 3424 0
49 3422 0
49 -1461 3422 0
49 -1461 -3423 0
49 -3422 3423 1461 0
49 -1462 3423 0
49 -1462 -3424 0
49 -3423 3424 1462 0
49 -1463 3424 0
49 -1463 -3425 0
49 -3424 3425 1463 0
49 -1468 3429 0
49 -3429 1468 0
49 -3427 3426 0
49 -3428 3427 0
49 -3429 3428 0
49 3426 0
49 -1465 3426 0
49 -1465 -3427 0
49 -3426 3427 1465 0
49 -1466 3427 0
49 -1466 -3428 0
49 -3427 3428 1466 0
49 -1467 3428 0
49 -1467 -3429 0
49 -3428 3429 1467 0
49 -1470 3431 0
49 -3431 1470 0
49 -3431 3430 0
49 3430 0
49 -1469 3430 0
49 -1469 -3431 0
49 -3430 3431 1469 0
49 -1472 3433 0
49 -3433 1472 0
49 -3433 3432 0
49 3432 0
49 -1471 3432 0
49 -1471 -3433 0
49 -3432 3433 1471 0
49 -1474 3435 0
49 -3435 1474 0
49 -3435 3434 0
49 3434 0
49 -1473 3434 0
49 -1473 -3435 0
49 -3434 3435 1473 0
49 -1476 3437 0
49 -3437 1476 0
49 -3437 3436 0
49 3436 0
49 -1475 3436 0
49 -1475 -3437 0
49 -3436 3437 1475 0
49 -1479 3440 0
49 -3440 1479 0
49 -3439 3438 0
49 -3440 3439 0
49 3438 0
49 -1477 3438 0
49 -1477 -3439 0
49 -3438 3439 1477 0
49 -1478 3439 0
49 -1478 -3440 0
49 -3439 3440 1478 0
49 -1482 3443 0
49 -3443 1482 0
49 -3442 3441 0
49 -3443 3442 0
49 3441 0
49 -1480 3441 0
49 -1480 -3442 0
49 -3441 3442 1480 0
49 -1481 3442 0
49 -1481 -3443 0
49 -3442 3443 1481 0
49 -1485 3446 0
49 -3446 1485 0
49 -3445 3444 0
49 -3446 3445 0
49 3444 0
49 -1483 3444 0
49 -1483 -3445 0
49 -3444 3445 1483 0
49 -1484 3445 0
49 -1484 -3446 0
49 -3445 3446 1484 0
49 -1488 3449 0
49 -3449 1488 0
49 -3448 3447 0
49 -3449 3448 0
49 3447 0
49 -1486 3447 0
49 -1486 -3448 0
49 -3447 3448 1486 0
49 -1487 3448 0
49 -1487 -3449 0
49 -3448 3449 1487 0
49 -1491 3452 0
49 -3452 1491 0
49 -3451 3450 0
49 -3452 3451 0
49 3450 0
49 -1489 3450 0
49 -1489 -3451 0
49 -3450 3451 1489 0
49 -1490 3451 0
49 -1490 -3452 0
49 -3451 3452 1490 0
49 -1494 3455 0
49 -3455 1494 0
49 -3454 3453 0
49 -3455 3454 0
49 3453 0
49 -1492 3453 0
49 -1492 -3454 0
49 -3453 3454 1492 0
49 -1493 3454 0
49 -1493 -3455 0
49 -3454 3455 1493 0
49 -1497 3458 0
49 -3458 1497 0
49 -3457 3456 0
49 -3458 3457 0
49 3456 0
49 -1495 3456 0
49 -1495 -3457 0
49 -3456 3457 1495 0
49 -1496 3457 0
49 -1496 -3458 0
49 -3457 3458 1496 0
49 -1500 3461 0
49 -3461 1500 0
49 -3460 3459 0
49 -3461 3460 0
49 3459 0
49 -1498 3459 0
49 -1498 -3460 0
49 -3459 3460 1498 0
49 -1499 3460 0
49 -1499 -3461 0
49 -3460 3461 1499 0
49 -1506 3467 0
49 -3467 1506 0
49 -3463 3462 0
49 -3464 3463 0
49 -3465 3464 0
49 -3466 3465 0
49 -3467 3466 0
49 3462 0
49 -1501 3462 0
49 -1501 -3463 0
49 -3462 3463 1501 0
49 -1502 3463 0
49 -1502 -3464 0
49 -3463 3464 1502 0
49 -1503 3464 0
49 -1503 -3465 0
49 -3464 3465 1503 0
49 -1504 3465 0
49 -1504 -3466 0
49 -3465 3466 1504 0
49 -1505 3466 0
49 -1505 -3467 0
49 -3466 3467 1505 0
49 -1512 3473 0
49 -3473 1512 0
49 -3469 3468 0
49 -3470 3469 0
49 -3471 3470 0
49 -3472 3471 0
49 -3473 3472 0
49 3468 0
49 -1507 3468 0
49 -1507 -3469 0
49 -3468 3469 1507 0
49 -1508 3469 0
49 -1508 -3470 0
49 -3469 3470 1508 0
49 -1509 3470 0
49 -1509 -3471 0
49 -3470 3471 1509 0
49 -1510 3471 0
49 -1510 -3472 0
49 -3471 3472 1510 0
49 -1511 3472 0
49 -1511 -3473 0
49 -3472 3473 1511 0
49 -1513 3474 0
49 -3474 1513 0
49 3474 0
49 -1514 3475 0
49 -3475 1514 0
49 3475 0
49 -1520 3481 0
49 -3481 1520 0
49 -3477 3476 0
49 -3478 3477 0
49 -3479 3478 0
49 -3480 3479 0
49 -3481 3480 0
49 3476 0
49 -1515 3476 0
49 -1515 -3477 0
49 -3476 3477 1515 0
49 -1516 3477 0
49 -1516 -3478 0
49 -3477 3478 1516 0
49 -1517 3478 0
49 -1517 -3479 0
49 -3478 3479 1517 0
49 -1518 3479 0
49 -1518 -3480 0
49 -3479 3480 1518 0
49 -1519 3480 0
49 -1519 -3481 0
49 -3480 3481 1519 0
49 -1526 3487 0
49 -3487 1526 0
49 -3483 3482 0
49 -3484 3483 0
49 -3485 3484 0
49 -3486 3485 0
49 -3487 3486 0
49 3482 0
49 -1521 3482 0
49 -1521 -3483 0
49 -3482 3483 1521 0
49 -1522 3483 0
49 -1522 -3484 0
49 -3483 3484 1522 0
49 -1523 3484 0
49 -1523 -3485 0
49 -3484 3485 1523 0
49 -1524 3485 0
49 -1524 -3486 0
49 -3485 3486 1524 0
49 -1525 3486 0
49 -1525 -3487 0
49 -3486 3487 1525 0
49 -1528 3489 0
49 -3489 1528 0
49 -3489 3488 0
49 3488 0
49 -1527 3488 0
49 -1527 -3489 0
49 -3488 3489 1527 0
49 -1530 3491 0
49 -3491 1530 0
49 -3491 3490 0
49 3490 0
49 -1529 3490 0
49 -1529 -3491 0
49 -3490 3491 1529 0
49 -1532 3493 0
49 -3493 1532 0
49 -3493 3492 0
49 3492 0
49 -1531 3492 0
49 -1531 -3493 0
49 -3492 3493 1531 0
49 -1534 3495 0
49 -3495 1534 0
49 -3495 3494 0
49 3494 0
49 -1533 3494 0
49 -1533 -3495 0
49 -3494 3495 1533 0
49 -1538 3499 0
49 -3499 1538 0
49 -3497 3496 0
49 -3498 3497 0
49 -3499 3498 0
49 3496 0
49 -1535 3496 0
49 -1535 -3497 0
49 -3496 3497 1535 0
49 -1536 3497 0
49 -1536 -3498 0
49 -3497 3498 1536 0
49 -1537 3498 0
49 -1537 -3499 0
49 -3498 3499 1537 0
49 -1542 3503 0
49 -3503 1542 0
49 -3501 3500 0
49 -3502 3501 0
49 -3503 3502 0
49 3500 0
49 -1539 3500 0
49 -1539 -3501 0
49 -3500 3501 1539 0
49 -1540 3501 0
49 -1540 -3502 0
49 -3501 3502 1540 0
49 -1541 3502 0
49 -1541 -3503 0
49 -3502 3503 1541 0
49 -1547 3508 0
49 -3508 1547 0
49 -3505 3504 0
49 -3506 3505 0
49 -3507 3506 0
49 -3508 3507 0
49 3504 0
49 -1543 3504 0
49 -1543 -3505 0
49 -3504 3505 1543 0
49 -1544 3505 0
49 -1544 -3506 0
49 -3505 3506 1544 0
49 -1545 3506 0
49 -1545 -3507 0
49 -3506 3507 1545 0
49 -1546 3507 0
49 -1546 -3508 0
49 -3507 3508 1546 0
49 -1552 3513 0
49 -3513 1552 0
49 -3510 3509 0
49 -3511 3510 0
49 -3512 3511 0
49 -3513 3512 0
49 3509 0
49 -1548 3509 0
49 -1548 -3510 0
49 -3509 3510 1548 0
49 -1549 3510 0
49 -1549 -3511 0
49 -3510 3511 1549 0
49 -1550 3511 0
49 -1550 -3512 0
49 -3511 3512 1550 0
49 -1551 3512 0
49 -1551 -3513 0
49 -3512 3513 1551 0
49 -1553 3514 0
49 -3514 1553 0
49 3514 0
49 -1554 3515 0
49 -3515 1554 0
49 3515 0
49 -1555 3516 0
49 -3516 1555 0
49 3516 0
49 -1556 3517 0
49 -3517 1556 0
49 3517 0
49 -1557 3518 0
49 -3518 1557 0
49 3518 0
49 -1558 3519 0
49 -3519 1558 0
49 3519 0
49 -1566 3527 0
49 -3527 1566 0
49 -3521 3520 0
49 -3522 3521 0
49 -3523 3522 0
49 -3524 3523 0
49 -3525 3524 0
49 -3526 3525 0
49 -3527 3526 0
49 3520 0
49 -1559 3520 0
49 -1559 -3521 0
49 -3520 3521 1559 0
49 -1560 3521 0
49 -1560 -3522 0
49 -3521 3522 1560 0
49 -1561 3522 0
49 -1561 -3523 0
49 -3522 3523 1561 0
49 -1562 3523 0
49 -1562 -3524 0
49 -3523 3524 1562 0
49 -1563 3524 0
49 -1563 -3525 0
49 -3524 3525 1563 0
49 -1564 3525 0
49 -1564 -3526 0
49 -3525 3526 1564 0
49 -1565 3526 0
49 -1565 -3527 0
49 -3526 3527 1565 0
49 -1574 3535 0
49 -3535 1574 0
49 -3529 3528 0
49 -3530 3529 0
49 -3531 3530 0
49 -3532 3531 0
49 -3533 3532 0
49 -3534 3533 0
49 -3535 3534 0
49 3528 0
49 -1567 3528 0
49 -1567 -3529 0
49 -3528 3529 1567 0
49 -1568 3529 0
49 -1568 -3530 0
49 -3529 3530 1568 0
49 -1569 3530 0
49 -1569 -3531 0
49 -3530 3531 1569 0
49 -1570 3531 0
49 -1570 -3532 0
49 -3531 3532 1570 0
49 -1571 3532 0
49 -1571 -3533 0
49 -3532 3533 1571 0
49 -1572 3533 0
49 -1572 -3534 0
49 -3533 3534 1572 0
49 -1573 3534 0
49 -1573 -3535 0
49 -3534 3535 1573 0
49 -1577 3538 0
49 -3538 1577 0
49 -3537 3536 0
49 -3538 3537 0
49 3536 0
49 -1575 3536 0
49 -1575 -3537 0
49 -3536 3537 1575 0
49 -1576 3537 0
49 -1576 -3538 0
49 -3537 3538 1576 0
49 -1580 3541 0
49 -3541 1580 0
49 -3540 3539 0
49 -3541 3540 0
49 3539 0
49 -1578 3539 0
49 -1578 -3540 0
49 -3539 3540 1578 0
49 -1579 3540 0
49 -1579 -3541 0
49 -3540 3541 1579 0
49 -1588 3549 0
49 -3549 1588 0
49 -3543 3542 0
49 -3544 3543 0
49 -3545 3544 0
49 -3546 3545 0
49 -3547 3546 0
49 -3548 3547 0
49 -3549 3548 0
49 3542 0
49 -1581 3542 0
49 -1581 -3543 0
49 -3542 3543 1581 0
49 -1582 3543 0
49 -1582 -3544 0
49 -3543 3544 1582 0
49 -1583 3544 0
49 -1583 -3545 0
49 -3544 3545 1583 0
49 -1584 3545 0
49 -1584 -3546 0
49 -3545 3546 1584 0
49 -1585 3546 0
49 -1585 -3547 0
49 -3546 3547 1585 0
49 -1586 3547 0
49 -1586 -3548 0
49 -3547 3548 1586 0
49 -1587 3548 0
49 -1587 -3549 0
49 -3548 3549 1587 0
49 -1596 3557 0
49 -3557 1596 0
49 -3551 3550 0
49 -3552 3551 0
49 -3553 3552 0
49 -3554 3553 0
49 -3555 3554 0
49 -3556 3555 0
49 -3557 3556 0
49 3550 0
49 -1589 3550 0
49 -1589 -3551 0
49 -3550 3551 1589 0
49 -1590 3551 0
49 -1590 -3552 0
49 -3551 3552 1590 0
49 -1591 3552 0
49 -1591 -3553 0
49 -3552 3553 1591 0
49 -1592 3553 0
49 -1592 -3554 0
49 -3553 3554 1592 0
49 -1593 3554 0
49 -1593 -3555 0
49 -3554 3555 1593 0
49 -1594 3555 0
49 -1594 -3556 0
49 -3555 3556 1594 0
49 -1595 3556 0
49 -1595 -3557 0
49 -3556 3557 1595 0
49 -1601 3562 0
49 -3562 1601 0
49 -3559 3558 0
49 -3560 3559 0
49 -3561 3560 0
49 -3562 3561 0
49 3558 0
49 -1597 3558 0
49 -1597 -3559 0
49 -3558 3559 1597 0
49 -1598 3559 0
49 -1598 -3560 0
49 -3559 3560 1598 0
49 -1599 3560 0
49 -1599 -3561 0
49 -3560 3561 1599 0
49 -1600 3561 0
49 -1600 -3562 0
49 -3561 3562 1600 0
49 -1606 3567 0
49 -3567 1606 0
49 -3564 3563 0
49 -3565 3564 0
49 -3566 3565 0
49 -3567 3566 0
49 3563 0
49 -1602 3563 0
49 -1602 -3564 0
49 -3563 3564 1602 0
49 -1603 3564 0
49 -1603 -3565 0
49 -3564 3565 1603 0
49 -1604 3565 0
49 -1604 -3566 0
49 -3565 3566 1604 0
49 -1605 3566 0
49 -1605 -3567 0
49 -3566 3567 1605 0
49 -1612 3573 0
49 -3573 1612 0
49 -3569 3568 0
49 -3570 3569 0
49 -3571 3570 0
49 -3572 3571 0
49 -3573 3572 0
49 3568 0
49 -1607 3568 0
49 -1607 -3569 0
49 -3568 3569 1607 0
49 -1608 3569 0
49 -1608 -3570 0
49 -3569 3570 1608 0
49 -1609 3570 0
49 -1609 -3571 0
49 -3570 3571 1609 0
49 -1610 3571 0
49 -1610 -3572 0
49 -3571 3572 1610 0
49 -1611 3572 0
49 -1611 -3573 0
49 -3572 3573 1611 0
49 -1618 3579 0
49 -3579 1618 0
49 -3575 3574 0
49 -3576 3575 0
49 -3577 3576 0
49 -3578 3577 0
49 -3579 3578 0
49 3574 0
49 -1613 3574 0
49 -1613 -3575 0
49 -3574 3575 1613 0
49 -1614 3575 0
49 -1614 -3576 0
49 -3575 3576 1614 0
49 -1615 3576 0
49 -1615 -3577 0
49 -3576 3577 1615 0
49 -1616 3577 0
49 -1616 -3578 0
49 -3577 3578 1616 0
49 -1617 3578 0
49 -1617 -3579 0
49 -3578 3579 1617 0
49 -1626 3587 0
49 -3587 1626 0
49 -3581 3580 0
49 -3582 3581 0
49 -3583 3582 0
49 -3584 3583 0
49 -3585 3584 0
49 -3586 3585 0
49 -3587 3586 0
49 3580 0
49 -1619 3580 0
49 -1619 -3581 0
49 -3580 3581 1619 0
49 -1620 3581 0
49 -1620 -3582 0
49 -3581 3582 1620 0
49 -1621 3582 0
49 -1621 -3583 0
49 -3582 3583 1621 0
49 -1622 3583 0
49 -1622 -3584 0
49 -3583 3584 1622 0
49 -1623 3584 0
49 -1623 -3585 0
49 -3584 3585 1623 0
49 -1624 3585 0
49 -1624 -3586 0
49 -3585 3586 1624 0
49 -1625 3586 0
49 -1625 -3587 0
49 -3586 3587 1625 0
49 -1634 3595 0
49 -3595 1634 0
49 -3589 3588 0
49 -3590 3589 0
49 -3591 3590 0
49 -3592 3591 0
49 -3593 3592 0
49 -3594 3593 0
49 -3595 3594 0
49 3588 0
49 -1627 3588 0
49 -1627 -3589 0
49 -3588 3589 1627 0
49 -1628 3589 0
49 -1628 -3590 0
49 -3589 3590 1628 0
49 -1629 3590 0
49 -1629 -3591 0
49 -3590 3591 1629 0
49 -1630 3591 0
49 -1630 -3592 0
49 -3591 3592 1630 0
49 -1631 3592 0
49 -1631 -3593 0
49 -3592 3593 1631 0
49 -1632 3593 0
49 -1632 -3594 0
49 -3593 3594 1632 0
49 -1633 3594 0
49 -1633 -3595 0
49 -3594 3595 1633 0
49 -1639 3600 0
49 -3600 1639 0
49 -3597 3596 0
49 -3598 3597 0
49 -3599 3598 0
49 -3600 3599 0
49 3596 0
49 -1635 3596 0
49 -1635 -3597 0
49 -3596 3597 1635 0
49 -1636 3597 0
49 -1636 -3598 0
49 -3597 3598 1636 0
49 -1637 3598 0
49 -1637 -3599 0
49 -3598 3599 1637 0
49 -1638 3599 0
49 -1638 -3600 0
49 -3599 3600 1638 0
49 -1644 3605 0
49 -3605 1644 0
49 -3602 3601 0
49 -3603 3602 0
49 -3604 3603 0
49 -3605 3604 0
49 3601 0
49 -1640 3601 0
49 -1640 -3602 0
49 -3601 3602 1640 0
49 -1641 3602 0
49 -1641 -3603 0
49 -3602 3603 1641 0
49 -1642 3603 0
49 -1642 -3604 0
49 -3603 3604 1642 0
49 -1643 3604 0
49 -1643 -3605 0
49 -3604 3605 1643 0
49 -1653 3614 0
49 -3614 1653 0
49 -3607 3606 0
49 -3608 3607 0
49 -3609 3608 0
49 -3610 3609 0
49 -3611 3610 0
49 -3612 3611 0
49 -3613 3612 0
49 -3614 3613 0
49 3606 0
49 -1645 3606 0
49 -1645 -3607 0
49 -3606 3607 1645 0
49 -1646 3607 0
49 -1646 -3608 0
49 -3607 3608 1646 0
49 -1647 3608 0
49 -1647 -3609 0
49 -3608 3609 1647 0
49 -1648 3609 0
49 -1648 -3610 0
49 -3609 3610 1648 0
49 -1649 3610 0
49 -1649 -3611 0
49 -3610 3611 1649 0
49 -1650 3611 0
49 -1650 -3612 0
49 -3611 3612 1650 0
49 -1651 3612 0
49 -1651 -3613 0
49 -3612 3613 1651 0
49 -1652 3613 0
49 -1652 -3614 0
49 -3613 3614 1652 0
49 -1662 3623 0
49 -3623 1662 0
49 -3616 3615 0
49 -3617 3616 0
49 -3618 3617 0
49 -3619 3618 0
49 -3620 3619 0
49 -3621 3620 0
49 -3622 3621 0
49 -3623 3622 0
49 3615 0
49 -1654 3615 0
49 -1654 -3616 0
49 -3615 3616 1654 0
49 -1655 3616 0
49 -1655 -3617 0
49 -3616 3617 1655 0
49 -1656 3617 0
49 -1656 -3618 0
49 -3617 3618 1656 0
49 -1657 3618 0
49 -1657 -3619 0
49 -3618 3619 1657 0
49 -1658 3619 0
49 -1658 -3620 0
49 -3619 3620 1658 0
49 -1659 3620 0
49 -1659 -3621 0
49 -3620 3621 1659 0
49 -1660 3621 0
49 -1660 -3622 0
49 -3621 3622 1660 0
49 -1661 3622 0
49 -1661 -3623 0
49 -3622 3623 1661 0
49 -1673 3634 0
49 -3634 1673 0
49 -3625 3624 0
49 -3626 3625 0
49 -3627 3626 0
49 -3628 3627 0
49 -3629 3628 0
49 -3630 3629 0
49 -3631 3630 0
49 -3632 3631 0
49 -3633 3632 0
49 -3634 3633 0
49 3624 0
49 -1663 3624 0
49 -1663 -3625 0
49 -3624 3625 1663 0
49 -1664 3625 0
49 -1664 -3626 0
49 -3625 3626 1664 0
49 -1665 3626 0
49 -1665 -3627 0
49 -3626 3627 1665 0
49 -1666 3627 0
49 -1666 -3628 0
49 -3627 3628 1666 0
49 -1667 3628 0
49 -1667 -3629 0
49 -3628 3629 1667 0
49 -1668 3629 0
49 -1668 -3630 0
49 -3629 3630 1668 0
49 -1669 3630 0
49 -1669 -3631 0
49 -3630 3631 1669 0
49 -1670 3631 0
49 -1670 -3632 0
49 -3631 3632 1670 0
49 -1671 3632 0
49 -1671 -3633 0
49 -3632 3633 1671 0
49 -1672 3633 0
49 -1672 -3634 0
49 -3633 3634 1672 0
49 -1684 3645 0
49 -3645 1684 0
49 -3636 3635 0
49 -3637 3636 0
49 -3638 3637 0
49 -3639 3638 0
49 -3640 3639 0
49 -3641 3640 0
49 -3642 3641 0
49 -3643 3642 0
49 -3644 3643 0
49 -3645 3644 0
49 3635 0
49 -1674 3635 0
49 -1674 -3636 0
49 -3635 3636 1674 0
49 -1675 3636 0
49 -1675 -3637 0
49 -3636 3637 1675 0
49 -1676 3637 0
49 -1676 -3638 0
49 -3637 3638 1676 0
49 -1677 3638 0
49 -1677 -3639 0
49 -3638 3639 1677 0
49 -1678 3639 0
49 -1678 -3640 0
49 -3639 3640 1678 0
49 -1679 3640 0
49 -1679 -3641 0
49 -3640 3641 1679 0
49 -1680 3641 0
49 -1680 -3642 0
49 -3641 3642 1680 0
49 -1681 3642 0
49 -1681 -3643 0
49 -3642 3643 1681 0
49 -1682 3643 0
49 -1682 -3644 0
49 -3643 3644 1682 0
49 -1683 3644 0
49 -1683 -3645 0
49 -3644 3645 1683 0
49 -1688 3649 0
49 -3649 1688 0
49 -3647 3646 0
49 -3648 3647 0
49 -3649 3648 0
49 3646 0
49 -1685 3646 0
49 -1685 -3647 0
49 -3646 3647 1685 0
49 -1686 3647 0
49 -1686 -3648 0
49 -3647 3648 1686 0
49 -1687 3648 0
49 -1687 -3649 0
49 -3648 3649 1687 0
49 -1692 3653 0
49 -3653 1692 0
49 -3651 3650 0
49 -3652 3651 0
49 -3653 3652 0
49 3650 0
49 -1689 3650 0
49 -1689 -3651 0
49 -3650 3651 1689 0
49 -1690 3651 0
49 -1690 -3652 0
49 -3651 3652 1690 0
49 -1691 3652 0
49 -1691 -3653 0
49 -3652 3653 1691 0
49 -1693 3654 0
49 -3654 1693 0
49 3654 0
49 -1694 3655 0
49 -3655 1694 0
49 3655 0
49 -1697 3658 0
49 -3658 1697 0
49 -3657 3656 0
49 -3658 3657 0
49 3656 0
49 -1695 3656 0
49 -1695 -3657 0
49 -3656 3657 1695 0
49 -1696 3657 0
49 -1696 -3658 0
49 -3657 3658 1696 0
49 -1700 3661 0
49 -3661 1700 0
49 -3660 3659 0
49 -3661 3660 0
49 3659 0
49 -1698 3659 0
49 -1698 -3660 0
49 -3659 3660 1698 0
49 -1699 3660 0
49 -1699 -3661 0
49 -3660 3661 1699 0
49 -1704 3665 0
49 -3665 1704 0
49 -3663 3662 0
49 -3664 3663 0
49 -3665 3664 0
49 3662 0
49 -1701 3662 0
49 -1701 -3663 0
49 -3662 3663 1701 0
49 -1702 3663 0
49 -1702 -3664 0
49 -3663 3664 1702 0
49 -1703 3664 0
49 -1703 -3665 0
49 -3664 3665 1703 0
49 -1708 3669 0
49 -3669 1708 0
49 -3667 3666 0
49 -3668 3667 0
49 -3669 3668 0
49 3666 0
49 -1705 3666 0
49 -1705 -3667 0
49 -3666 3667 1705 0
49 -1706 3667 0
49 -1706 -3668 0
49 -3667 3668 1706 0
49 -1707 3668 0
49 -1707 -3669 0
49 -3668 3669 1707 0
49 -1711 3672 0
49 -3672 1711 0
49 -3671 3670 0
49 -3672 3671 0
49 3670 0
49 -1709 3670 0
49 -1709 -3671 0
49 -3670 3671 1709 0
49 -1710 3671 0
49 -1710 -3672 0
49 -3671 3672 1710 0
49 -1714 3675 0
49 -3675 1714 0
49 -3674 3673 0
49 -3675 3674 0
49 3673 0
49 -1712 3673 0
49 -1712 -3674 0
49 -3673 3674 1712 0
49 -1713 3674 0
49 -1713 -3675 0
49 -3674 3675 1713 0
49 -1719 3680 0
49 -3680 1719 0
49 -3677 3676 0
49 -3678 3677 0
49 -3679 3678 0
49 -3680 3679 0
49 3676 0
49 -1715 3676 0
49 -1715 -3677 0
49 -3676 3677 1715 0
49 -1716 3677 0
49 -1716 -3678 0
49 -3677 3678 1716 0
49 -1717 3678 0
49 -1717 -3679 0
49 -3678 3679 1717 0
49 -1718 3679 0
49 -1718 -3680 0
49 -3679 3680 1718 0
49 -1724 3685 0
49 -3685 1724 0
49 -3682 3681 0
49 -3683 3682 0
49 -3684 3683 0
49 -3685 3684 0
49 3681 0
49 -1720 3681 0
49 -1720 -3682 0
49 -3681 3682 1720 0
49 -1721 3682 0
49 -1721 -3683 0
49 -3682 3683 1721 0
49 -1722 3683 0
49 -1722 -3684 0
49 -3683 3684 1722 0
49 -1723 3684 0
49 -1723 -3685 0
49 -3684 3685 1723 0
49 -1725 3686 0
49 -3686 1725 0
49 3686 0
49 -1726 3687 0
49 -3687 1726 0
49 3687 0
49 -1735 3696 0
49 -3696 1735 0
49 -3689 3688 0
49 -3690 3689 0
49 -3691 3690 0
49 -3692 3691 0
49 -3693 3692 0
49 -3694 3693 0
49 -3695 3694 0
49 -3696 3695 0
49 3688 0
49 -1727 3688 0
49 -1727 -3689 0
49 -3688 3689 1727 0
49 -1728 3689 0
49 -1728 -3690 0
49 -3689 3690 1728 0
49 -1729 3690 0
49 -1729 -3691 0
49 -3690 3691 1729 0
49 -1730 3691 0
49 -1730 -3692 0
49 -3691 3692 1730 0
49 -1731 3692 0
49 -1731 -3693 0
49 -3692 3693 1731 0
49 -1732 3693 0
49 -1732 -3694 0
49 -3693 3694 1732 0
49 -1733 3694 0
49 -1733 -3695 0
49 -3694 3695 1733 0
49 -1734 3695 0
49 -1734 -3696 0
49 -3695 3696 1734 0
49 -1744 3705 0
49 -3705 1744 0
49 -3698 3697 0
49 -3699 3698 0
49 -3700 3699 0
49 -3701 3700 0
49 -3702 3701 0
49 -3703 3702 0
49 -3704 3703 0
49 -3705 3704 0
49 3697 0
49 -1736 3697 0
49 -1736 -3698 0
49 -3697 3698 1736 0
49 -1737 3698 0
49 -1737 -3699 0
49 -3698 3699 1737 0
49 -1738 3699 0
49 -1738 -3700 0
49 -3699 3700 1738 0
49 -1739 3700 0
49 -1739 -3701 0
49 -3700 3701 1739 0
49 -1740 3701 0
49 -1740 -3702 0
49 -3701 3702 1740 0
49 -1741 3702 0
49 -1741 -3703 0
49 -3702 3703 1741 0
49 -1742 3703 0
49 -1742 -3704 0
49 -3703 3704 1742 0
49 -1743 3704 0
49 -1743 -3705 0
49 -3704 3705 1743 0
49 -1748 3709 0
49 -3709 1748 0
49 -3707 3706 0
49 -3708 3707 0
49 -3709 3708 0
49 3706 0
49 -1745 3706 0
49 -1745 -3707 0
49 -3706 3707 1745 0
49 -1746 3707 0
49 -1746 -3708 0
49 -3707 3708 1746 0
49 -1747 3708 0
49 -1747 -3709 0
49 -3708 3709 1747 0
49 -1752 3713 0
49 -3713 1752 0
49 -3711 3710 0
49 -3712 3711 0
49 -3713 3712 0
49 3710 0
49 -1749 3710 0
49 -1749 -3711 0
49 -3710 3711 1749 0
49 -1750 3711 0
49 -1750 -3712 0
49 -3711 3712 1750 0
49 -1751 3712 0
49 -1751 -3713 0
49 -3712 3713 1751 0
49 -1755 3716 0
49 -3716 1755 0
49 -3715 3714 0
49 -3716 3715 0
49 3714 0
49 -1753 3714 0
49 -1753 -3715 0
49 -3714 3715 1753 0
49 -1754 3715 0
49 -1754 -3716 0
49 -3715 3716 1754 0
49 -1758 3719 0
49 -3719 1758 0
49 -3718 3717 0
49 -3719 3718 0
49 3717 0
49 -1756 3717 0
49 -1756 -3718 0
49 -3717 3718 1756 0
49 -1757 3718 0
49 -1757 -3719 0
49 -3718 3719 1757 0
49 -1766 3727 0
49 -3727 1766 0
49 -3721 3720 0
49 -3722 3721 0
49 -3723 3722 0
49 -3724 3723 0
49 -3725 3724 0
49 -3726 3725 0
49 -3727 3726 0
49 3720 0
49 -1759 3720 0
49 -1759 -3721 0
49 -3720 3721 1759 0
49 -1760 3721 0
49 -1760 -3722 0
49 -3721 3722 1760 0
49 -1761 3722 0
49 -1761 -3723 0
49 -3722 3723 1761 0
49 -1762 3723 0
49 -1762 -3724 0
49 -3723 3724 1762 0
49 -1763 3724 0
49 -1763 -3725 0
49 -3724 3725 1763 0
49 -1764 3725 0
49 -1764 -3726 0
49 -3725 3726 1764 0
49 -1765 3726 0
49 -1765 -3727 0
49 -3726 3727 1765 0
49 -1774 3735 0
49 -3735 1774 0
49 -3729 3728 0
49 -3730 3729 0
49 -3731 3730 0
49 -3732 3731 0
49 -3733 3732 0
49 -3734 3733 0
49 -3735 3734 0
49 3728 0
49 -1767 3728 0
49 -1767 -3729 0
49 -3728 3729 1767 0
49 -1768 3729 0
49 -1768 -3730 0
49 -3729 3730 1768 0
49 -1769 3730 0
49 -1769 -3731 0
49 -3730 3731 1769 0
49 -1770 3731 0
49 -1770 -3732 0
49 -3731 3732 1770 0
49 -1771 3732 0
49 -1771 -3733 0
49 -3732 3733 1771 0
49 -1772 3733 0
49 -1772 -3734 0
49 -3733 3734 1772 0
49 -1773 3734 0
49 -1773 -3735 0
49 -3734 3735 1773 0
49 -1782 3743 0
49 -3743 1782 0
49 -3737 3736 0
49 -3738 3737 0
49 -3739 3738 0
49 -3740 3739 0
49 -3741 3740 0
49 -3742 3741 0
49 -3743 3742 0
49 3736 0
49 -1775 3736 0
49 -1775 -3737 0
49 -3736 3737 1775 0
49 -1776 3737 0
49 -1776 -3738 0
49 -3737 3738 1776 0
49 -1777 3738 0
49 -1777 -3739 0
49 -3738 3739 1777 0
49 -1778 3739 0
49 -1778 -3740 0
49 -3739 3740 1778 0
49 -1779 3740 0
49 -1779 -3741 0
49 -3740 3741 1779 0
49 -1780 3741 0
49 -1780 -3742 0
49 -3741 3742 1780 0
49 -1781 3742 0
49 -1781 -3743 0
49 -3742 3743 1781 0
49 -1790 3751 0
49 -3751 1790 0
49 -3745 3744 0
49 -3746 3745 0
49 -3747 3746 0
49 -3748 3747 0
49 -3749 3748 0
49 -3750 3749 0
49 -3751 3750 0
49 3744 0
49 -1783 3744 0
49 -1783 -3745 0
49 -3744 3745 1783 0
49 -1784 3745 0
49 -1784 -3746 0
49 -3745 3746 1784 0
49 -1785 3746 0
49 -1785 -3747 0
49 -3746 3747 1785 0
49 -1786 3747 0
49 -1786 -3748 0
49 -3747 3748 1786 0
49 -1787 3748 0
49 -1787 -3749 0
49 -3748 3749 1787 0
49 -1788 3749 0
49 -1788 -3750 0
49 -3749 3750 1788 0
49 -1789 3750 0
49 -1789 -3751 0
49 -3750 3751 1789 0
49 -1792 3753 0
49 -3753 1792 0
49 -3753 3752 0
49 3752 0
49 -1791 3752 0
49 -1791 -3753 0
49 -3752 3753 1791 0
49 -1794 3755 0
49 -3755 1794 0
49 -3755 3754 0
49 3754 0
49 -1793 3754 0
49 -1793 -3755 0
49 -3754 3755 1793 0
49 -1798 3759 0
49 -3759 1798 0
49 -3757 3756 0
49 -3758 3757 0
49 -3759 3758 0
49 3756 0
49 -1795 3756 0
49 -1795 -3757 0
49 -3756 3757 1795 0
49 -1796 3757 0
49 -1796 -3758 0
49 -3757 3758 1796 0
49 -1797 3758 0
49 -1797 -3759 0
49 -3758 3759 1797 0
49 -1802 3763 0
49 -3763 1802 0
49 -3761 3760 0
49 -3762 3761 0
49 -3763 3762 0
49 3760 0
49 -1799 3760 0
49 -1799 -3761 0
49 -3760 3761 1799 0
49 -1800 3761 0
49 -1800 -3762 0
49 -3761 3762 1800 0
49 -1801 3762 0
49 -1801 -3763 0
49 -3762 3763 1801 0
49 -1810 3771 0
49 -3771 1810 0
49 -3765 3764 0
49 -3766 3765 0
49 -3767 3766 0
49 -3768 3767 0
49 -3769 3768 0
49 -3770 3769 0
49 -3771 3770 0
49 3764 0
49 -1803 3764 0
49 -1803 -3765 0
49 -3764 3765 1803 0
49 -1804 3765 0
49 -1804 -3766 0
49 -3765 3766 1804 0
49 -1805 3766 0
49 -1805 -3767 0
49 -3766 3767 1805 0
49 -1806 3767 0
49 -1806 -3768 0
49 -3767 3768 1806 0
49 -1807 3768 0
49 -1807 -3769 0
49 -3768 3769 1807 0
49 -1808 3769 0
49 -1808 -3770 0
49 -3769 3770 1808 0
49 -1809 3770 0
49 -1809 -3771 0
49 -3770 3771 1809 0
49 -1818 3779 0
49 -3779 1818 0
49 -3773 3772 0
49 -3774 3773 0
49 -3775 3774 0
49 -3776 3775 0
49 -3777 3776 0
49 -3778 3777 0
49 -3779 3778 0
49 3772 0
49 -1811 3772 0
49 -1811 -3773 0
49 -3772 3773 1811 0
49 -1812 3773 0
49 -1812 -3774 0
49 -3773 3774 1812 0
49 -1813 3774 0
49 -1813 -3775 0
49 -3774 3775 1813 0
49 -1814 3775 0
49 -1814 -3776 0
49 -3775 3776 1814 0
49 -1815 3776 0
49 -1815 -3777 0
49 -3776 3777 1815 0
49 -1816 3777 0
49 -1816 -3778 0
49 -3777 3778 1816 0
49 -1817 3778 0
49 -1817 -3779 0
49 -3778 3779 1817 0
49 -1826 3787 0
49 -3787 1826 0
49 -3781 3780 0
49 -3782 3781 0
49 -3783 3782 0
49 -3784 3783 0
49 -3785 3784 0
49 -3786 3785 0
49 -3787 3786 0
49 3780 0
49 -1819 3780 0
49 -1819 -3781 0
49 -3780 3781 1819 0
49 -1820 3781 0
49 -1820 -3782 0
49 -3781 3782 1820 0
49 -1821 3782 0
49 -1821 -3783 0
49 -3782 3783 1821 0
49 -1822 3783 0
49 -1822 -3784 0
49 -3783 3784 1822 0
49 -1823 3784 0
49 -1823 -3785 0
49 -3784 3785 1823 0
49 -1824 3785 0
49 -1824 -3786 0
49 -3785 3786 1824 0
49 -1825 3786 0
49 -1825 -3787 0
49 -3786 3787 1825 0
49 -1834 3795 0
49 -3795 1834 0
49 -3789 3788 0
49 -3790 3789 0
49 -3791 3790 0
49 -3792 3791 0
49 -3793 3792 0
49 -3794 3793 0
49 -3795 3794 0
49 3788 0
49 -1827 3788 0
49 -1827 -3789 0
49 -3788 3789 1827 0
49 -1828 3789 0
49 -1828 -3790 0
49 -3789 3790 1828 0
49 -1829 3790 0
49 -1829 -3791 0
49 -3790 3791 1829 0
49 -1830 3791 0
49 -1830 -3792 0
49 -3791 3792 1830 0
49 -1831 3792 0
49 -1831 -3793 0
49 -3792 3793 1831 0
49 -1832 3793 0
49 -1832 -3794 0
49 -3793 3794 1832 0
49 -1833 3794 0
49 -1833 -3795 0
49 -3794 3795 1833 0
49 -1842 3803 0
49 -3803 1842 0
49 -3797 3796 0
49 -3798 3797 0
49 -3799 3798 0
49 -3800 3799 0
49 -3801 3800 0
49 -3802 3801 0
49 -3803 3802 0
49 3796 0
49 -1835 3796 0
49 -1835 -3797 0
49 -3796 3797 1835 0
49 -1836 3797 0
49 -1836 -3798 0
49 -3797 3798 1836 0
49 -1837 3798 0
49 -1837 -3799 0
49 -3798 3799 1837 0
49 -1838 3799 0
49 -1838 -3800 0
49 -3799 3800 1838 0
49 -1839 3800 0
49 -1839 -3801 0
49 -3800 3801 1839 0
49 -1840 3801 0
49 -1840 -3802 0
49 -3801 3802 1840 0
49 -1841 3802 0
49 -1841 -3803 0
49 -3802 3803 1841 0
49 -1850 3811 0
49 -3811 1850 0
49 -3805 3804 0
49 -3806 3805 0
49 -3807 3806 0
49 -3808 3807 0
49 -3809 3808 0
49 -3810 3809 0
49 -3811 3810 0
49 3804 0
49 -1843 3804 0
49 -1843 -3805 0
49 -3804 3805 1843 0
49 -1844 3805 0
49 -1844 -3806 0
49 -3805 3806 1844 0
49 -1845 3806 0
49 -1845 -3807 0
49 -3806 3807 1845 0
49 -1846 3807 0
49 -1846 -3808 0
49 -3807 3808 1846 0
49 -1847 3808 0
49 -1847 -3809 0
49 -3808 3809 1847 0
49 -1848 3809 0
49 -1848 -3810 0
49 -3809 3810 1848 0
49 -1849 3810 0
49 -1849 -3811 0
49 -3810 3811 1849 0
49 -1860 3821 0
49 -3821 1860 0
49 -3813 3812 0
49 -3814 3813 0
49 -3815 3814 0
49 -3816 3815 0
49 -3817 3816 0
49 -3818 3817 0
49 -3819 3818 0
49 -3820 3819 0
49 -3821 3820 0
49 3812 0
49 -1851 3812 0
49 -1851 -3813 0
49 -3812 3813 1851 0
49 -1852 3813 0
49 -1852 -3814 0
49 -3813 3814 1852 0
49 -1853 3814 0
49 -1853 -3815 0
49 -3814 3815 1853 0
49 -1854 3815 0
49 -1854 -3816 0
49 -3815 3816 1854 0
49 -1855 3816 0
49 -1855 -3817 0
49 -3816 3817 1855 0
49 -1856 3817 0
49 -1856 -3818 0
49 -3817 3818 1856 0
49 -1857 3818 0
49 -1857 -3819 0
49 -3818 3819 1857 0
49 -1858 3819 0
49 -1858 -3820 0
49 -3819 3820 1858 0
49 -1859 3820 0
49 -1859 -3821 0
49 -3820 3821 1859 0
49 -1870 3831 0
49 -3831 1870 0
49 -3823 3822 0
49 -3824 3823 0
49 -3825 3824 0
49 -3826 3825 0
49 -3827 3826 0
49 -3828 3827 0
49 -3829 3828 0
49 -3830 3829 0
49 -3831 3830 0
49 3822 0
49 -1861 3822 0
49 -1861 -3823 0
49 -3822 3823 1861 0
49 -1862 3823 0
49 -1862 -3824 0
49 -3823 3824 1862 0
49 -1863 3824 0
49 -1863 -3825 0
49 -3824 3825 1863 0
49 -1864 3825 0
49 -1864 -3826 0
49 -3825 3826 1864 0
49 -1865 3826 0
49 -1865 -3827 0
49 -3826 3827 1865 0
49 -1866 3827 0
49 -1866 -3828 0
49 -3827 3828 1866 0
49 -1867 3828 0
49 -1867 -3829 0
49 -3828 3829 1867 0
49 -1868 3829 0
49 -1868 -3830 0
49 -3829 3830 1868 0
49 -1869 3830 0
49 -1869 -3831 0
49 -3830 3831 1869 0
49 -1872 3833 0
49 -3833 1872 0
49 -3833 3832 0
49 3832 0
49 -1871 3832 0
49 -1871 -3833 0
49 -3832 3833 1871 0
49 -1874 3835 0
49 -3835 1874 0
49 -3835 3834 0
49 3834 0
49 -1873 3834 0
49 -1873 -3835 0
49 -3834 3835 1873 0
49 -1878 3839 0
49 -3839 1878 0
49 -3837 3836 0
49 -3838 3837 0
49 -3839 3838 0
49 3836 0
49 -1875 3836 0
49 -1875 -3837 0
49 -3836 3837 1875 0
49 -1876 3837 0
49 -1876 -3838 0
49 -3837 3838 1876 0
49 -1877 3838 0
49 -1877 -3839 0
49 -3838 3839 1877 0
49 -1882 3843 0
49 -3843 1882 0
49 -3841 3840 0
49 -3842 3841 0
49 -3843 3842 0
49 3840 0
49 -1879 3840 0
49 -1879 -3841 0
49 -3840 3841 1879 0
49 -1880 3841 0
49 -1880 -3842 0
49 -3841 3842 1880 0
49 -1881 3842 0
49 -1881 -3843 0
49 -3842 3843 1881 0
49 -1887 3848 0
49 -3848 1887 0
49 -3845 3844 0
49 -3846 3845 0
49 -3847 3846 0
49 -3848 3847 0
49 3844 0
49 -1883 3844 0
49 -1883 -3845 0
49 -3844 3845 1883 0
49 -1884 3845 0
49 -1884 -3846 0
49 -3845 3846 1884 0
49 -1885 3846 0
49 -1885 -3847 0
49 -3846 3847 1885 0
49 -1886 3847 0
49 -1886 -3848 0
49 -3847 3848 1886 0
49 -1892 3853 0
49 -3853 1892 0
49 -3850 3849 0
49 -3851 3850 0
49 -3852 3851 0
49 -3853 3852 0
49 3849 0
49 -1888 3849 0
49 -1888 -3850 0
49 -3849 3850 1888 0
49 -1889 3850 0
49 -1889 -3851 0
49 -3850 3851 1889 0
49 -1890 3851 0
49 -1890 -3852 0
49 -3851 3852 1890 0
49 -1891 3852 0
49 -1891 -3853 0
49 -3852 3853 1891 0
49 -1903 3864 0
49 -3864 1903 0
49 -3855 3854 0
49 -3856 3855 0
49 -3857 3856 0
49 -3858 3857 0
49 -3859 3858 0
49 -3860 3859 0
49 -3861 3860 0
49 -3862 3861 0
49 -3863 3862 0
49 -3864 3863 0
49 3854 0
49 -1893 3854 0
49 -1893 -3855 0
49 -3854 3855 1893 0
49 -1894 3855 0
49 -1894 -3856 0
49 -3855 3856 1894 0
49 -1895 3856 0
49 -1895 -3857 0
49 -3856 3857 1895 0
49 -1896 3857 0
49 -1896 -3858 0
49 -3857 3858 1896 0
49 -1897 3858 0
49 -1897 -3859 0
49 -3858 3859 1897 0
49 -1898 3859 0
49 -1898 -3860 0
49 -3859 3860 1898 0
49 -1899 3860 0
49 -1899 -3861 0
49 -3860 3861 1899 0
49 -1900 3861 0
49 -1900 -3862 0
49 -3861 3862 1900 0
49 -1901 3862 0
49 -1901 -3863 0
49 -3862 3863 1901 0
49 -1902 3863 0
49 -1902 -3864 0
49 -3863 3864 1902 0
49 -1914 3875 0
49 -3875 1914 0
49 -3866 3865 0
49 -3867 3866 0
49 -3868 3867 0
49 -3869 3868 0
49 -3870 3869 0
49 -3871 3870 0
49 -3872 3871 0
49 -3873 3872 0
49 -3874 3873 0
49 -3875 3874 0
49 3865 0
49 -1904 3865 0
49 -1904 -3866 0
49 -3865 3866 1904 0
49 -1905 3866 0
49 -1905 -3867 0
49 -3866 3867 1905 0
49 -1906 3867 0
49 -1906 -3868 0
49 -3867 3868 1906 0
49 -1907 3868 0
49 -1907 -3869 0
49 -3868 3869 1907 0
49 -1908 3869 0
49 -1908 -3870 0
49 -3869 3870 1908 0
49 -1909 3870 0
49 -1909 -3871 0
49 -3870 3871 1909 0
49 -1910 3871 0
49 -1910 -3872 0
49 -3871 3872 1910 0
49 -1911 3872 0
49 -1911 -3873 0
49 -3872 3873 1911 0
49 -1912 3873 0
49 -1912 -3874 0
49 -3873 3874 1912 0
49 -1913 3874 0
49 -1913 -3875 0
49 -3874 3875 1913 0
49 -1916 3877 0
49 -3877 1916 0
49 -3877 3876 0
49 3876 0
49 -1915 3876 0
49 -1915 -3877 0
49 -3876 3877 1915 0
49 -1918 3879 0
49 -3879 1918 0
49 -3879 3878 0
49 3878 0
49 -1917 3878 0
49 -1917 -3879 0
49 -3878 3879 1917 0
49 -1919 3880 0
49 -3880 1919 0
49 3880 0
49 -1920 3881 0
49 -3881 1920 0
49 3881 0
49 -1929 3890 0
49 -3890 1929 0
49 -3883 3882 0
49 -3884 3883 0
49 -3885 3884 0
49 -3886 3885 0
49 -3887 3886 0
49 -3888 3887 0
49 -3889 3888 0
49 -3890 3889 0
49 3882 0
49 -1921 3882 0
49 -1921 -3883 0
49 -3882 3883 1921 0
49 -1922 3883 0
49 -1922 -3884 0
49 -3883 3884 1922 0
49 -1923 3884 0
49 -1923 -3885 0
49 -3884 3885 1923 0
49 -1924 3885 0
49 -1924 -3886 0
49 -3885 3886 1924 0
49 -1925 3886 0
49 -1925 -3887 0
49 -3886 3887 1925 0
49 -1926 3887 0
49 -1926 -3888 0
49 -3887 3888 1926 0
49 -1927 3888 0
49 -1927 -3889 0
49 -3888 3889 1927 0
49 -1928 3889 0
49 -1928 -3890 0
49 -3889 3890 1928 0
49 -1938 3899 0
49 -3899 1938 0
49 -3892 3891 0
49 -3893 3892 0
49 -3894 3893 0
49 -3895 3894 0
49 -3896 3895 0
49 -3897 3896 0
49 -3898 3897 0
49 -3899 3898 0
49 3891 0
49 -1930 3891 0
49 -1930 -3892 0
49 -3891 3892 1930 0
49 -1931 3892 0
49 -1931 -3893 0
49 -3892 3893 1931 0
49 -1932 3893 0
49 -1932 -3894 0
49 -3893 3894 1932 0
49 -1933 3894 0
49 -1933 -3895 0
49 -3894 3895 1933 0
49 -1934 3895 0
49 -1934 -3896 0
49 -3895 3896 1934 0
49 -1935 3896 0
49 -1935 -3897 0
49 -3896 3897 1935 0
49 -1936 3897 0
49 -1936 -3898 0
49 -3897 3898 1936 0
49 -1937 3898 0
49 -1937 -3899 0
49 -3898 3899 1937 0
49 -1949 3910 0
49 -3910 1949 0
49 -3901 3900 0
49 -3902 3901 0
49 -3903 3902 0
49 -3904 3903 0
49 -3905 3904 0
49 -3906 3905 0
49 -3907 3906 0
49 -3908 3907 0
49 -3909 3908 0
49 -3910 3909 0
49 3900 0
49 -1939 3900 0
49 -1939 -3901 0
49 -3900 3901 1939 0
49 -1940 3901 0
49 -1940 -3902 0
49 -3901 3902 1940 0
49 -1941 3902 0
49 -1941 -3903 0
49 -3902 3903 1941 0
49 -1942 3903 0
49 -1942 -3904 0
49 -3903 3904 1942 0
49 -1943 3904 0
49 -1943 -3905 0
49 -3904 3905 1943 0
49 -1944 3905 0
49 -1944 -3906 0
49 -3905 3906 1944 0
49 -1945 3906 0
49 -1945 -3907 0
49 -3906 3907 1945 0
49 -1946 3907 0
49 -1946 -3908 0
49 -3907 3908 1946 0
49 -1947 3908 0
49 -1947 -3909 0
49 -3908 3909 1947 0
49 -1948 3909 0
49 -1948 -3910 0
49 -3909 3910 1948 0
49 -1960 3921 0
49 -3921 1960 0
49 -3912 3911 0
49 -3913 3912 0
49 -3914 3913 0
49 -3915 3914 0
49 -3916 3915 0
49 -3917 3916 0
49 -3918 3917 0
49 -3919 3918 0
49 -3920 3919 0
49 -3921 3920 0
49 3911 0
49 -1950 3911 0
49 -1950 -3912 0
49 -3911 3912 1950 0
49 -1951 3912 0
49 -1951 -3913 0
49 -3912 3913 1951 0
49 -1952 3913 0
49 -1952 -3914 0
49 -3913 3914 1952 0
49 -1953 3914 0
49 -1953 -3915 0
49 -3914 3915 1953 0
49 -1954 3915 0
49 -1954 -3916 0
49 -3915 3916 1954 0
49 -1955 3916 0
49 -1955 -3917 0
49 -3916 3917 1955 0
49 -1956 3917 0
49 -1956 -3918 0
49 -3917 3918 1956 0
49 -1957 3918 0
49 -1957 -3919 0
49 -3918 3919 1957 0
49 -1958 3919 0
49 -1958 -3920 0
49 -3919 3920 1958 0
49 -1959 3920 0
49 -1959 -3921 0
49 -3920 3921 1959 0
49 -1 2 0
49 -1 3687 0
49 -2 3686 0
49 -2 3687 0
49 -3 7 0
49 -4 8 0
49 -5 9 0
49 -6 10 0
49 -3 1972 0
49 -4 1972 0
49 -5 1972 0
49 -6 1972 0
49 -3 1973 0
49 -4 1973 0
49 -5 1973 0
49 -6 1973 0
49 -3 2117 0
49 -4 2117 0
49 -5 2117 0
49 -6 2117 0
49 -3 3654 0
49 -4 3654 0
49 -5 3654 0
49 -6 3654 0
49 -7 1972 0
49 -8 1972 0
49 -9 1972 0
49 -10 1972 0
49 -7 1973 0
49 -8 1973 0
49 -9 1973 0
49 -10 1973 0
49 -7 2116 0
49 -8 2116 0
49 -9 2116 0
49 -10 2116 0
49 -7 2117 0
49 -8 2117 0
49 -9 2117 0
49 -10 2117 0
49 -11 12 0
49 -11 3654 0
49 -12 2562 0
49 -12 3655 0
49 -13 14 0
49 -13 1977 0
49 -13 2312 0
49 -13 2313 0
49 -13 2314 0
49 -13 2740 0
49 -13 2741 0
49 -13 2822 0
49 -13 2823 0
49 -13 2999 0
49 -13 3350 0
49 -13 3351 0
49 -14 2312 0
49 -14 2740 0
49 -14 2741 0
49 -14 2822 0
49 -14 2823 0
49 -14 3350 0
49 -15 16 0
49 -15 2312 0
49 -15 2313 0
49 -15 2314 0
49 -15 2740 0
49 -15 2741 0
49 -15 2822 0
49 -15 2823 0
49 -15 2999 0
49 -15 3350 0
49 -15 3351 0
49 -16 2312 0
49 -16 2740 0
49 -16 2741 0
49 -16 2822 0
49 -16 2823 0
49 -16 3350 0
49 -17 23 0
49 -18 24 0
49 -19 25 0
49 -20 26 0
49 -21 27 0
49 -22 28 0
49 -17 2620 0
49 -18 2620 0
49 -19 2620 0
49 -20 2620 0
49 -21 2620 0
49 -22 2620 0
49 -17 2623 0
49 -18 2623 0
49 -19 2623 0
49 -20 2623 0
49 -21 2623 0
49 -22 2623 0
49 -17 2626 0
49 -18 2626 0
49 -19 2626 0
49 -20 2626 0
49 -21 2626 0
49 -22 2626 0
49 -17 2627 0
49 -18 2627 0
49 -19 2627 0
49 -20 2627 0
49 -21 2627 0
49 -22 2627 0
49 -17 2628 0
49 -18 2628 0
49 -19 2628 0
49 -20 2628 0
49 -21 2628 0
49 -22 2628 0
49 -17 2630 0
49 -18 2630 0
49 -19 2630 0
49 -20 2630 0
49 -21 2630 0
49 -22 2631 0
49 -17 3764 0
49 -18 3764 0
49 -19 3764 0
49 -20 3764 0
49 -21 3765 0
49 -22 3766 0
49 -17 3772 0
49 -18 3772 0
49 -19 3772 0
49 -20 3772 0
49 -21 3772 0
49 -22 3772 0
49 -17 3780 0
49 -18 3781 0
49 -19 3782 0
49 -20 3783 0
49 -21 3784 0
49 -22 3784 0
49 -17 3788 0
49 -18 3788 0
49 -19 3788 0
49 -20 3788 0
49 -21 3788 0
49 -22 3788 0
49 -23 2620 0
49 -24 2620 0
49 -25 2620 0
49 -26 2620 0
49 -27 2620 0
49 -28 2620 0
49 -23 2623 0
49 -24 2623 0
49 -25 2623 0
49 -26 2623 0
49 -27 2623 0
49 -28 2623 0
49 -23 2626 0
49 -24 2626 0
49 -25 2626 0
49 -26 2626 0
49 -27 2626 0
49 -28 2626 0
49 -23 2627 0
49 -24 2627 0
49 -25 2627 0
49 -26 2627 0
49 -27 2627 0
49 -28 2627 0
49 -23 2628 0
49 -24 2628 0
49 -25 2628 0
49 -26 2628 0
49 -27 2628 0
49 -28 2628 0
49 -23 2630 0
49 -24 2630 0
49 -25 2630 0
49 -26 2630 0
49 -27 2630 0
49 -28 2630 0
49 -23 3764 0
49 -24 3764 0
49 -25 3764 0
49 -26 3764 0
49 -27 3764 0
49 -28 3764 0
49 -23 3772 0
49 -24 3772 0
49 -25 3772 0
49 -26 3772 0
49 -27 3772 0
49 -28 3772 0
49 -23 3780 0
49 -24 3780 0
49 -25 3780 0
49 -26 3780 0
49 -27 3780 0
49 -28 3780 0
49 -23 3788 0
49 -24 3788 0
49 -25 3788 0
49 -26 3788 0
49 -27 3788 0
49 -28 3788 0
49 -29 30 0
49 -29 2022 0
49 -29 2023 0
49 -29 2626 0
49 -29 2627 0
49 -29 2628 0
49 -29 2630 0
49 -29 3670 0
49 -29 3673 0
49 -30 2022 0
49 -30 2023 0
49 -30 2626 0
49 -30 2627 0
49 -30 2628 0
49 -30 2630 0
49 -30 3670 0
49 -30 3673 0
49 -31 32 0
49 -33 44 0
49 -34 45 0
49 -35 46 0
49 -36 47 0
49 -37 48 0
49 -38 49 0
49 -39 50 0
49 -40 51 0
49 -41 52 0
49 -42 53 0
49 -43 54 0
49 -33 3542 0
49 -34 3542 0
49 -35 3542 0
49 -36 3542 0
49 -37 3542 0
49 -38 3542 0
49 -39 3542 0
49 -40 3542 0
49 -41 3543 0
49 -42 3544 0
49 -43 3545 0
49 -33 3550 0
49 -34 3550 0
49 -35 3550 0
49 -36 3550 0
49 -37 3550 0
49 -38 3550 0
49 -39 3550 0
49 -40 3550 0
49 -41 3550 0
49 -42 3550 0
49 -43 3550 0
49 -44 2528 0
49 -45 2528 0
49 -46 2528 0
49 -47 2528 0
49 -48 2528 0
49 -49 2528 0
49 -50 2528 0
49 -51 2528 0
49 -52 2528 0
49 -53 2528 0
49 -54 2528 0
49 -44 3542 0
49 -45 3542 0
49 -46 3542 0
49 -47 3542 0
49 -48 3543 0
49 -49 3544 0
49 -50 3545 0
49 -51 3546 0
49 -52 3547 0
49 -53 3548 0
49 -54 3549 0
49 -44 3550 0
49 -45 3550 0
49 -46 3550 0
49 -47 3550 0
49 -48 3550 0
49 -49 3550 0
49 -50 3550 0
49 -51 3550 0
49 -52 3551 0
49 -53 3552 0
49 -54 3553 0
49 -55 58 0
49 -56 59 0
49 -57 60 0
49 -55 2022 0
49 -56 2022 0
49 -57 2022 0
49 -55 2023 0
49 -56 2023 0
49 -57 2023 0
49 -55 2024 0
49 -56 2024 0
49 -57 2025 0
49 -55 2027 0
49 -56 2027 0
49 -57 2027 0
49 -55 3670 0
49 -56 3670 0
49 -57 3670 0
49 -55 3673 0
49 -56 3673 0
49 -57 3673 0
49 -58 2022 0
49 -59 2022 0
49 -60 2022 0
49 -58 2023 0
49 -59 2023 0
49 -60 2023 0
49 -58 2024 0
49 -59 2024 0
49 -60 2024 0
49 -58 2027 0
49 -59 2027 0
49 -60 2027 0
49 -58 2087 0
49 -59 2087 0
49 -60 2087 0
49 -58 3670 0
49 -59 3670 0
49 -60 3670 0
49 -58 3673 0
49 -59 3673 0
49 -60 3673 0
49 -61 62 0
49 -62 2027 0
49 -62 3673 0
49 -63 66 0
49 -64 67 0
49 -65 68 0
49 -63 -3734 0
49 -64 -3735 0
49 -69 70 0
49 -69 2032 0
49 -69 2033 0
49 -69 2916 0
49 -69 2920 0
49 -69 3536 0
49 -69 3539 0
49 -69 3714 0
49 -69 3717 0
49 -70 2032 0
49 -70 2033 0
49 -70 2916 0
49 -70 2920 0
49 -70 3539 0
49 -70 3714 0
49 -70 3717 0
49 -71 72 0
49 -71 2920 0
49 -71 3717 0
49 -72 2916 0
49 -72 2920 0
49 -72 3714 0
49 -72 3717 0
49 -73 74 0
49 -73 3276 0
49 -75 76 0
49 -75 2038 0
49 -75 2048 0
49 -76 2038 0
49 -76 2048 0
49 -76 2916 0
49 -76 3385 0
49 -76 3717 0
49 -77 87 0
49 -78 88 0
49 -79 89 0
49 -80 90 0
49 -81 91 0
49 -82 92 0
49 -83 93 0
49 -84 94 0
49 -85 95 0
49 -86 96 0
49 -77 2268 0
49 -78 -2267 0
49 -79 -2268 0
49 -87 2271 0
49 -88 -2270 0
49 -89 -2271 0
49 -97 98 0
49 -97 2062 0
49 -97 2852 0
49 -97 2853 0
49 -97 3292 0
49 -97 3294 0
49 -97 3346 0
49 -97 3348 0
49 -98 2852 0
49 -98 2853 0
49 -98 3292 0
49 -98 3294 0
49 -98 3346 0
49 -99 101 0
49 -100 102 0
49 -99 2852 0
49 -100 2852 0
49 -99 2853 0
49 -100 2853 0
49 -99 3292 0
49 -100 3292 0
49 -99 3294 0
49 -100 3294 0
49 -99 3346 0
49 -100 3346 0
49 -99 3348 0
49 -100 3348 0
49 -101 2852 0
49 -102 2852 0
49 -101 2853 0
49 -102 2853 0
49 -101 3292 0
49 -102 3292 0
49 -101 3294 0
49 -102 3294 0
49 -101 3346 0
49 -102 3346 0
49 -101 3348 0
49 -102 3348 0
49 -103 104 0
49 -103 2570 0
49 -103 2572 0
49 -103 2574 0
49 -103 2578 0
49 -103 2602 0
49 -103 2611 0
49 -103 3006 0
49 -103 3014 0
49 -103 3662 0
49 -103 3666 0
49 -104 2572 0
49 -104 2574 0
49 -104 2578 0
49 -104 2602 0
49 -104 2611 0
49 -104 3006 0
49 -104 3014 0
49 -104 3662 0
49 -105 106 0
49 -105 2088 0
49 -106 2072 0
49 -106 2088 0
49 -106 2089 0
49 -107 109 0
49 -108 110 0
49 -107 2072 0
49 -108 2072 0
49 -107 2073 0
49 -108 2073 0
49 -107 -2075 0
49 -107 2076 0
49 -108 2076 0
49 -107 2088 0
49 -108 2088 0
49 -107 2089 0
49 -108 2089 0
49 -107 3646 0
49 -108 3646 0
49 -109 2072 0
49 -110 2072 0
49 -109 2073 0
49 -110 2073 0
49 -109 -2077 0
49 -109 2088 0
49 -110 2088 0
49 -109 2089 0
49 -110 2089 0
49 -111 112 0
49 -111 2088 0
49 -112 2088 0
49 -112 2089 0
49 -113 115 0
49 -114 116 0
49 -113 2088 0
49 -114 2088 0
49 -113 2089 0
49 -114 2089 0
49 -113 3876 0
49 -114 3876 0
49 -113 -3879 0
49 -115 2088 0
49 -116 2088 0
49 -115 2089 0
49 -116 2089 0
49 -115 -3877 0
49 -117 121 0
49 -118 122 0
49 -119 123 0
49 -120 124 0
49 -117 -2639 0
49 -118 -2640 0
49 -119 -2641 0
49 -117 2916 0
49 -118 2916 0
49 -119 2916 0
49 -120 2917 0
49 -117 2920 0
49 -118 2920 0
49 -119 2920 0
49 -120 2920 0
49 -121 2087 0
49 -122 2087 0
49 -123 2087 0
49 -124 2087 0
49 -121 -2634 0
49 -122 -2635 0
49 -123 -2636 0
49 -121 2637 0
49 -122 2637 0
49 -123 2637 0
49 -124 2638 0
49 -121 2916 0
49 -122 2916 0
49 -123 2916 0
49 -124 2916 0
49 -121 2920 0
49 -122 2920 0
49 -123 2920 0
49 -124 2920 0
49 -125 126 0
49 -125 3670 0
49 -125 3673 0
49 -126 3670 0
49 -126 3673 0
49 -127 128 0
49 -128 3646 0
49 -129 130 0
49 -129 2092 0
49 -129 2093 0
49 -129 2104 0
49 -129 2118 0
49 -129 2119 0
49 -129 2123 0
49 -129 2171 0
49 -129 2462 0
49 -129 2463 0
49 -129 2466 0
49 -129 2526 0
49 -129 2533 0
49 -129 2750 0
49 -129 2751 0
49 -129 2860 0
49 -129 2861 0
49 -129 3000 0
49 -129 3001 0
49 -129 3278 0
49 -129 3514 0
49 -129 3515 0
49 -129 3517 0
49 -129 3518 0
49 -129 3880 0
49 -130 2093 0
49 -130 2096 0
49 -130 2105 0
49 -130 2119 0
49 -130 2121 0
49 -130 2171 0
49 -130 2462 0
49 -130 2463 0
49 -130 2527 0
49 -130 2532 0
49 -130 2751 0
49 -130 2861 0
49 -130 3000 0
49 -130 3514 0
49 -130 3515 0
49 -131 132 0
49 -131 2104 0
49 -131 2105 0
49 -131 2106 0
49 -131 2107 0
49 -131 2119 0
49 -131 2123 0
49 -131 2158 0
49 -131 2160 0
49 -131 2171 0
49 -131 2462 0
49 -131 2463 0
49 -131 2533 0
49 -131 2751 0
49 -131 2861 0
49 -131 3000 0
49 -131 3514 0
49 -131 3515 0
49 -131 3517 0
49 -131 3518 0
49 -132 2104 0
49 -132 2105 0
49 -132 2106 0
49 -132 2107 0
49 -132 2463 0
49 -132 2527 0
49 -132 2532 0
49 -132 3352 0
49 -132 3354 0
49 -132 3514 0
49 -132 3515 0
49 -133 135 0
49 -134 136 0
49 -133 2098 0
49 -134 2098 0
49 -133 2099 0
49 -134 2099 0
49 -133 2106 0
49 -134 2106 0
49 -133 2119 0
49 -134 2119 0
49 -133 2123 0
49 -134 2123 0
49 -133 2154 0
49 -134 2154 0
49 -133 2156 0
49 -134 2156 0
49 -133 2166 0
49 -134 2166 0
49 -133 2280 0
49 -134 2280 0
49 -133 2282 0
49 -134 2282 0
49 -133 2854 0
49 -134 2854 0
49 -133 2856 0
49 -134 2856 0
49 -133 2859 0
49 -134 2859 0
49 -133 2861 0
49 -134 2861 0
49 -133 3518 0
49 -134 3518 0
49 -135 2098 0
49 -136 2098 0
49 -135 2099 0
49 -136 2099 0
49 -135 2106 0
49 -136 2106 0
49 -135 2154 0
49 -136 2154 0
49 -135 2156 0
49 -136 2156 0
49 -135 2166 0
49 -136 2166 0
49 -135 2167 0
49 -136 2167 0
49 -135 2532 0
49 -136 2532 0
49 -135 2854 0
49 -136 2854 0
49 -135 2856 0
49 -136 2856 0
49 -137 138 0
49 -137 2106 0
49 -137 2156 0
49 -137 2167 0
49 -138 2107 0
49 -139 140 0
49 -139 2102 0
49 -139 2248 0
49 -139 2250 0
49 -139 2253 0
49 -139 2255 0
49 -139 2258 0
49 -139 2259 0
49 -139 2260 0
49 -139 2261 0
49 -139 2338 0
49 -139 2340 0
49 -139 2342 0
49 -139 2343 0
49 -139 3221 0
49 -139 3227 0
49 -139 3229 0
49 -139 3230 0
49 -139 3231 0
49 -139 3232 0
49 -139 3377 0
49 -140 2248 0
49 -140 2250 0
49 -140 2258 0
49 -140 2259 0
49 -140 2260 0
49 -140 2261 0
49 -140 2338 0
49 -140 2340 0
49 -140 2342 0
49 -140 2343 0
49 -140 3230 0
49 -140 3231 0
49 -141 142 0
49 -141 2248 0
49 -141 2250 0
49 -141 2258 0
49 -141 2259 0
49 -141 2260 0
49 -141 2261 0
49 -141 2338 0
49 -141 2340 0
49 -141 2342 0
49 -141 2343 0
49 -141 3230 0
49 -142 2248 0
49 -142 2250 0
49 -142 2253 0
49 -142 2255 0
49 -142 2258 0
49 -142 2259 0
49 -142 2260 0
49 -142 2261 0
49 -142 2338 0
49 -142 2340 0
49 -142 2342 0
49 -142 2343 0
49 -142 3221 0
49 -142 3227 0
49 -142 3229 0
49 -142 3230 0
49 -142 3231 0
49 -142 3232 0
49 -143 144 0
49 -143 2107 0
49 -143 2277 0
49 -143 2281 0
49 -144 2106 0
49 -144 2107 0
49 -144 2158 0
49 -144 2276 0
49 -144 2277 0
49 -144 2280 0
49 -144 2463 0
49 -144 2527 0
49 -144 2532 0
49 -144 3514 0
49 -144 3515 0
49 -145 146 0
49 -145 2156 0
49 -145 2158 0
49 -145 2292 0
49 -145 2296 0
49 -145 2768 0
49 -147 148 0
49 -147 2110 0
49 -147 2111 0
49 -147 2332 0
49 -147 2335 0
49 -147 2338 0
49 -147 2340 0
49 -147 2342 0
49 -147 2343 0
49 -147 2344 0
49 -147 2350 0
49 -147 3234 0
49 -147 3235 0
49 -147 3236 0
49 -147 3240 0
49 -148 2110 0
49 -148 2111 0
49 -148 2332 0
49 -148 2335 0
49 -148 2338 0
49 -148 2340 0
49 -148 2342 0
49 -148 2343 0
49 -148 2344 0
49 -148 2345 0
49 -148 2346 0
49 -148 2350 0
49 -148 3234 0
49 -148 3235 0
49 -148 3236 0
49 -148 3240 0
49 -149 150 0
49 -149 2332 0
49 -149 2340 0
49 -149 2343 0
49 -149 3234 0
49 -149 3236 0
49 -150 2332 0
49 -150 2335 0
49 -150 2338 0
49 -150 2340 0
49 -150 2342 0
49 -150 2343 0
49 -150 3234 0
49 -150 3235 0
49 -150 3236 0
49 -150 3240 0
49 -151 152 0
49 -151 2115 0
49 -151 2326 0
49 -151 2736 0
49 -153 154 0
49 -153 2326 0
49 -153 2736 0
49 -155 156 0
49 -155 2144 0
49 -155 3686 0
49 -155 3687 0
49 -156 3686 0
49 -156 3687 0
49 -157 158 0
49 -157 2123 0
49 -157 2158 0
49 -157 2160 0
49 -157 2526 0
49 -157 2527 0
49 -157 2532 0
49 -157 2533 0
49 -157 2750 0
49 -157 2854 0
49 -157 2856 0
49 -157 3322 0
49 -157 3352 0
49 -157 3517 0
49 -157 3880 0
49 -158 2156 0
49 -158 2158 0
49 -158 2159 0
49 -158 2167 0
49 -158 2280 0
49 -158 2281 0
49 -158 2282 0
49 -158 2462 0
49 -158 2463 0
49 -158 2466 0
49 -158 2526 0
49 -158 2527 0
49 -158 2532 0
49 -158 2533 0
49 -158 2854 0
49 -158 2856 0
49 -158 2927 0
49 -158 3352 0
49 -158 3514 0
49 -158 3515 0
49 -159 160 0
49 -159 2123 0
49 -159 2156 0
49 -159 2158 0
49 -159 2160 0
49 -159 2167 0
49 -159 2281 0
49 -159 2292 0
49 -159 2293 0
49 -159 2294 0
49 -159 2296 0
49 -159 2416 0
49 -159 2417 0
49 -159 2426 0
49 -159 2427 0
49 -159 2463 0
49 -159 2466 0
49 -159 2467 0
49 -159 2527 0
49 -159 2532 0
49 -159 2596 0
49 -159 2597 0
49 -159 2924 0
49 -159 3278 0
49 -159 3279 0
49 -159 3358 0
49 -159 3361 0
49 -159 3515 0
49 -160 2292 0
49 -160 2293 0
49 -160 2294 0
49 -160 2296 0
49 -160 2416 0
49 -160 2417 0
49 -160 2424 0
49 -160 2426 0
49 -160 2427 0
49 -160 2466 0
49 -160 2467 0
49 -160 2527 0
49 -160 2532 0
49 -160 2596 0
49 -160 2597 0
49 -160 3278 0
49 -160 3279 0
49 -161 162 0
49 -161 2158 0
49 -161 2159 0
49 -161 2160 0
49 -161 -2165 2165 0
49 -161 2167 0
49 -161 2170 0
49 -161 2171 0
49 -161 2277 0
49 -161 2281 0
49 -161 2283 0
49 -161 2292 0
49 -161 2293 0
49 -161 2294 0
49 -161 2296 0
49 -161 2416 0
49 -161 2417 0
49 -161 2426 0
49 -161 2427 0
49 -161 2462 0
49 -161 2463 0
49 -161 2466 0
49 -161 2467 0
49 -161 2526 0
49 -161 2527 0
49 -161 2532 0
49 -161 2533 0
49 -161 2596 0
49 -161 2597 0
49 -161 2750 0
49 -161 2751 0
49 -161 2854 0
49 -161 2860 0
49 -161 2861 0
49 -161 2897 0
49 -161 2899 0
49 -161 2924 0
49 -161 3000 0
49 -161 3001 0
49 -161 3225 0
49 -161 3278 0
49 -161 3279 0
49 -161 3514 0
49 -161 3515 0
49 -161 3517 0
49 -161 3518 0
49 -161 3880 0
49 -162 2158 0
49 -162 2159 0
49 -162 -2162 2162 0
49 -162 2167 0
49 -162 2171 0
49 -162 2292 0
49 -162 2294 0
49 -162 2416 0
49 -162 2417 0
49 -162 2426 0
49 -162 2427 0
49 -162 2462 0
49 -162 2463 0
49 -162 2466 0
49 -162 2467 0
49 -162 2526 0
49 -162 2527 0
49 -162 2532 0
49 -162 2533 0
49 -162 2596 0
49 -162 2597 0
49 -162 2854 0
49 -162 2856 0
49 -162 2861 0
49 -162 3000 0
49 -162 3278 0
49 -162 3279 0
49 -162 3352 0
49 -162 3488 0
49 -162 3514 0
49 -162 3515 0
49 -163 164 0
49 -163 -2134 2134 0
49 -164 -2129 2129 0
49 -164 -2134 2134 0
49 -164 2174 0
49 -165 170 0
49 -166 171 0
49 -167 172 0
49 -168 173 0
49 -169 174 0
49 -170 2174 0
49 -171 2174 0
49 -172 2174 0
49 -173 -2177 2180 0
49 -174 -2179 2182 0
49 -170 3202 0
49 -171 3203 0
49 -172 3205 0
49 -175 176 0
49 -175 2139 0
49 -175 2422 0
49 -175 2424 0
49 -175 2596 0
49 -175 2597 0
49 -175 2924 0
49 -175 2927 0
49 -176 2138 0
49 -176 2139 0
49 -176 2286 0
49 -176 2422 0
49 -176 2424 0
49 -176 2596 0
49 -176 2597 0
49 -176 2924 0
49 -176 2927 0
49 -177 178 0
49 -177 2422 0
49 -177 2424 0
49 -177 2596 0
49 -177 2597 0
49 -177 2924 0
49 -177 2927 0
49 -178 2286 0
49 -178 2422 0
49 -178 2424 0
49 -178 2596 0
49 -178 2597 0
49 -178 2924 0
49 -178 2927 0
49 -179 180 0
49 -179 2142 0
49 -179 2143 0
49 -179 2620 0
49 -179 2623 0
49 -179 3656 0
49 -179 3659 0
49 -180 2142 0
49 -180 2143 0
49 -180 2620 0
49 -180 2623 0
49 -180 3656 0
49 -180 3659 0
49 -181 182 0
49 -181 3654 0
49 -181 3655 0
49 -182 3654 0
49 -183 188 0
49 -184 189 0
49 -185 190 0
49 -186 191 0
49 -187 192 0
49 -183 3654 0
49 -184 3654 0
49 -185 3654 0
49 -186 3654 0
49 -187 3654 0
49 -183 3655 0
49 -184 3655 0
49 -185 3655 0
49 -186 3655 0
49 -187 3655 0
49 -183 3686 0
49 -184 3686 0
49 -185 3686 0
49 -186 3686 0
49 -187 3686 0
49 -183 3687 0
49 -184 3687 0
49 -185 3687 0
49 -186 3687 0
49 -187 3687 0
49 -188 3654 0
49 -189 3654 0
49 -190 3654 0
49 -191 3654 0
49 -192 3654 0
49 -188 3655 0
49 -189 3655 0
49 -190 3655 0
49 -191 3655 0
49 -192 3655 0
49 -188 3686 0
49 -189 3686 0
49 -190 3686 0
49 -191 3686 0
49 -192 3686 0
49 -188 3687 0
49 -189 3687 0
49 -190 3687 0
49 -191 3687 0
49 -192 3687 0
49 -193 195 0
49 -194 196 0
49 -193 2158 0
49 -194 2158 0
49 -193 2167 0
49 -194 2167 0
49 -193 2280 0
49 -194 2280 0
49 -193 2281 0
49 -194 2281 0
49 -193 2856 0
49 -194 2856 0
49 -193 2927 0
49 -194 2927 0
49 -195 2281 0
49 -196 2281 0
49 -195 -2857 0
49 -197 198 0
49 -197 2167 0
49 -197 2281 0
49 -198 2166 0
49 -198 2167 0
49 -198 2280 0
49 -198 2281 0
49 -199 202 0
49 -200 203 0
49 -201 204 0
49 -199 2166 0
49 -200 2166 0
49 -201 2166 0
49 -199 2167 0
49 -200 2167 0
49 -201 2167 0
49 -199 2280 0
49 -200 2280 0
49 -201 2280 0
49 -199 2281 0
49 -200 2281 0
49 -201 2281 0
49 -199 2282 0
49 -200 2282 0
49 -201 2282 0
49 -199 3000 0
49 -200 3000 0
49 -201 3000 0
49 -202 2166 0
49 -203 2166 0
49 -204 2166 0
49 -202 2167 0
49 -203 2167 0
49 -204 2167 0
49 -202 2171 0
49 -203 2171 0
49 -204 2171 0
49 -202 2280 0
49 -203 2280 0
49 -204 2280 0
49 -202 2281 0
49 -203 2281 0
49 -204 2281 0
49 -202 2282 0
49 -203 2282 0
49 -204 2282 0
49 -202 2283 0
49 -203 2283 0
49 -204 2283 0
49 -202 2861 0
49 -203 2861 0
49 -204 2861 0
49 -202 3000 0
49 -203 3000 0
49 -204 3000 0
49 -205 206 0
49 -205 2280 0
49 -205 2281 0
49 -205 2856 0
49 -206 2281 0
49 -207 208 0
49 -207 2234 0
49 -207 2410 0
49 -207 3342 0
49 -208 2411 0
49 -208 3344 0
49 -209 210 0
49 -209 2276 0
49 -209 2426 0
49 -209 2427 0
49 -209 2526 0
49 -209 2750 0
49 -209 2924 0
49 -209 2927 0
49 -209 3000 0
49 -209 3001 0
49 -209 3224 0
49 -209 3352 0
49 -209 3358 0
49 -209 3361 0
49 -209 3880 0
49 -210 2426 0
49 -210 2427 0
49 -210 2751 0
49 -210 2924 0
49 -210 2927 0
49 -210 3000 0
49 -210 3354 0
49 -211 212 0
49 -211 3462 0
49 -211 3468 0
49 -212 3462 0
49 -212 3468 0
49 -212 3474 0
49 -212 3475 0
49 -213 222 0
49 -214 223 0
49 -215 224 0
49 -216 225 0
49 -217 226 0
49 -218 227 0
49 -219 228 0
49 -220 229 0
49 -221 230 0
49 -222 -3201 0
49 -223 -3202 0
49 -224 -3203 0
49 -225 -3204 0
49 -226 -3205 0
49 -231 232 0
49 -231 2195 0
49 -231 2354 0
49 -231 2355 0
49 -231 2748 0
49 -231 2770 0
49 -231 2771 0
49 -231 2808 0
49 -231 2809 0
49 -231 2862 0
49 -231 2863 0
49 -231 3434 0
49 -231 3436 0
49 -232 2194 0
49 -232 2195 0
49 -232 2354 0
49 -232 2355 0
49 -232 2748 0
49 -232 2749 0
49 -232 2770 0
49 -232 2771 0
49 -232 2808 0
49 -232 2809 0
49 -232 2862 0
49 -232 2863 0
49 -232 3434 0
49 -232 3436 0
49 -233 234 0
49 -233 2360 0
49 -235 236 0
49 -236 2287 0
49 -236 2355 0
49 -237 245 0
49 -238 246 0
49 -239 247 0
49 -240 248 0
49 -241 249 0
49 -242 250 0
49 -243 251 0
49 -244 252 0
49 -237 2330 0
49 -238 2330 0
49 -239 2330 0
49 -240 2330 0
49 -241 2330 0
49 -242 2330 0
49 -243 2330 0
49 -244 2330 0
49 -237 2331 0
49 -238 2331 0
49 -239 2331 0
49 -240 2331 0
49 -241 2331 0
49 -242 2331 0
49 -243 2331 0
49 -244 2331 0
49 -245 2330 0
49 -246 2330 0
49 -247 2330 0
49 -248 2330 0
49 -249 2330 0
49 -250 2330 0
49 -251 2330 0
49 -252 2330 0
49 -245 2331 0
49 -246 2331 0
49 -247 2331 0
49 -248 2331 0
49 -249 2331 0
49 -250 2331 0
49 -251 2331 0
49 -252 2331 0
49 -245 2450 0
49 -246 2450 0
49 -247 2450 0
49 -248 2450 0
49 -249 2450 0
49 -250 2450 0
49 -251 2450 0
49 -252 2450 0
49 -245 2451 0
49 -246 2451 0
49 -247 2451 0
49 -248 2451 0
49 -249 2451 0
49 -250 2451 0
49 -251 2451 0
49 -252 2451 0
49 -253 254 0
49 -253 2328 0
49 -253 2329 0
49 -253 3277 0
49 -254 2328 0
49 -254 2329 0
49 -254 3276 0
49 -254 3277 0
49 -255 263 0
49 -256 264 0
49 -257 265 0
49 -258 266 0
49 -259 267 0
49 -260 268 0
49 -261 269 0
49 -262 270 0
49 -271 273 0
49 -272 274 0
49 -271 3342 0
49 -272 3343 0
49 -271 3344 0
49 -272 3344 0
49 -273 3344 0
49 -274 3345 0
49 -275 276 0
49 -276 2238 0
49 -277 278 0
49 -278 2783 0
49 -279 282 0
49 -280 283 0
49 -281 284 0
49 -279 2246 0
49 -280 2246 0
49 -281 2246 0
49 -279 2248 0
49 -280 2248 0
49 -281 2248 0
49 -279 2250 0
49 -280 2250 0
49 -281 2250 0
49 -279 2252 0
49 -280 2252 0
49 -281 2252 0
49 -279 2253 0
49 -280 2253 0
49 -281 2253 0
49 -279 2254 0
49 -280 2254 0
49 -281 2254 0
49 -279 2255 0
49 -280 2255 0
49 -281 2255 0
49 -279 2272 0
49 -280 2272 0
49 -281 2272 0
49 -279 2273 0
49 -280 2273 0
49 -281 2273 0
49 -279 2738 0
49 -280 2738 0
49 -281 2738 0
49 -279 2739 0
49 -280 2739 0
49 -281 2739 0
49 -279 2778 0
49 -280 2778 0
49 -281 2778 0
49 -279 2780 0
49 -280 2780 0
49 -281 2780 0
49 -279 2832 0
49 -280 2832 0
49 -281 2832 0
49 -279 2876 0
49 -280 2876 0
49 -281 2876 0
49 -279 2877 0
49 -280 2877 0
49 -281 2877 0
49 -279 3218 0
49 -280 3219 0
49 -281 -3219 3220 0
49 -279 3221 0
49 -280 3221 0
49 -281 3221 0
49 -279 3226 0
49 -280 3226 0
49 -281 3226 0
49 -279 3227 0
49 -280 3227 0
49 -281 3227 0
49 -279 3228 0
49 -280 3228 0
49 -281 3228 0
49 -279 3229 0
49 -280 3229 0
49 -281 3229 0
49 -282 2248 0
49 -283 2248 0
49 -284 2248 0
49 -282 2250 0
49 -283 2250 0
49 -284 2250 0
49 -282 2253 0
49 -283 2253 0
49 -284 2253 0
49 -282 2255 0
49 -283 2255 0
49 -284 2255 0
49 -282 2272 0
49 -283 2272 0
49 -284 2272 0
49 -282 2273 0
49 -283 2273 0
49 -284 2273 0
49 -282 2738 0
49 -283 2738 0
49 -284 2738 0
49 -282 2778 0
49 -283 2778 0
49 -284 2778 0
49 -282 2780 0
49 -283 2780 0
49 -284 2780 0
49 -282 2832 0
49 -283 2832 0
49 -284 2832 0
49 -282 2876 0
49 -283 2876 0
49 -284 2876 0
49 -282 2877 0
49 -283 2877 0
49 -284 2877 0
49 -282 3221 0
49 -283 3222 0
49 -284 -3222 3223 0
49 -282 3227 0
49 -283 3227 0
49 -284 3227 0
49 -282 3229 0
49 -283 3229 0
49 -284 3229 0
49 -285 286 0
49 -285 2248 0
49 -285 2250 0
49 -285 2272 0
49 -285 2273 0
49 -285 2738 0
49 -285 2778 0
49 -285 2780 0
49 -285 2832 0
49 -285 2876 0
49 -285 2877 0
49 -286 2248 0
49 -286 2250 0
49 -286 2253 0
49 -286 2255 0
49 -286 2272 0
49 -286 2273 0
49 -286 2738 0
49 -286 2739 0
49 -286 2778 0
49 -286 2780 0
49 -286 2832 0
49 -286 2876 0
49 -286 2877 0
49 -286 3221 0
49 -286 3227 0
49 -286 3229 0
49 -287 289 0
49 -288 290 0
49 -287 -2779 0
49 -289 2778 0
49 -290 2778 0
49 -289 -2781 0
49 -289 -2831 0
49 -289 2832 0
49 -290 2832 0
49 -289 3230 0
49 -290 3230 0
49 -291 292 0
49 -291 2255 0
49 -291 2738 0
49 -291 2739 0
49 -291 2778 0
49 -291 2780 0
49 -291 2830 0
49 -291 3221 0
49 -291 3227 0
49 -291 3229 0
49 -291 3230 0
49 -291 3231 0
49 -291 3232 0
49 -291 3233 0
49 -292 2738 0
49 -292 2778 0
49 -292 2780 0
49 -292 2830 0
49 -292 2832 0
49 -292 3230 0
49 -292 3231 0
49 -292 3232 0
49 -293 294 0
49 -293 2258 0
49 -293 2259 0
49 -293 2260 0
49 -293 2261 0
49 -293 2338 0
49 -293 2340 0
49 -293 2342 0
49 -293 2343 0
49 -293 2738 0
49 -293 2739 0
49 -293 2778 0
49 -293 2780 0
49 -293 3221 0
49 -293 3227 0
49 -293 3229 0
49 -293 3230 0
49 -293 3231 0
49 -293 3232 0
49 -293 3233 0
49 -294 2258 0
49 -294 2259 0
49 -294 2260 0
49 -294 2261 0
49 -294 2338 0
49 -294 2340 0
49 -294 2342 0
49 -294 2343 0
49 -294 2738 0
49 -294 2778 0
49 -294 2780 0
49 -294 2830 0
49 -294 3230 0
49 -294 3231 0
49 -294 3232 0
49 -295 296 0
49 -295 2298 0
49 -297 298 0
49 -298 2261 0
49 -298 2340 0
49 -298 2343 0
49 -298 3230 0
49 -299 300 0
49 -299 2340 0
49 -299 2343 0
49 -299 3230 0
49 -301 302 0
49 -301 2286 0
49 -301 2287 0
49 -301 2924 0
49 -302 2285 0
49 -302 2286 0
49 -302 2287 0
49 -302 2290 0
49 -302 2645 0
49 -303 304 0
49 -304 2828 0
49 -305 308 0
49 -306 309 0
49 -307 310 0
49 -305 2272 0
49 -306 2272 0
49 -307 2272 0
49 -305 2273 0
49 -306 2273 0
49 -307 2273 0
49 -305 3385 0
49 -306 3386 0
49 -307 3387 0
49 -308 2273 0
49 -309 2273 0
49 -310 2273 0
49 -311 312 0
49 -311 2876 0
49 -313 314 0
49 -313 2327 0
49 -313 2434 0
49 -313 2442 0
49 -313 2724 0
49 -313 3252 0
49 -313 3262 0
49 -314 2428 0
49 -314 2441 0
49 -314 2460 0
49 -314 2598 0
49 -314 3256 0
49 -314 3262 0
49 -314 3313 0
49 -315 316 0
49 -317 318 0
49 -319 320 0
49 -319 2287 0
49 -319 2856 0
49 -319 3278 0
49 -321 322 0
49 -321 2286 0
49 -321 2287 0
49 -321 2856 0
49 -321 -3003 3003 0
49 -321 3278 0
49 -322 2285 0
49 -322 2286 0
49 -322 2287 0
49 -322 3000 0
49 -322 3002 0
49 -322 -3005 3005 0
49 -323 324 0
49 -323 2286 0
49 -323 2287 0
49 -323 2290 0
49 -323 2291 0
49 -323 2644 0
49 -323 2645 0
49 -323 2859 0
49 -323 3002 0
49 -323 3004 0
49 -324 2286 0
49 -324 2287 0
49 -324 2290 0
49 -324 2645 0
49 -324 3002 0
49 -325 326 0
49 -327 328 0
49 -328 2292 0
49 -328 2296 0
49 -329 330 0
49 -329 2292 0
49 -329 2293 0
49 -329 2294 0
49 -329 2296 0
49 -329 2924 0
49 -330 2292 0
49 -330 2293 0
49 -330 2294 0
49 -330 2296 0
49 -330 2645 0
49 -331 332 0
49 -331 2768 0
49 -332 2296 0
49 -332 2597 0
49 -332 2768 0
49 -332 2769 0
49 -333 335 0
49 -334 336 0
49 -333 2768 0
49 -334 2768 0
49 -335 2597 0
49 -336 2597 0
49 -337 339 0
49 -338 340 0
49 -339 -2306 0
49 -341 346 0
49 -342 347 0
49 -343 348 0
49 -344 349 0
49 -345 350 0
49 -351 352 0
49 -351 2740 0
49 -351 2741 0
49 -351 2822 0
49 -351 2823 0
49 -352 2314 0
49 -352 2740 0
49 -352 2741 0
49 -352 2822 0
49 -352 2823 0
49 -352 2999 0
49 -352 3350 0
49 -353 354 0
49 -353 2740 0
49 -353 2741 0
49 -353 2811 0
49 -353 2822 0
49 -353 2823 0
49 -353 3350 0
49 -354 2740 0
49 -354 2741 0
49 -354 2822 0
49 -354 2823 0
49 -354 2999 0
49 -354 3350 0
49 -354 3351 0
49 -355 356 0
49 -355 2319 0
49 -355 2410 0
49 -355 2414 0
49 -355 3282 0
49 -355 3342 0
49 -355 3344 0
49 -356 2411 0
49 -356 3342 0
49 -356 3344 0
49 -357 358 0
49 -357 2410 0
49 -357 2414 0
49 -357 3282 0
49 -357 3342 0
49 -357 3344 0
49 -358 2411 0
49 -358 3342 0
49 -358 3344 0
49 -359 360 0
49 -359 2808 0
49 -359 2809 0
49 -359 2882 0
49 -359 2883 0
49 -360 2360 0
49 -360 2753 0
49 -360 2808 0
49 -360 2809 0
49 -360 2824 0
49 -360 2882 0
49 -360 2883 0
49 -361 363 0
49 -362 364 0
49 -361 2326 0
49 -362 2326 0
49 -361 2327 0
49 -362 2327 0
49 -361 -2367 0
49 -361 2429 0
49 -362 2429 0
49 -361 2736 0
49 -362 2736 0
49 -361 2737 0
49 -362 2737 0
49 -361 3244 0
49 -362 3244 0
49 -361 3246 0
49 -362 3246 0
49 -363 2326 0
49 -364 2326 0
49 -363 2327 0
49 -364 2327 0
49 -363 -2365 0
49 -363 2366 0
49 -364 2366 0
49 -363 2736 0
49 -364 2736 0
49 -363 2737 0
49 -364 2737 0
49 -365 366 0
49 -365 2429 0
49 -366 2736 0
49 -367 368 0
49 -368 3210 0
49 -369 370 0
49 -369 2450 0
49 -371 374 0
49 -372 375 0
49 -373 376 0
49 -374 3234 0
49 -375 3234 0
49 -376 3234 0
49 -374 3236 0
49 -375 3236 0
49 -376 3236 0
49 -377 379 0
49 -378 380 0
49 -377 2343 0
49 -378 2343 0
49 -377 3230 0
49 -378 3230 0
49 -381 382 0
49 -381 3230 0
49 -383 384 0
49 -383 3234 0
49 -383 3235 0
49 -383 3236 0
49 -383 3240 0
49 -384 2350 0
49 -384 3234 0
49 -384 3235 0
49 -384 3236 0
49 -384 3240 0
49 -385 389 0
49 -386 390 0
49 -387 391 0
49 -388 392 0
49 -385 3234 0
49 -386 3234 0
49 -387 3234 0
49 -388 3234 0
49 -385 3235 0
49 -386 3235 0
49 -387 3235 0
49 -388 3235 0
49 -385 3236 0
49 -386 3236 0
49 -387 3236 0
49 -388 3236 0
49 -385 3240 0
49 -386 3240 0
49 -387 3240 0
49 -388 3240 0
49 -389 3234 0
49 -390 3234 0
49 -391 3234 0
49 -392 3234 0
49 -389 3235 0
49 -390 3235 0
49 -391 3235 0
49 -392 3235 0
49 -389 3236 0
49 -390 3236 0
49 -391 3236 0
49 -392 3236 0
49 -389 3240 0
49 -390 3240 0
49 -391 3240 0
49 -392 3241 0
49 -393 394 0
49 -393 2770 0
49 -393 2771 0
49 -393 2808 0
49 -393 2809 0
49 -393 2862 0
49 -393 2863 0
49 -393 3434 0
49 -393 3436 0
49 -394 2770 0
49 -394 2808 0
49 -394 2862 0
49 -394 3434 0
49 -395 399 0
49 -396 400 0
49 -397 401 0
49 -398 402 0
49 -395 2808 0
49 -396 2808 0
49 -397 2808 0
49 -398 2808 0
49 -395 2809 0
49 -396 2809 0
49 -397 2809 0
49 -398 2809 0
49 -395 2882 0
49 -396 2882 0
49 -397 2882 0
49 -398 2882 0
49 -395 2883 0
49 -396 2883 0
49 -397 2883 0
49 -398 2883 0
49 -399 2808 0
49 -400 2808 0
49 -401 2808 0
49 -402 2808 0
49 -399 2809 0
49 -400 2809 0
49 -401 2809 0
49 -402 2809 0
49 -399 2882 0
49 -400 2882 0
49 -401 2882 0
49 -402 2882 0
49 -399 2883 0
49 -400 2883 0
49 -401 2883 0
49 -402 2883 0
49 -403 405 0
49 -404 406 0
49 -403 2428 0
49 -404 2428 0
49 -403 2429 0
49 -404 2429 0
49 -403 2438 0
49 -404 2438 0
49 -403 2439 0
49 -404 2439 0
49 -403 2454 0
49 -404 2454 0
49 -403 2455 0
49 -404 2455 0
49 -403 2536 0
49 -404 2536 0
49 -403 2537 0
49 -404 2537 0
49 -403 2598 0
49 -404 2598 0
49 -403 2599 0
49 -404 2599 0
49 -403 2736 0
49 -404 2736 0
49 -403 2737 0
49 -404 2737 0
49 -403 3244 0
49 -404 3244 0
49 -403 3245 0
49 -404 3245 0
49 -403 3246 0
49 -404 3246 0
49 -403 3247 0
49 -404 3247 0
49 -405 2428 0
49 -406 2428 0
49 -405 2429 0
49 -406 2429 0
49 -405 2438 0
49 -406 2438 0
49 -405 2454 0
49 -406 2454 0
49 -405 2455 0
49 -406 2455 0
49 -405 2536 0
49 -406 2536 0
49 -405 2537 0
49 -406 2537 0
49 -405 2598 0
49 -406 2598 0
49 -405 2599 0
49 -406 2599 0
49 -405 2736 0
49 -406 2736 0
49 -405 2737 0
49 -406 2737 0
49 -405 3244 0
49 -406 3244 0
49 -405 3245 0
49 -406 3245 0
49 -405 3246 0
49 -406 3246 0
49 -405 3247 0
49 -406 3247 0
49 -407 408 0
49 -407 2390 0
49 -407 2410 0
49 -407 2411 0
49 -407 2412 0
49 -407 2413 0
49 -407 2414 0
49 -407 2415 0
49 -408 2410 0
49 -408 2411 0
49 -408 2412 0
49 -408 2414 0
49 -408 2415 0
49 -409 420 0
49 -410 421 0
49 -411 422 0
49 -412 423 0
49 -413 424 0
49 -414 425 0
49 -415 426 0
49 -416 427 0
49 -417 428 0
49 -418 419 0
49 -409 -2395 0
49 -410 -2396 0
49 -411 -2397 0
49 -412 -2398 0
49 -413 -2399 0
49 -414 -2400 0
49 -419 -2393 0
49 -419 -2406 0
49 -429 430 0
49 -429 2410 0
49 -429 2411 0
49 -429 2412 0
49 -429 2414 0
49 -429 2415 0
49 -429 2594 0
49 -429 2595 0
49 -430 2410 0
49 -430 2411 0
49 -430 2412 0
49 -430 2413 0
49 -430 2414 0
49 -430 2415 0
49 -430 2594 0
49 -430 2595 0
49 -431 440 0
49 -432 441 0
49 -433 442 0
49 -434 443 0
49 -435 444 0
49 -436 445 0
49 -437 446 0
49 -438 447 0
49 -439 448 0
49 -431 2410 0
49 -432 2410 0
49 -433 2410 0
49 -434 2410 0
49 -435 2410 0
49 -436 2410 0
49 -437 2410 0
49 -438 2410 0
49 -439 2410 0
49 -431 2411 0
49 -432 2411 0
49 -433 2411 0
49 -434 2411 0
49 -435 2411 0
49 -436 2411 0
49 -437 2411 0
49 -438 2411 0
49 -439 2411 0
49 -440 2410 0
49 -441 2410 0
49 -442 2410 0
49 -443 2410 0
49 -444 2410 0
49 -445 2410 0
49 -446 2410 0
49 -447 2410 0
49 -448 2410 0
49 -440 2411 0
49 -441 2411 0
49 -442 2411 0
49 -443 2411 0
49 -444 2411 0
49 -445 2411 0
49 -446 2411 0
49 -447 2411 0
49 -448 2411 0
49 -449 450 0
49 -449 2415 0
49 -451 452 0
49 -451 2414 0
49 -451 2415 0
49 -452 2414 0
49 -452 2415 0
49 -453 454 0
49 -453 3342 0
49 -453 3344 0
49 -454 3344 0
49 -455 456 0
49 -455 2426 0
49 -455 2597 0
49 -455 3278 0
49 -456 2422 0
49 -456 2426 0
49 -456 2427 0
49 -456 2467 0
49 -456 2596 0
49 -456 2597 0
49 -456 3278 0
49 -456 3279 0
49 -457 458 0
49 -457 2422 0
49 -457 2424 0
49 -457 2530 0
49 -457 2531 0
49 -457 3488 0
49 -458 2422 0
49 -458 2424 0
49 -458 2530 0
49 -458 2531 0
49 -458 3488 0
49 -458 3490 0
49 -459 460 0
49 -460 2736 0
49 -460 3320 0
49 -461 463 0
49 -462 464 0
49 -461 2597 0
49 -462 2597 0
49 -463 2596 0
49 -464 2596 0
49 -463 2597 0
49 -464 2597 0
49 -465 466 0
49 -466 2467 0
49 -466 2597 0
49 -466 2927 0
49 -466 3278 0
49 -467 468 0
49 -467 2454 0
49 -467 2458 0
49 -467 2536 0
49 -467 2599 0
49 -467 2721 0
49 -467 3245 0
49 -467 3247 0
49 -469 471 0
49 -470 472 0
49 -469 2450 0
49 -470 2450 0
49 -469 2451 0
49 -470 2451 0
49 -469 2722 0
49 -470 2722 0
49 -469 2723 0
49 -470 2723 0
49 -469 3302 0
49 -470 3303 0
49 -469 3305 0
49 -470 3305 0
49 -469 3318 0
49 -470 3318 0
49 -469 3320 0
49 -470 3320 0
49 -471 2450 0
49 -472 2450 0
49 -471 2451 0
49 -472 2451 0
49 -471 2722 0
49 -472 2722 0
49 -471 3305 0
49 -472 3306 0
49 -471 3318 0
49 -472 3318 0
49 -471 3320 0
49 -472 3320 0
49 -473 475 0
49 -474 476 0
49 -473 2440 0
49 -474 2440 0
49 -473 2441 0
49 -474 2441 0
49 -473 -2445 0
49 -473 2454 0
49 -474 2454 0
49 -473 2455 0
49 -474 2455 0
49 -473 3248 0
49 -474 3248 0
49 -473 3252 0
49 -474 3252 0
49 -475 2440 0
49 -476 2440 0
49 -475 2441 0
49 -476 2441 0
49 -475 2442 0
49 -476 2442 0
49 -475 -2449 0
49 -475 2454 0
49 -476 2454 0
49 -475 2455 0
49 -476 2455 0
49 -475 2724 0
49 -476 2724 0
49 -475 3248 0
49 -476 3248 0
49 -475 3252 0
49 -476 3252 0
49 -477 478 0
49 -477 2454 0
49 -477 2455 0
49 -477 2536 0
49 -477 2537 0
49 -477 2598 0
49 -477 2599 0
49 -477 2736 0
49 -477 2737 0
49 -477 3244 0
49 -477 3245 0
49 -477 3246 0
49 -477 3247 0
49 -478 2454 0
49 -478 2455 0
49 -478 2536 0
49 -478 2537 0
49 -478 2598 0
49 -478 2599 0
49 -478 2736 0
49 -478 2737 0
49 -478 3244 0
49 -478 3245 0
49 -478 3246 0
49 -478 3247 0
49 -479 480 0
49 -479 2600 0
49 -479 2601 0
49 -479 3248 0
49 -479 3252 0
49 -480 2601 0
49 -480 3248 0
49 -481 485 0
49 -482 486 0
49 -483 487 0
49 -484 488 0
49 -481 2454 0
49 -482 2454 0
49 -483 2454 0
49 -484 2454 0
49 -481 2455 0
49 -482 2455 0
49 -483 2455 0
49 -484 2455 0
49 -485 2454 0
49 -486 2454 0
49 -487 2454 0
49 -488 2454 0
49 -485 2455 0
49 -486 2455 0
49 -487 2455 0
49 -488 2455 0
49 -489 490 0
49 -489 2592 0
49 -490 2592 0
49 -490 2593 0
49 -491 492 0
49 -491 2592 0
49 -491 2593 0
49 -491 2764 0
49 -491 3276 0
49 -491 3277 0
49 -492 2592 0
49 -492 2593 0
49 -492 3276 0
49 -492 3277 0
49 -493 494 0
49 -494 2536 0
49 -494 2599 0
49 -494 3245 0
49 -494 3247 0
49 -495 496 0
49 -495 2600 0
49 -495 2601 0
49 -495 3356 0
49 -496 2600 0
49 -496 2601 0
49 -496 3356 0
49 -496 3357 0
49 -496 3368 0
49 -497 499 0
49 -498 500 0
49 -499 2721 0
49 -500 2721 0
49 -501 502 0
49 -501 3514 0
49 -501 3515 0
49 -502 3515 0
49 -503 504 0
49 -503 2498 0
49 -503 2592 0
49 -503 2593 0
49 -503 2712 0
49 -503 2713 0
49 -503 2714 0
49 -503 2716 0
49 -503 2718 0
49 -503 2735 0
49 -504 2498 0
49 -504 2501 0
49 -504 2592 0
49 -504 2593 0
49 -504 2712 0
49 -504 2713 0
49 -504 2714 0
49 -504 2716 0
49 -504 2718 0
49 -504 2734 0
49 -504 2735 0
49 -505 506 0
49 -505 2532 0
49 -505 2533 0
49 -505 2596 0
49 -505 2597 0
49 -505 3278 0
49 -505 3279 0
49 -506 2532 0
49 -506 2597 0
49 -506 3278 0
49 -507 516 0
49 -508 517 0
49 -509 518 0
49 -510 519 0
49 -511 520 0
49 -512 521 0
49 -513 522 0
49 -514 523 0
49 -515 524 0
49 -507 2486 0
49 -508 2486 0
49 -509 2486 0
49 -510 2486 0
49 -511 2486 0
49 -512 2487 0
49 -513 2488 0
49 -514 2489 0
49 -515 2490 0
49 -507 2492 0
49 -508 2492 0
49 -509 2492 0
49 -510 2492 0
49 -511 2492 0
49 -512 2492 0
49 -513 2492 0
49 -514 2492 0
49 -515 2492 0
49 -507 2504 0
49 -508 2504 0
49 -509 2504 0
49 -510 2505 0
49 -511 2506 0
49 -512 2507 0
49 -513 2508 0
49 -514 2509 0
49 -515 2510 0
49 -507 2512 0
49 -508 2512 0
49 -509 2512 0
49 -510 2512 0
49 -511 2512 0
49 -512 2512 0
49 -513 2512 0
49 -514 2512 0
49 -515 2513 0
49 -516 2486 0
49 -517 2486 0
49 -518 2486 0
49 -519 2486 0
49 -520 2486 0
49 -521 2486 0
49 -522 2486 0
49 -523 2486 0
49 -524 2486 0
49 -516 2492 0
49 -517 2492 0
49 -518 2492 0
49 -519 2492 0
49 -520 2492 0
49 -521 2492 0
49 -522 2492 0
49 -523 2492 0
49 -524 2492 0
49 -516 2504 0
49 -517 2504 0
49 -518 2504 0
49 -519 2504 0
49 -520 2504 0
49 -521 2504 0
49 -522 2504 0
49 -523 2504 0
49 -524 2505 0
49 -516 2512 0
49 -517 2512 0
49 -518 2512 0
49 -519 2512 0
49 -520 2512 0
49 -521 2512 0
49 -522 2512 0
49 -523 2512 0
49 -524 2512 0
49 -525 531 0
49 -526 532 0
49 -527 533 0
49 -528 534 0
49 -529 535 0
49 -530 536 0
49 -537 540 0
49 -538 541 0
49 -539 542 0
49 -537 2712 0
49 -538 2712 0
49 -539 2712 0
49 -537 2713 0
49 -538 2713 0
49 -539 2713 0
49 -537 2714 0
49 -538 2714 0
49 -539 2714 0
49 -537 2716 0
49 -538 2716 0
49 -539 2716 0
49 -537 3882 0
49 -538 3882 0
49 -539 3883 0
49 -537 3891 0
49 -538 3891 0
49 -539 3891 0
49 -540 2712 0
49 -541 2712 0
49 -542 2712 0
49 -540 2713 0
49 -541 2713 0
49 -542 2713 0
49 -540 2714 0
49 -541 2714 0
49 -542 2714 0
49 -540 2716 0
49 -541 2716 0
49 -542 2716 0
49 -540 3882 0
49 -541 3882 0
49 -542 3882 0
49 -540 3891 0
49 -541 3891 0
49 -542 3891 0
49 -543 551 0
49 -544 552 0
49 -545 553 0
49 -546 554 0
49 -547 555 0
49 -548 556 0
49 -549 557 0
49 -550 558 0
49 -559 560 0
49 -561 562 0
49 -562 3340 0
49 -562 3364 0
49 -563 564 0
49 -563 2594 0
49 -563 2595 0
49 -563 2600 0
49 -563 2601 0
49 -563 3368 0
49 -564 2594 0
49 -564 2595 0
49 -564 2600 0
49 -564 2601 0
49 -565 566 0
49 -565 2532 0
49 -565 2533 0
49 -565 3352 0
49 -566 2532 0
49 -567 568 0
49 -567 -3567 3567 0
49 -569 570 0
49 -571 572 0
49 -573 574 0
49 -573 3296 0
49 -575 576 0
49 -575 2599 0
49 -575 3245 0
49 -575 3247 0
49 -576 2598 0
49 -576 2599 0
49 -576 3244 0
49 -576 3245 0
49 -576 3246 0
49 -576 3247 0
49 -577 585 0
49 -578 586 0
49 -579 587 0
49 -580 588 0
49 -581 589 0
49 -582 590 0
49 -583 591 0
49 -584 592 0
49 -593 594 0
49 -593 2556 0
49 -593 2557 0
49 -593 2558 0
49 -593 2562 0
49 -594 2556 0
49 -594 2558 0
49 -594 2562 0
49 -595 596 0
49 -595 2558 0
49 -595 2562 0
49 -596 2558 0
49 -596 2562 0
49 -597 601 0
49 -598 602 0
49 -599 603 0
49 -600 604 0
49 -597 3756 0
49 -598 3756 0
49 -599 3756 0
49 -600 3756 0
49 -597 -3761 0
49 -598 -3762 0
49 -599 -3763 0
49 -601 -3757 0
49 -602 -3758 0
49 -603 -3759 0
49 -605 607 0
49 -606 608 0
49 -605 2572 0
49 -606 2573 0
49 -607 2570 0
49 -608 2571 0
49 -607 2572 0
49 -608 2572 0
49 -609 611 0
49 -610 612 0
49 -609 2574 0
49 -610 2574 0
49 -609 2578 0
49 -610 2578 0
49 -609 3650 0
49 -610 3650 0
49 -611 2574 0
49 -612 2574 0
49 -611 2578 0
49 -612 2578 0
49 -611 3646 0
49 -612 3646 0
49 -613 617 0
49 -614 618 0
49 -615 619 0
49 -616 620 0
49 -613 -3508 0
49 -613 3646 0
49 -614 3646 0
49 -615 3646 0
49 -616 3646 0
49 -613 3650 0
49 -614 3651 0
49 -615 3652 0
49 -616 3653 0
49 -613 -3664 0
49 -614 -3665 0
49 -617 3646 0
49 -618 3647 0
49 -619 3648 0
49 -620 3649 0
49 -621 626 0
49 -622 627 0
49 -623 628 0
49 -624 629 0
49 -625 630 0
49 -621 2828 0
49 -622 2828 0
49 -623 2828 0
49 -624 2828 0
49 -625 2828 0
49 -621 2829 0
49 -622 2829 0
49 -623 2829 0
49 -624 2829 0
49 -625 2829 0
49 -626 2828 0
49 -627 2828 0
49 -628 2828 0
49 -629 2828 0
49 -630 2828 0
49 -626 2829 0
49 -627 2829 0
49 -628 2829 0
49 -629 2829 0
49 -630 2829 0
49 -631 632 0
49 -633 634 0
49 -633 2600 0
49 -633 2601 0
49 -634 2601 0
49 -635 636 0
49 -635 3278 0
49 -635 3279 0
49 -636 3278 0
49 -637 638 0
49 -637 3244 0
49 -637 3245 0
49 -637 3246 0
49 -637 3247 0
49 -638 3245 0
49 -638 3247 0
49 -639 640 0
49 -641 650 0
49 -642 651 0
49 -643 652 0
49 -644 653 0
49 -645 654 0
49 -646 655 0
49 -647 656 0
49 -648 657 0
49 -649 658 0
49 -641 -3013 0
49 -641 3017 0
49 -642 3018 0
49 -643 3019 0
49 -644 3020 0
49 -645 3021 0
49 -646 -3015 0
49 -647 -3016 0
49 -648 -3017 0
49 -649 -3018 0
49 -650 3009 0
49 -651 3010 0
49 -652 3011 0
49 -653 3012 0
49 -654 3013 0
49 -655 -3007 0
49 -656 -3008 0
49 -657 -3009 0
49 -658 -3010 0
49 -650 3014 0
49 -651 3014 0
49 -652 3014 0
49 -653 3014 0
49 -654 3014 0
49 -655 3017 0
49 -656 3018 0
49 -657 3019 0
49 -658 3020 0
49 -650 -3663 0
49 -651 -3664 0
49 -652 -3665 0
49 -659 662 0
49 -660 663 0
49 -661 664 0
49 -659 -3657 0
49 -660 -3658 0
49 -659 3659 0
49 -660 3659 0
49 -661 3659 0
49 -659 -3751 0
49 -662 -3661 0
49 -665 666 0
49 -665 2628 0
49 -667 669 0
49 -668 670 0
49 -671 676 0
49 -672 677 0
49 -673 678 0
49 -674 679 0
49 -675 680 0
49 -671 2916 0
49 -672 2916 0
49 -673 2916 0
49 -674 2916 0
49 -675 2916 0
49 -671 2920 0
49 -672 2920 0
49 -673 2920 0
49 -674 2920 0
49 -675 2920 0
49 -676 2916 0
49 -677 2916 0
49 -678 2916 0
49 -679 2916 0
49 -680 2916 0
49 -676 2920 0
49 -677 2920 0
49 -678 2920 0
49 -679 2920 0
49 -680 2920 0
49 -681 682 0
49 -681 2721 0
49 -682 2720 0
49 -682 2721 0
49 -682 2730 0
49 -683 684 0
49 -685 694 0
49 -686 695 0
49 -687 696 0
49 -688 697 0
49 -689 698 0
49 -690 699 0
49 -691 700 0
49 -692 701 0
49 -693 702 0
49 -685 2818 0
49 -686 2818 0
49 -687 2818 0
49 -688 2818 0
49 -689 2818 0
49 -690 2818 0
49 -691 2818 0
49 -692 2818 0
49 -693 2818 0
49 -685 2820 0
49 -686 2820 0
49 -687 2820 0
49 -688 2820 0
49 -689 2820 0
49 -690 2820 0
49 -691 2820 0
49 -692 2820 0
49 -693 2820 0
49 -694 2818 0
49 -695 2818 0
49 -696 2818 0
49 -697 2818 0
49 -698 2818 0
49 -699 2818 0
49 -700 2818 0
49 -701 2818 0
49 -702 2818 0
49 -694 2820 0
49 -695 2820 0
49 -696 2820 0
49 -697 2820 0
49 -698 2820 0
49 -699 2820 0
49 -700 2820 0
49 -701 2820 0
49 -702 2820 0
49 -703 706 0
49 -704 707 0
49 -705 708 0
49 -703 2670 0
49 -704 2670 0
49 -705 2670 0
49 -703 2671 0
49 -704 2671 0
49 -705 2671 0
49 -703 3438 0
49 -704 3438 0
49 -705 3439 0
49 -703 3441 0
49 -704 3441 0
49 -705 3441 0
49 -706 2670 0
49 -707 2670 0
49 -708 2670 0
49 -706 2671 0
49 -707 2671 0
49 -708 2671 0
49 -706 2672 0
49 -707 2672 0
49 -708 2672 0
49 -706 2874 0
49 -707 2874 0
49 -708 2874 0
49 -706 3438 0
49 -707 3438 0
49 -708 3438 0
49 -706 3441 0
49 -707 3441 0
49 -708 3441 0
49 -709 710 0
49 -711 712 0
49 -711 2834 0
49 -711 2841 0
49 -711 2850 0
49 -712 2834 0
49 -712 2841 0
49 -712 2848 0
49 -712 2850 0
49 -713 714 0
49 -715 725 0
49 -716 726 0
49 -717 727 0
49 -718 728 0
49 -719 729 0
49 -720 730 0
49 -721 731 0
49 -722 732 0
49 -723 733 0
49 -724 734 0
49 -715 2696 0
49 -716 2696 0
49 -717 2696 0
49 -718 2696 0
49 -719 2696 0
49 -720 2696 0
49 -721 2696 0
49 -722 2696 0
49 -723 2696 0
49 -724 2697 0
49 -715 2704 0
49 -716 2704 0
49 -717 2704 0
49 -718 2704 0
49 -719 2704 0
49 -720 2704 0
49 -721 2704 0
49 -722 2704 0
49 -723 2704 0
49 -724 2704 0
49 -715 3342 0
49 -716 3342 0
49 -717 3342 0
49 -718 3342 0
49 -719 3342 0
49 -720 3342 0
49 -721 3342 0
49 -722 3342 0
49 -723 3342 0
49 -724 3342 0
49 -715 3344 0
49 -716 3344 0
49 -717 3344 0
49 -718 3344 0
49 -719 3344 0
49 -720 3344 0
49 -721 3344 0
49 -722 3344 0
49 -723 3344 0
49 -724 3344 0
49 -725 2696 0
49 -726 2696 0
49 -727 2696 0
49 -728 2696 0
49 -729 2696 0
49 -730 2696 0
49 -731 2696 0
49 -732 2696 0
49 -733 2696 0
49 -734 2696 0
49 -725 2704 0
49 -726 2704 0
49 -727 2704 0
49 -728 2704 0
49 -729 2704 0
49 -730 2704 0
49 -731 2704 0
49 -732 2704 0
49 -733 2704 0
49 -734 2704 0
49 -725 3342 0
49 -726 3342 0
49 -727 3342 0
49 -728 3342 0
49 -729 3342 0
49 -730 3342 0
49 -731 3342 0
49 -732 3342 0
49 -733 3342 0
49 -734 3342 0
49 -725 3344 0
49 -726 3344 0
49 -727 3344 0
49 -728 3344 0
49 -729 3344 0
49 -730 3344 0
49 -731 3344 0
49 -732 3344 0
49 -733 3344 0
49 -734 3344 0
49 -735 743 0
49 -736 744 0
49 -737 745 0
49 -738 746 0
49 -739 747 0
49 -740 748 0
49 -741 749 0
49 -742 750 0
49 -751 752 0
49 -751 2714 0
49 -752 2714 0
49 -752 2716 0
49 -753 755 0
49 -754 756 0
49 -757 758 0
49 -757 2735 0
49 -757 2767 0
49 -758 2734 0
49 -758 2735 0
49 -759 760 0
49 -761 762 0
49 -762 3318 0
49 -763 764 0
49 -763 3248 0
49 -763 3252 0
49 -764 3248 0
49 -764 3252 0
49 -765 769 0
49 -766 770 0
49 -767 771 0
49 -768 772 0
49 -773 774 0
49 -775 776 0
49 -777 778 0
49 -777 2778 0
49 -777 2780 0
49 -777 2830 0
49 -777 2832 0
49 -778 2778 0
49 -778 2780 0
49 -778 2830 0
49 -778 2832 0
49 -778 3221 0
49 -778 3227 0
49 -778 3229 0
49 -778 3377 0
49 -779 780 0
49 -779 2818 0
49 -779 2820 0
49 -779 2822 0
49 -779 2823 0
49 -779 2852 0
49 -779 2853 0
49 -780 2820 0
49 -780 2823 0
49 -780 2853 0
49 -781 784 0
49 -782 785 0
49 -783 786 0
49 -781 2752 0
49 -782 2752 0
49 -783 2752 0
49 -781 2753 0
49 -782 2753 0
49 -783 2753 0
49 -781 2824 0
49 -782 2824 0
49 -783 2824 0
49 -781 2825 0
49 -782 2825 0
49 -783 2825 0
49 -781 2827 0
49 -782 2827 0
49 -783 2827 0
49 -781 2885 0
49 -782 2885 0
49 -783 2885 0
49 -784 2752 0
49 -785 2752 0
49 -786 2752 0
49 -784 2753 0
49 -785 2753 0
49 -786 2753 0
49 -784 2824 0
49 -785 2824 0
49 -786 2824 0
49 -784 2825 0
49 -785 2825 0
49 -786 2825 0
49 -784 2826 0
49 -785 2826 0
49 -786 2826 0
49 -784 2827 0
49 -785 2827 0
49 -786 2827 0
49 -784 2884 0
49 -785 2884 0
49 -786 2884 0
49 -784 2885 0
49 -785 2885 0
49 -786 2885 0
49 -787 788 0
49 -787 2770 0
49 -787 2771 0
49 -787 2808 0
49 -787 2809 0
49 -787 2828 0
49 -787 2829 0
49 -787 2862 0
49 -787 2863 0
49 -787 3434 0
49 -787 3436 0
49 -788 2770 0
49 -788 2771 0
49 -788 2808 0
49 -788 2809 0
49 -788 2828 0
49 -788 2829 0
49 -788 2862 0
49 -788 2863 0
49 -788 3434 0
49 -788 3436 0
49 -789 790 0
49 -789 2861 0
49 -789 3000 0
49 -789 3352 0
49 -789 3354 0
49 -789 3514 0
49 -789 3515 0
49 -789 3517 0
49 -789 3518 0
49 -790 3352 0
49 -790 3514 0
49 -790 3515 0
49 -791 792 0
49 -791 2782 0
49 -791 2824 0
49 -792 2782 0
49 -792 2783 0
49 -792 2824 0
49 -792 2825 0
49 -793 794 0
49 -793 2756 0
49 -793 2759 0
49 -793 3318 0
49 -793 3320 0
49 -794 2756 0
49 -794 2759 0
49 -794 3318 0
49 -794 3320 0
49 -795 798 0
49 -796 799 0
49 -797 800 0
49 -798 2767 0
49 -799 2767 0
49 -800 2767 0
49 -801 803 0
49 -802 804 0
49 -801 2766 0
49 -802 2766 0
49 -801 2767 0
49 -802 2767 0
49 -803 2766 0
49 -804 2766 0
49 -803 2767 0
49 -804 2767 0
49 -805 806 0
49 -805 3322 0
49 -805 3326 0
49 -806 3326 0
49 -807 808 0
49 -809 810 0
49 -810 2808 0
49 -810 2862 0
49 -810 3434 0
49 -811 813 0
49 -812 814 0
49 -811 2862 0
49 -812 2862 0
49 -811 2863 0
49 -812 2863 0
49 -811 3432 0
49 -812 3433 0
49 -813 2862 0
49 -814 2862 0
49 -815 816 0
49 -815 2868 0
49 -817 819 0
49 -818 820 0
49 -817 2832 0
49 -818 2833 0
49 -819 2830 0
49 -820 2831 0
49 -819 2832 0
49 -820 2832 0
49 -821 822 0
49 -823 824 0
49 -824 3288 0
49 -825 836 0
49 -826 837 0
49 -827 838 0
49 -828 839 0
49 -829 840 0
49 -830 841 0
49 -831 842 0
49 -832 843 0
49 -833 844 0
49 -834 845 0
49 -835 846 0
49 -836 -2813 0
49 -837 -2814 0
49 -847 848 0
49 -847 2862 0
49 -848 2862 0
49 -848 2863 0
49 -848 2883 0
49 -848 3434 0
49 -849 850 0
49 -849 2818 0
49 -849 2820 0
49 -849 2852 0
49 -849 2853 0
49 -849 2880 0
49 -849 2999 0
49 -849 3350 0
49 -849 3373 0
49 -850 2818 0
49 -850 2820 0
49 -850 2852 0
49 -850 2853 0
49 -851 854 0
49 -852 855 0
49 -853 856 0
49 -851 2824 0
49 -852 2824 0
49 -853 2824 0
49 -851 2825 0
49 -852 2825 0
49 -853 2825 0
49 -854 2824 0
49 -855 2824 0
49 -856 2824 0
49 -854 2825 0
49 -855 2825 0
49 -856 2825 0
49 -854 2859 0
49 -855 2859 0
49 -856 2859 0
49 -857 859 0
49 -858 860 0
49 -857 2852 0
49 -858 2852 0
49 -857 2853 0
49 -858 2853 0
49 -859 2853 0
49 -860 2853 0
49 -861 862 0
49 -863 864 0
49 -865 866 0
49 -867 868 0
49 -869 871 0
49 -870 872 0
49 -873 880 0
49 -874 881 0
49 -875 882 0
49 -876 883 0
49 -877 884 0
49 -878 885 0
49 -879 886 0
49 -873 -2851 0
49 -873 3441 0
49 -874 3441 0
49 -875 3441 0
49 -876 3441 0
49 -877 3441 0
49 -878 3441 0
49 -879 3441 0
49 -887 889 0
49 -888 890 0
49 -887 2874 0
49 -888 2874 0
49 -887 3206 0
49 -888 3206 0
49 -887 3207 0
49 -888 3207 0
49 -887 3492 0
49 -888 3492 0
49 -887 3494 0
49 -888 3494 0
49 -889 3206 0
49 -890 3206 0
49 -889 3207 0
49 -890 3207 0
49 -889 3492 0
49 -890 3492 0
49 -889 3494 0
49 -890 3494 0
49 -891 892 0
49 -891 3292 0
49 -891 3346 0
49 -893 895 0
49 -894 896 0
49 -893 3515 0
49 -894 3515 0
49 -897 898 0
49 -898 3000 0
49 -899 900 0
49 -899 3000 0
49 -899 3001 0
49 -899 3514 0
49 -899 3515 0
49 -899 3518 0
49 -900 3000 0
49 -900 3514 0
49 -900 3515 0
49 -901 902 0
49 -902 3434 0
49 -903 907 0
49 -904 908 0
49 -905 909 0
49 -906 910 0
49 -903 -2890 0
49 -904 -2891 0
49 -911 912 0
49 -913 914 0
49 -913 3206 0
49 -913 3207 0
49 -913 3438 0
49 -913 3441 0
49 -913 3492 0
49 -913 3494 0
49 -914 3206 0
49 -914 3207 0
49 -914 3438 0
49 -914 3441 0
49 -914 3492 0
49 -914 3494 0
49 -915 916 0
49 -917 919 0
49 -918 920 0
49 -917 3350 0
49 -918 3350 0
49 -917 3351 0
49 -918 3351 0
49 -919 3350 0
49 -920 3350 0
49 -921 922 0
49 -923 924 0
49 -925 926 0
49 -925 2888 0
49 -925 3520 0
49 -925 3528 0
49 -926 2888 0
49 -926 2892 0
49 -926 3520 0
49 -926 3528 0
49 -927 931 0
49 -928 932 0
49 -929 933 0
49 -930 934 0
49 -935 936 0
49 -935 2898 0
49 -935 2899 0
49 -935 3000 0
49 -935 3001 0
49 -935 3224 0
49 -935 3225 0
49 -936 2899 0
49 -936 3000 0
49 -936 3225 0
49 -937 938 0
49 -937 3000 0
49 -937 3001 0
49 -937 3224 0
49 -937 3225 0
49 -938 3000 0
49 -938 3225 0
49 -939 947 0
49 -940 948 0
49 -941 949 0
49 -942 950 0
49 -943 951 0
49 -944 952 0
49 -945 953 0
49 -946 954 0
49 -939 -2938 2941 0
49 -940 -2939 2941 0
49 -941 -2940 2941 0
49 -942 -2941 2942 0
49 -943 -2941 2943 0
49 -944 -2941 2944 0
49 -945 -2941 2945 0
49 -946 -2941 2946 0
49 -939 2966 0
49 -940 2967 0
49 -941 2968 0
49 -942 -2964 2969 0
49 -943 -2965 2970 0
49 -944 -2966 2971 0
49 -945 -2967 2972 0
49 -946 -2968 2973 0
49 -947 2933 0
49 -948 2934 0
49 -949 2935 0
49 -950 -2931 2936 0
49 -951 -2932 2937 0
49 -952 -2933 2938 0
49 -953 -2934 2939 0
49 -954 -2935 2940 0
49 -947 2963 0
49 -948 2963 0
49 -949 2963 0
49 -950 2964 0
49 -951 2965 0
49 -952 2966 0
49 -953 2967 0
49 -954 2968 0
49 -955 959 0
49 -956 960 0
49 -957 961 0
49 -958 962 0
49 -955 -3541 0
49 -963 966 0
49 -964 967 0
49 -965 968 0
49 -966 -3359 0
49 -967 -3360 0
49 -969 1002 0
49 -970 1003 0
49 -971 1004 0
49 -972 1005 0
49 -973 1006 0
49 -974 1007 0
49 -975 1008 0
49 -976 1009 0
49 -977 1010 0
49 -978 1011 0
49 -979 1012 0
49 -980 1024 0
49 -981 1025 0
49 -982 1026 0
49 -983 1027 0
49 -984 1028 0
49 -985 1029 0
49 -986 1030 0
49 -987 1031 0
49 -988 1032 0
49 -989 1033 0
49 -990 1034 0
49 -991 1013 0
49 -992 1014 0
49 -993 1015 0
49 -994 1016 0
49 -995 1017 0
49 -996 1018 0
49 -997 1019 0
49 -998 1020 0
49 -999 1021 0
49 -1000 1022 0
49 -1001 1023 0
49 -1035 1036 0
49 -1035 3292 0
49 -1035 3294 0
49 -1036 3282 0
49 -1036 3292 0
49 -1036 3294 0
49 -1037 1038 0
49 -1037 3350 0
49 -1037 3351 0
49 -1037 3373 0
49 -1038 3350 0
49 -1038 3373 0
49 -1039 1040 0
49 -1039 3358 0
49 -1039 3514 0
49 -1039 3515 0
49 -1040 3514 0
49 -1040 3515 0
49 -1040 3518 0
49 -1041 1043 0
49 -1042 1044 0
49 -1045 1053 0
49 -1046 1054 0
49 -1047 1055 0
49 -1048 1056 0
49 -1049 1057 0
49 -1050 1058 0
49 -1051 1059 0
49 -1052 1060 0
49 -1045 -3663 0
49 -1046 -3664 0
49 -1047 -3665 0
49 -1061 1062 0
49 -1061 3024 0
49 -1061 3042 0
49 -1062 -3025 3025 0
49 -1062 3042 0
49 -1063 1081 0
49 -1064 1091 0
49 -1065 1092 0
49 -1066 1093 0
49 -1067 1094 0
49 -1068 1095 0
49 -1069 1096 0
49 -1070 1097 0
49 -1071 1098 0
49 -1072 1082 0
49 -1073 1083 0
49 -1074 1084 0
49 -1075 1085 0
49 -1076 1086 0
49 -1077 1087 0
49 -1078 1088 0
49 -1079 1089 0
49 -1080 1090 0
49 -1063 3077 0
49 -1064 -3068 0
49 -1065 -3068 0
49 -1066 -3068 0
49 -1067 -3068 0
49 -1068 -3068 0
49 -1069 -3068 0
49 -1070 -3068 0
49 -1071 -3069 0
49 -1072 -3077 0
49 -1073 -3077 0
49 -1074 -3078 0
49 -1075 -3079 0
49 -1076 -3080 0
49 -1077 -3081 0
49 -1078 -3082 0
49 -1079 -3083 0
49 -1080 -3084 0
49 -1063 3103 0
49 -1064 -3087 0
49 -1065 -3088 0
49 -1066 -3089 0
49 -1067 -3090 0
49 -1068 -3091 0
49 -1069 -3092 0
49 -1070 -3093 0
49 -1071 -3094 0
49 -1072 -3095 0
49 -1073 -3096 0
49 -1074 -3097 0
49 -1075 -3098 0
49 -1076 -3099 0
49 -1077 -3100 0
49 -1078 -3101 0
49 -1079 -3102 0
49 -1080 -3103 0
49 -1081 -3070 3080 0
49 -1082 -3074 3084 0
49 -1083 -3075 3085 0
49 -1084 -3076 0
49 -1085 -3077 0
49 -1086 -3077 0
49 -1087 -3077 0
49 -1088 -3077 0
49 -1089 -3078 0
49 -1090 -3079 0
49 -1081 -3093 3103 0
49 -1082 -3095 3105 0
49 -1083 -3095 3106 0
49 -1084 -3095 3107 0
49 -1085 -3095 3108 0
49 -1086 -3095 3109 0
49 -1087 -3095 3110 0
49 -1088 -3095 3111 0
49 -1089 -3095 0
49 -1090 -3096 0
49 -1091 -3103 0
49 -1092 -3103 0
49 -1093 -3103 0
49 -1094 -3103 0
49 -1095 -3103 0
49 -1096 -3103 0
49 -1097 -3103 0
49 -1098 -3103 0
49 -1099 1134 0
49 -1100 1135 0
49 -1101 1136 0
49 -1102 1137 0
49 -1103 1138 0
49 -1104 1139 0
49 -1105 1140 0
49 -1106 1141 0
49 -1107 1125 0
49 -1108 1126 0
49 -1109 1127 0
49 -1110 1128 0
49 -1111 1129 0
49 -1112 1130 0
49 -1113 1131 0
49 -1114 1132 0
49 -1115 1133 0
49 -1116 1142 0
49 -1117 1143 0
49 -1118 1144 0
49 -1119 1145 0
49 -1120 1146 0
49 -1121 1147 0
49 -1122 1148 0
49 -1123 1149 0
49 -1124 1150 0
49 -1099 3121 0
49 -1100 3121 0
49 -1101 3121 0
49 -1102 3121 0
49 -1103 3121 0
49 -1104 3121 0
49 -1105 3121 0
49 -1106 3121 0
49 -1107 -3121 3129 0
49 -1108 -3121 3129 0
49 -1109 -3121 3129 0
49 -1110 -3121 3129 0
49 -1111 -3121 3129 0
49 -1112 -3121 3129 0
49 -1113 -3121 3129 0
49 -1114 -3121 3129 0
49 -1115 -3121 3129 0
49 -1116 -3124 3129 0
49 -1117 -3125 3129 0
49 -1118 -3126 3129 0
49 -1119 -3127 3129 0
49 -1120 -3128 3129 0
49 -1121 -3129 3129 0
49 -1122 -3129 3129 0
49 -1123 -3129 3129 0
49 -1124 -3129 3129 0
49 -1099 3136 0
49 -1100 3137 0
49 -1101 3138 0
49 -1102 3139 0
49 -1103 3139 0
49 -1104 -3132 3139 0
49 -1105 -3133 3139 0
49 -1106 -3134 3139 0
49 -1107 -3139 3144 0
49 -1108 -3139 3145 0
49 -1109 -3139 3146 0
49 -1110 -3139 3147 0
49 -1111 -3139 3148 0
49 -1112 -3140 3148 0
49 -1113 -3141 3148 0
49 -1114 -3142 3148 0
49 -1115 -3143 3149 0
49 -1116 -3147 0
49 -1117 -3148 0
49 -1118 -3148 0
49 -1119 -3148 0
49 -1120 -3148 0
49 -1121 -3149 0
49 -1125 3117 0
49 -1126 3118 0
49 -1127 3119 0
49 -1128 3120 0
49 -1129 3121 0
49 -1130 -3113 3121 0
49 -1131 -3114 3121 0
49 -1132 -3115 3121 0
49 -1133 -3116 3121 0
49 -1134 -3121 3126 0
49 -1135 -3121 3127 0
49 -1136 -3121 3128 0
49 -1137 -3121 3129 0
49 -1138 -3121 3129 0
49 -1139 -3122 3129 0
49 -1140 -3123 3129 0
49 -1141 -3124 3129 0
49 -1142 -3129 0
49 -1143 -3129 0
49 -1144 -3129 0
49 -1145 -3129 0
49 -1146 -3129 0
49 -1147 -3130 0
49 -1125 3139 0
49 -1126 3140 0
49 -1127 3141 0
49 -1128 3142 0
49 -1129 3143 0
49 -1130 3144 0
49 -1131 3145 0
49 -1132 3146 0
49 -1133 3147 0
49 -1134 -3132 0
49 -1135 -3133 0
49 -1136 -3134 0
49 -1137 -3135 0
49 -1138 -3136 0
49 -1139 -3137 0
49 -1140 -3138 0
49 -1141 -3139 0
49 -1142 -3149 0
49 -1151 1178 0
49 -1152 1179 0
49 -1153 1180 0
49 -1154 1181 0
49 -1155 1182 0
49 -1156 1183 0
49 -1157 1184 0
49 -1158 1185 0
49 -1159 1186 0
49 -1160 1170 0
49 -1161 1171 0
49 -1162 1172 0
49 -1163 1173 0
49 -1164 1174 0
49 -1165 1175 0
49 -1166 1176 0
49 -1167 1177 0
49 -1168 1187 0
49 -1169 1188 0
49 -1151 3150 0
49 -1152 3150 0
49 -1153 3150 0
49 -1154 3150 0
49 -1155 3150 0
49 -1156 3150 0
49 -1157 3150 0
49 -1158 3150 0
49 -1159 3150 0
49 -1160 3150 0
49 -1161 3150 0
49 -1162 3150 0
49 -1163 3150 0
49 -1164 3150 0
49 -1165 3150 0
49 -1166 3150 0
49 -1167 3150 0
49 -1151 3151 0
49 -1152 3151 0
49 -1153 3151 0
49 -1154 3151 0
49 -1155 3151 0
49 -1156 3151 0
49 -1157 3151 0
49 -1158 3151 0
49 -1159 3151 0
49 -1160 3151 0
49 -1161 3151 0
49 -1162 3151 0
49 -1163 3151 0
49 -1164 3151 0
49 -1165 3151 0
49 -1166 3151 0
49 -1167 3151 0
49 -1168 3151 0
49 -1169 3151 0
49 -1170 3150 0
49 -1171 3150 0
49 -1172 3150 0
49 -1173 3150 0
49 -1174 3150 0
49 -1175 3150 0
49 -1176 3150 0
49 -1177 3150 0
49 -1178 3150 0
49 -1179 3150 0
49 -1180 3150 0
49 -1181 3150 0
49 -1182 3150 0
49 -1183 3150 0
49 -1184 3150 0
49 -1185 3150 0
49 -1186 3150 0
49 -1187 3150 0
49 -1188 3150 0
49 -1170 3151 0
49 -1171 3151 0
49 -1172 3151 0
49 -1173 3151 0
49 -1174 3151 0
49 -1175 3151 0
49 -1176 3151 0
49 -1177 3151 0
49 -1178 3151 0
49 -1179 3151 0
49 -1180 3151 0
49 -1181 3151 0
49 -1182 3151 0
49 -1183 3151 0
49 -1184 3151 0
49 -1185 3151 0
49 -1186 3151 0
49 -1187 3151 0
49 -1188 3151 0
49 -1189 1190 0
49 -1191 1199 0
49 -1192 1200 0
49 -1193 1201 0
49 -1194 1202 0
49 -1195 1203 0
49 -1196 1204 0
49 -1197 1205 0
49 -1198 1206 0
49 -1191 3168 0
49 -1192 3168 0
49 -1193 3168 0
49 -1194 3168 0
49 -1195 3168 0
49 -1196 3169 0
49 -1197 3170 0
49 -1198 3171 0
49 -1191 3180 0
49 -1192 3180 0
49 -1193 3180 0
49 -1194 3180 0
49 -1195 3180 0
49 -1196 3180 0
49 -1197 3180 0
49 -1198 3180 0
49 -1199 3168 0
49 -1200 3169 0
49 -1201 3170 0
49 -1202 3171 0
49 -1203 3171 0
49 -1204 3171 0
49 -1205 3171 0
49 -1206 3171 0
49 -1199 3180 0
49 -1200 3180 0
49 -1201 3180 0
49 -1202 3180 0
49 -1203 3180 0
49 -1204 3181 0
49 -1205 3182 0
49 -1206 3183 0
49 -1207 1228 0
49 -1208 1229 0
49 -1209 1230 0
49 -1210 1219 0
49 -1211 1220 0
49 -1212 1221 0
49 -1213 1222 0
49 -1214 1223 0
49 -1215 1224 0
49 -1216 1225 0
49 -1217 1226 0
49 -1218 1227 0
49 -1207 -3201 0
49 -1208 -3202 0
49 -1209 -3203 0
49 -1219 -3205 0
49 -1231 1238 0
49 -1232 1239 0
49 -1233 1240 0
49 -1234 1241 0
49 -1235 1242 0
49 -1236 1243 0
49 -1237 1244 0
49 -1245 1246 0
49 -1245 3492 0
49 -1247 1248 0
49 -1249 1253 0
49 -1250 1254 0
49 -1251 1255 0
49 -1252 1256 0
49 -1253 -3919 0
49 -1254 -3920 0
49 -1255 -3921 0
49 -1257 1260 0
49 -1258 1261 0
49 -1259 1262 0
49 -1257 3227 0
49 -1258 3227 0
49 -1259 3227 0
49 -1257 3229 0
49 -1258 3229 0
49 -1259 3229 0
49 -1257 3230 0
49 -1258 3230 0
49 -1259 3230 0
49 -1257 3231 0
49 -1258 3231 0
49 -1259 3231 0
49 -1257 3232 0
49 -1258 3232 0
49 -1259 3232 0
49 -1257 3233 0
49 -1258 3233 0
49 -1259 3233 0
49 -1260 3230 0
49 -1261 3230 0
49 -1262 3230 0
49 -1260 3231 0
49 -1261 3231 0
49 -1262 3231 0
49 -1260 3232 0
49 -1261 3232 0
49 -1262 3232 0
49 -1263 1264 0
49 -1265 1266 0
49 -1265 3229 0
49 -1265 3230 0
49 -1265 3231 0
49 -1265 3232 0
49 -1265 3233 0
49 -1266 3230 0
49 -1266 3231 0
49 -1266 3232 0
49 -1267 1268 0
49 -1267 3230 0
49 -1267 3231 0
49 -1267 3232 0
49 -1267 3233 0
49 -1268 3230 0
49 -1268 3231 0
49 -1268 3232 0
49 -1269 1270 0
49 -1271 1272 0
49 -1273 1274 0
49 -1274 3236 0
49 -1275 1279 0
49 -1276 1280 0
49 -1277 1281 0
49 -1278 1282 0
49 -1283 1284 0
49 -1283 3247 0
49 -1285 1286 0
49 -1287 1291 0
49 -1288 1292 0
49 -1289 1293 0
49 -1290 1294 0
49 -1295 1301 0
49 -1296 1302 0
49 -1297 1303 0
49 -1298 1304 0
49 -1299 1305 0
49 -1300 1306 0
49 -1307 1311 0
49 -1308 1312 0
49 -1309 1313 0
49 -1310 1314 0
49 -1315 1316 0
49 -1317 1318 0
49 -1318 3358 0
49 -1319 1321 0
49 -1320 1322 0
49 -1319 3292 0
49 -1320 3292 0
49 -1319 3294 0
49 -1320 3294 0
49 -1319 3342 0
49 -1320 3342 0
49 -1319 3344 0
49 -1320 3344 0
49 -1321 3292 0
49 -1322 3292 0
49 -1321 3294 0
49 -1322 3294 0
49 -1321 3342 0
49 -1322 3342 0
49 -1321 3344 0
49 -1322 3344 0
49 -1323 1327 0
49 -1324 1328 0
49 -1325 1329 0
49 -1326 1330 0
49 -1323 3350 0
49 -1324 3350 0
49 -1325 3350 0
49 -1326 3350 0
49 -1327 3350 0
49 -1328 3350 0
49 -1329 3350 0
49 -1330 3350 0
49 -1331 1333 0
49 -1332 1334 0
49 -1331 -3347 0
49 -1333 3346 0
49 -1334 3346 0
49 -1335 1338 0
49 -1336 1339 0
49 -1337 1340 0
49 -1341 1344 0
49 -1342 1345 0
49 -1343 1346 0
49 -1341 3308 0
49 -1342 3308 0
49 -1343 3308 0
49 -1341 3313 0
49 -1342 3313 0
49 -1343 3313 0
49 -1341 3318 0
49 -1342 3318 0
49 -1343 3318 0
49 -1341 3320 0
49 -1342 3320 0
49 -1343 3320 0
49 -1344 3308 0
49 -1345 3309 0
49 -1346 3310 0
49 -1344 3313 0
49 -1345 3313 0
49 -1346 3313 0
49 -1344 3318 0
49 -1345 3318 0
49 -1346 3318 0
49 -1344 3320 0
49 -1345 3320 0
49 -1346 3320 0
49 -1347 1352 0
49 -1348 1353 0
49 -1349 1354 0
49 -1350 1355 0
49 -1351 1356 0
49 -1357 1359 0
49 -1358 1360 0
49 -1361 1365 0
49 -1362 1366 0
49 -1363 1367 0
49 -1364 1368 0
49 -1369 1373 0
49 -1370 1374 0
49 -1371 1375 0
49 -1372 1376 0
49 -1377 1379 0
49 -1378 1380 0
49 -1381 1383 0
49 -1382 1384 0
49 -1385 1387 0
49 -1386 1388 0
49 -1389 1390 0
49 -1389 3385 0
49 -1389 -3394 3394 0
49 -1389 3406 0
49 -1389 3410 0
49 -1389 3414 0
49 -1389 3430 0
49 -1389 3432 0
49 -1389 3436 0
49 -1390 3377 0
49 -1390 3380 0
49 -1390 3385 0
49 -1390 -3402 3402 0
49 -1390 3406 0
49 -1390 -3428 3428 0
49 -1390 3430 0
49 -1390 3432 0
49 -1390 3436 0
49 -1391 1393 0
49 -1392 1394 0
49 -1395 1396 0
49 -1396 3368 0
49 -1397 1400 0
49 -1398 1401 0
49 -1399 1402 0
49 -1403 1405 0
49 -1404 1406 0
49 -1403 3882 0
49 -1404 3882 0
49 -1403 3891 0
49 -1404 3891 0
49 -1405 3882 0
49 -1406 3882 0
49 -1405 3891 0
49 -1406 3891 0
49 -1407 1409 0
49 -1408 1410 0
49 -1411 1412 0
49 -1413 1416 0
49 -1414 1417 0
49 -1415 1418 0
49 -1413 3380 0
49 -1414 3380 0
49 -1415 3380 0
49 -1413 3385 0
49 -1414 3385 0
49 -1415 3385 0
49 -1416 3380 0
49 -1417 3380 0
49 -1418 3380 0
49 -1416 3385 0
49 -1417 3385 0
49 -1418 3385 0
49 -1419 1424 0
49 -1420 1425 0
49 -1421 1426 0
49 -1422 1427 0
49 -1423 1428 0
49 -1424 -3396 0
49 -1425 -3397 0
49 -1429 1437 0
49 -1430 1438 0
49 -1431 1439 0
49 -1432 1440 0
49 -1433 1441 0
49 -1434 1442 0
49 -1435 1443 0
49 -1436 1444 0
49 -1429 3406 0
49 -1430 3406 0
49 -1431 3406 0
49 -1432 3406 0
49 -1433 3406 0
49 -1434 3407 0
49 -1435 3408 0
49 -1436 3409 0
49 -1429 3410 0
49 -1430 3410 0
49 -1431 3410 0
49 -1432 3410 0
49 -1433 3410 0
49 -1434 3410 0
49 -1435 3410 0
49 -1436 3410 0
49 -1437 3406 0
49 -1438 3406 0
49 -1439 3406 0
49 -1440 3406 0
49 -1441 3406 0
49 -1442 3406 0
49 -1443 3406 0
49 -1444 3406 0
49 -1437 3410 0
49 -1438 3410 0
49 -1439 3410 0
49 -1440 3410 0
49 -1441 3410 0
49 -1442 3410 0
49 -1443 3410 0
49 -1444 3410 0
49 -1445 1449 0
49 -1446 1450 0
49 -1447 1451 0
49 -1448 1452 0
49 -1445 3414 0
49 -1446 3414 0
49 -1447 3414 0
49 -1448 3414 0
49 -1445 -3419 0
49 -1446 -3420 0
49 -1447 -3421 0
49 -1449 -3415 0
49 -1450 -3416 0
49 -1451 -3417 0
49 -1453 1457 0
49 -1454 1458 0
49 -1455 1459 0
49 -1456 1460 0
49 -1461 1465 0
49 -1462 1466 0
49 -1463 1467 0
49 -1464 1468 0
49 -1461 3430 0
49 -1462 3430 0
49 -1463 3430 0
49 -1464 3430 0
49 -1461 3432 0
49 -1462 3432 0
49 -1463 3432 0
49 -1464 3432 0
49 -1465 3430 0
49 -1466 3430 0
49 -1467 3430 0
49 -1468 3430 0
49 -1465 3432 0
49 -1466 3432 0
49 -1467 3432 0
49 -1468 3432 0
49 -1469 1471 0
49 -1470 1472 0
49 -1469 3434 0
49 -1470 3435 0
49 -1471 3434 0
49 -1472 3434 0
49 -1471 3436 0
49 -1472 3437 0
49 -1473 1475 0
49 -1474 1476 0
49 -1477 1480 0
49 -1478 1481 0
49 -1479 1482 0
49 -1477 -3445 0
49 -1478 -3446 0
49 -1477 3447 0
49 -1478 3447 0
49 -1479 3447 0
49 -1480 -3448 0
49 -1481 -3449 0
49 -1483 1486 0
49 -1484 1487 0
49 -1485 1488 0
49 -1483 -3454 0
49 -1484 -3455 0
49 -1489 1492 0
49 -1490 1493 0
49 -1491 1494 0
49 -1489 3456 0
49 -1490 3456 0
49 -1491 3456 0
49 -1489 -3460 0
49 -1490 -3461 0
49 -1489 3462 0
49 -1490 3462 0
49 -1491 3462 0
49 -1489 3468 0
49 -1490 3468 0
49 -1491 3468 0
49 -1492 -3458 0
49 -1492 3462 0
49 -1493 3463 0
49 -1494 3464 0
49 -1492 3468 0
49 -1493 3468 0
49 -1494 3468 0
49 -1495 1498 0
49 -1496 1499 0
49 -1497 1500 0
49 -1495 3462 0
49 -1496 3462 0
49 -1497 3462 0
49 -1495 3468 0
49 -1496 3468 0
49 -1497 3468 0
49 -1498 3462 0
49 -1499 3462 0
49 -1500 3462 0
49 -1498 3468 0
49 -1499 3468 0
49 -1500 3468 0
49 -1501 1507 0
49 -1502 1508 0
49 -1503 1509 0
49 -1504 1510 0
49 -1505 1511 0
49 -1506 1512 0
49 -1513 1514 0
49 -1513 3476 0
49 -1513 3482 0
49 -1514 3476 0
49 -1514 3482 0
49 -1515 1521 0
49 -1516 1522 0
49 -1517 1523 0
49 -1518 1524 0
49 -1519 1525 0
49 -1520 1526 0
49 -1527 1529 0
49 -1528 1530 0
49 -1531 1533 0
49 -1532 1534 0
49 -1531 3496 0
49 -1532 3497 0
49 -1533 3496 0
49 -1534 3496 0
49 -1533 3500 0
49 -1534 3501 0
49 -1535 1539 0
49 -1536 1540 0
49 -1537 1541 0
49 -1538 1542 0
49 -1543 1548 0
49 -1544 1549 0
49 -1545 1550 0
49 -1546 1551 0
49 -1547 1552 0
49 -1543 3646 0
49 -1544 3646 0
49 -1545 3646 0
49 -1546 3646 0
49 -1547 3646 0
49 -1543 3650 0
49 -1544 3650 0
49 -1545 3650 0
49 -1546 3650 0
49 -1547 3650 0
49 -1543 3662 0
49 -1544 3662 0
49 -1545 3663 0
49 -1546 3664 0
49 -1547 3665 0
49 -1543 -3669 0
49 -1548 3646 0
49 -1549 3646 0
49 -1550 3646 0
49 -1551 3646 0
49 -1552 3646 0
49 -1548 3650 0
49 -1549 3650 0
49 -1550 3650 0
49 -1551 3650 0
49 -1552 3650 0
49 -1548 3662 0
49 -1549 3662 0
49 -1550 3662 0
49 -1551 3662 0
49 -1552 3662 0
49 -1548 3666 0
49 -1549 3666 0
49 -1550 3667 0
49 -1551 3668 0
49 -1552 3669 0
49 -1553 1554 0
49 -1555 1556 0
49 -1555 3880 0
49 -1555 3881 0
49 -1556 3880 0
49 -1557 1558 0
49 -1559 1567 0
49 -1560 1568 0
49 -1561 1569 0
49 -1562 1570 0
49 -1563 1571 0
49 -1564 1572 0
49 -1565 1573 0
49 -1566 1574 0
49 -1575 1578 0
49 -1576 1579 0
49 -1577 1580 0
49 -1575 3542 0
49 -1576 3542 0
49 -1577 3542 0
49 -1575 3550 0
49 -1576 3550 0
49 -1577 3550 0
49 -1575 3714 0
49 -1576 3714 0
49 -1577 3714 0
49 -1575 3717 0
49 -1576 3717 0
49 -1577 3717 0
49 -1578 3542 0
49 -1579 3543 0
49 -1580 3544 0
49 -1578 3550 0
49 -1579 3550 0
49 -1580 3550 0
49 -1578 3714 0
49 -1579 3714 0
49 -1580 3714 0
49 -1578 3717 0
49 -1579 3717 0
49 -1580 3717 0
49 -1581 1589 0
49 -1582 1590 0
49 -1583 1591 0
49 -1584 1592 0
49 -1585 1593 0
49 -1586 1594 0
49 -1587 1595 0
49 -1588 1596 0
49 -1581 -3820 0
49 -1582 -3821 0
49 -1581 -3831 0
49 -1582 -3831 0
49 -1583 -3831 0
49 -1584 -3831 0
49 -1585 -3831 0
49 -1586 -3831 0
49 -1587 -3831 0
49 -1597 1602 0
49 -1598 1603 0
49 -1599 1604 0
49 -1600 1605 0
49 -1601 1606 0
49 -1597 -3569 0
49 -1598 -3570 0
49 -1599 -3571 0
49 -1600 -3572 0
49 -1597 -3579 0
49 -1597 -3599 0
49 -1598 -3600 0
49 -1599 -3600 0
49 -1600 -3600 0
49 -1597 -3683 0
49 -1598 -3684 0
49 -1599 -3685 0
49 -1602 -3573 0
49 -1602 -3595 0
49 -1607 1613 0
49 -1608 1614 0
49 -1609 1615 0
49 -1610 1616 0
49 -1611 1617 0
49 -1612 1618 0
49 -1607 3580 0
49 -1608 3580 0
49 -1609 3580 0
49 -1610 3580 0
49 -1611 3582 0
49 -1612 3583 0
49 -1607 3588 0
49 -1608 3588 0
49 -1609 3589 0
49 -1610 3590 0
49 -1611 3594 0
49 -1612 3595 0
49 -1607 3682 0
49 -1608 3683 0
49 -1609 3684 0
49 -1610 3685 0
49 -1611 -3682 0
49 -1612 -3682 0
49 -1613 3580 0
49 -1614 3580 0
49 -1615 3580 0
49 -1616 3580 0
49 -1617 3580 0
49 -1618 3580 0
49 -1613 3588 0
49 -1614 3588 0
49 -1615 3588 0
49 -1616 3588 0
49 -1617 3590 0
49 -1618 3591 0
49 -1613 3677 0
49 -1614 3678 0
49 -1615 3679 0
49 -1616 3680 0
49 -1617 -3677 0
49 -1618 -3677 0
49 -1613 3681 0
49 -1614 3682 0
49 -1615 3682 0
49 -1616 3682 0
49 -1617 3682 0
49 -1618 3683 0
49 -1619 1627 0
49 -1620 1628 0
49 -1621 1629 0
49 -1622 1630 0
49 -1623 1631 0
49 -1624 1632 0
49 -1625 1633 0
49 -1626 1634 0
49 -1619 -3610 0
49 -1620 -3611 0
49 -1621 -3612 0
49 -1622 -3612 0
49 -1623 -3612 0
49 -1624 -3613 0
49 -1625 -3614 0
49 -1619 3621 0
49 -1620 3622 0
49 -1621 -3616 3623 0
49 -1622 -3617 0
49 -1623 -3618 0
49 -1624 -3619 0
49 -1625 -3620 0
49 -1626 -3621 0
49 -1619 -3628 0
49 -1620 -3629 0
49 -1621 -3630 0
49 -1622 -3631 0
49 -1623 -3632 0
49 -1624 -3633 0
49 -1625 -3634 0
49 -1619 3642 0
49 -1620 -3636 3643 0
49 -1621 -3637 3644 0
49 -1622 -3638 3645 0
49 -1623 -3639 0
49 -1624 -3640 0
49 -1625 -3641 0
49 -1626 -3642 0
49 -1627 -3597 0
49 -1628 -3598 0
49 -1629 -3599 0
49 -1630 -3600 0
49 -1631 -3600 0
49 -1632 -3600 0
49 -1633 -3600 0
49 -1627 3612 0
49 -1628 3613 0
49 -1629 -3607 3614 0
49 -1630 -3608 0
49 -1631 -3609 0
49 -1632 -3610 0
49 -1633 -3611 0
49 -1634 -3612 0
49 -1627 3615 0
49 -1628 3615 0
49 -1629 3615 0
49 -1630 3615 0
49 -1631 3615 0
49 -1632 3615 0
49 -1633 3616 0
49 -1634 3617 0
49 -1627 3631 0
49 -1628 -3625 3632 0
49 -1629 -3626 3633 0
49 -1630 -3627 3634 0
49 -1631 -3628 0
49 -1632 -3629 0
49 -1633 -3630 0
49 -1634 -3631 0
49 -1627 3635 0
49 -1628 3635 0
49 -1629 3635 0
49 -1630 3635 0
49 -1631 3635 0
49 -1632 3636 0
49 -1633 3637 0
49 -1634 3638 0
49 -1627 -3682 0
49 -1628 -3683 0
49 -1629 -3684 0
49 -1630 -3685 0
49 -1635 1640 0
49 -1636 1641 0
49 -1637 1642 0
49 -1638 1643 0
49 -1639 1644 0
49 -1635 3606 0
49 -1636 3606 0
49 -1637 3607 0
49 -1638 3608 0
49 -1639 3612 0
49 -1635 3615 0
49 -1636 3615 0
49 -1637 3615 0
49 -1638 3615 0
49 -1639 3615 0
49 -1635 3624 0
49 -1636 3624 0
49 -1637 3625 0
49 -1638 3626 0
49 -1639 3630 0
49 -1635 3635 0
49 -1636 3635 0
49 -1637 3635 0
49 -1638 3635 0
49 -1639 3635 0
49 -1635 -3680 0
49 -1635 3682 0
49 -1636 3683 0
49 -1637 3684 0
49 -1638 3685 0
49 -1639 -3682 0
49 -1640 3606 0
49 -1641 3606 0
49 -1642 3606 0
49 -1643 3606 0
49 -1644 3606 0
49 -1640 3615 0
49 -1641 3615 0
49 -1642 3615 0
49 -1643 3615 0
49 -1644 3615 0
49 -1640 3624 0
49 -1641 3624 0
49 -1642 3624 0
49 -1643 3624 0
49 -1644 3624 0
49 -1640 3635 0
49 -1641 3635 0
49 -1642 3635 0
49 -1643 3635 0
49 -1644 3635 0
49 -1640 3677 0
49 -1641 3678 0
49 -1642 3679 0
49 -1643 3680 0
49 -1644 -3677 0
49 -1640 3681 0
49 -1641 3682 0
49 -1642 3682 0
49 -1643 3682 0
49 -1644 3682 0
49 -1645 1654 0
49 -1646 1655 0
49 -1647 1656 0
49 -1648 1657 0
49 -1649 1658 0
49 -1650 1659 0
49 -1651 1660 0
49 -1652 1661 0
49 -1653 1662 0
49 -1645 3625 0
49 -1646 -3625 3626 0
49 -1647 -3626 3627 0
49 -1648 -3627 3628 0
49 -1649 -3628 3629 0
49 -1650 -3629 3630 0
49 -1651 -3632 3633 0
49 -1652 -3633 3634 0
49 -1653 -3634 0
49 -1645 3635 0
49 -1646 3635 0
49 -1647 3635 0
49 -1648 3635 0
49 -1649 3636 0
49 -1650 3637 0
49 -1651 3640 0
49 -1652 3641 0
49 -1653 3642 0
49 -1645 -3683 0
49 -1646 -3684 0
49 -1647 -3685 0
49 -1654 -3629 0
49 -1655 -3630 0
49 -1656 -3631 0
49 -1657 -3632 0
49 -1658 -3633 0
49 -1659 -3634 0
49 -1654 3636 0
49 -1655 -3636 3637 0
49 -1656 -3637 3638 0
49 -1657 -3638 3639 0
49 -1658 -3639 3640 0
49 -1659 -3640 3641 0
49 -1660 -3643 3644 0
49 -1661 -3644 3645 0
49 -1662 -3645 0
49 -1663 1674 0
49 -1664 1675 0
49 -1665 1676 0
49 -1666 1677 0
49 -1667 1678 0
49 -1668 1679 0
49 -1669 1680 0
49 -1670 1681 0
49 -1671 1682 0
49 -1672 1683 0
49 -1673 1684 0
49 -1663 -3683 0
49 -1664 -3684 0
49 -1665 -3685 0
49 -1685 1689 0
49 -1686 1690 0
49 -1687 1691 0
49 -1688 1692 0
49 -1689 -3665 0
49 -1693 1694 0
49 -1694 3844 0
49 -1695 1698 0
49 -1696 1699 0
49 -1697 1700 0
49 -1695 -3750 0
49 -1696 -3751 0
49 -1701 1705 0
49 -1702 1706 0
49 -1703 1707 0
49 -1704 1708 0
49 -1709 1712 0
49 -1710 1713 0
49 -1711 1714 0
49 -1709 3706 0
49 -1710 3706 0
49 -1711 3706 0
49 -1709 3710 0
49 -1710 3711 0
49 -1711 3712 0
49 -1709 -3735 0
49 -1709 -3810 0
49 -1710 -3811 0
49 -1712 3706 0
49 -1713 3707 0
49 -1714 3708 0
49 -1715 1720 0
49 -1716 1721 0
49 -1717 1722 0
49 -1718 1723 0
49 -1719 1724 0
49 -1725 1726 0
49 -1727 1736 0
49 -1728 1737 0
49 -1729 1738 0
49 -1730 1739 0
49 -1731 1740 0
49 -1732 1741 0
49 -1733 1742 0
49 -1734 1743 0
49 -1735 1744 0
49 -1727 3706 0
49 -1728 3706 0
49 -1729 3706 0
49 -1730 3706 0
49 -1731 3706 0
49 -1732 3706 0
49 -1733 3706 0
49 -1734 3706 0
49 -1735 3706 0
49 -1727 3710 0
49 -1728 3710 0
49 -1729 3710 0
49 -1730 3710 0
49 -1731 3710 0
49 -1732 3710 0
49 -1733 3710 0
49 -1734 3710 0
49 -1735 3710 0
49 -1727 3714 0
49 -1728 3714 0
49 -1729 3714 0
49 -1730 3714 0
49 -1731 3714 0
49 -1732 3714 0
49 -1733 3714 0
49 -1734 3714 0
49 -1735 3714 0
49 -1727 3717 0
49 -1728 3717 0
49 -1729 3717 0
49 -1730 3717 0
49 -1731 3717 0
49 -1732 3717 0
49 -1733 3717 0
49 -1734 3717 0
49 -1735 3717 0
49 -1727 3859 0
49 -1728 3860 0
49 -1729 3861 0
49 -1730 -3855 3862 0
49 -1731 -3856 3863 0
49 -1732 -3857 3864 0
49 -1733 -3858 0
49 -1734 -3859 0
49 -1735 -3860 0
49 -1727 3865 0
49 -1728 3865 0
49 -1729 3865 0
49 -1730 3865 0
49 -1731 3865 0
49 -1732 3865 0
49 -1733 3865 0
49 -1734 3865 0
49 -1735 3866 0
49 -1736 3706 0
49 -1737 3706 0
49 -1738 3706 0
49 -1739 3706 0
49 -1740 3706 0
49 -1741 3706 0
49 -1742 3706 0
49 -1743 3706 0
49 -1744 3706 0
49 -1736 3710 0
49 -1737 3710 0
49 -1738 3710 0
49 -1739 3710 0
49 -1740 3710 0
49 -1741 3710 0
49 -1742 3710 0
49 -1743 3710 0
49 -1744 3710 0
49 -1736 3714 0
49 -1737 3714 0
49 -1738 3714 0
49 -1739 3714 0
49 -1740 3714 0
49 -1741 3714 0
49 -1742 3714 0
49 -1743 3714 0
49 -1744 3714 0
49 -1736 3717 0
49 -1737 3717 0
49 -1738 3717 0
49 -1739 3717 0
49 -1740 3717 0
49 -1741 3717 0
49 -1742 3717 0
49 -1743 3717 0
49 -1744 3717 0
49 -1736 -3858 0
49 -1737 -3859 0
49 -1738 -3860 0
49 -1739 -3861 0
49 -1740 -3862 0
49 -1741 -3863 0
49 -1742 -3864 0
49 -1745 1749 0
49 -1746 1750 0
49 -1747 1751 0
49 -1748 1752 0
49 -1753 1756 0
49 -1754 1757 0
49 -1755 1758 0
49 -1753 -3874 0
49 -1754 -3875 0
49 -1759 1767 0
49 -1760 1768 0
49 -1761 1769 0
49 -1762 1770 0
49 -1763 1771 0
49 -1764 1772 0
49 -1765 1773 0
49 -1766 1774 0
49 -1775 1783 0
49 -1776 1784 0
49 -1777 1785 0
49 -1778 1786 0
49 -1779 1787 0
49 -1780 1788 0
49 -1781 1789 0
49 -1782 1790 0
49 -1775 3844 0
49 -1776 3844 0
49 -1777 3844 0
49 -1778 3844 0
49 -1779 3844 0
49 -1780 3844 0
49 -1781 3844 0
49 -1782 3844 0
49 -1775 3849 0
49 -1776 3849 0
49 -1777 3849 0
49 -1778 3849 0
49 -1779 3849 0
49 -1780 3849 0
49 -1781 3849 0
49 -1782 3849 0
49 -1783 3844 0
49 -1784 3844 0
49 -1785 3844 0
49 -1786 3844 0
49 -1787 3844 0
49 -1788 3844 0
49 -1789 3844 0
49 -1790 3844 0
49 -1783 3849 0
49 -1784 3849 0
49 -1785 3849 0
49 -1786 3849 0
49 -1787 3849 0
49 -1788 3850 0
49 -1789 3851 0
49 -1790 3852 0
49 -1791 1793 0
49 -1792 1794 0
49 -1791 3756 0
49 -1792 3756 0
49 -1791 3760 0
49 -1792 3760 0
49 -1791 3832 0
49 -1792 3833 0
49 -1793 3756 0
49 -1794 3756 0
49 -1793 3760 0
49 -1794 3760 0
49 -1793 3832 0
49 -1794 3832 0
49 -1793 3834 0
49 -1794 3835 0
49 -1795 1799 0
49 -1796 1800 0
49 -1797 1801 0
49 -1798 1802 0
49 -1803 1811 0
49 -1804 1812 0
49 -1805 1813 0
49 -1806 1814 0
49 -1807 1815 0
49 -1808 1816 0
49 -1809 1817 0
49 -1810 1818 0
49 -1803 3784 0
49 -1804 3785 0
49 -1805 3786 0
49 -1806 3787 0
49 -1807 -3781 0
49 -1808 -3782 0
49 -1809 -3783 0
49 -1810 -3784 0
49 -1803 3788 0
49 -1804 3789 0
49 -1805 3790 0
49 -1806 3791 0
49 -1807 3792 0
49 -1808 3793 0
49 -1809 3794 0
49 -1810 3795 0
49 -1803 -3809 0
49 -1804 -3810 0
49 -1805 -3811 0
49 -1811 -3787 0
49 -1811 3792 0
49 -1812 3793 0
49 -1813 3794 0
49 -1814 3795 0
49 -1815 -3789 0
49 -1816 -3790 0
49 -1817 -3791 0
49 -1818 -3792 0
49 -1819 1827 0
49 -1820 1828 0
49 -1821 1829 0
49 -1822 1830 0
49 -1823 1831 0
49 -1824 1832 0
49 -1825 1833 0
49 -1826 1834 0
49 -1819 -3806 0
49 -1820 -3807 0
49 -1821 -3808 0
49 -1822 -3809 0
49 -1823 -3811 0
49 -1835 1843 0
49 -1836 1844 0
49 -1837 1845 0
49 -1838 1846 0
49 -1839 1847 0
49 -1840 1848 0
49 -1841 1849 0
49 -1842 1850 0
49 -1851 1870 0
49 -1852 1861 0
49 -1853 1862 0
49 -1854 1863 0
49 -1855 1864 0
49 -1856 1865 0
49 -1857 1866 0
49 -1858 1867 0
49 -1859 1868 0
49 -1860 1869 0
49 -1871 1873 0
49 -1872 1874 0
49 -1871 -3843 0
49 -1873 -3839 0
49 -1873 3840 0
49 -1874 3840 0
49 -1875 1879 0
49 -1876 1880 0
49 -1877 1881 0
49 -1878 1882 0
49 -1875 3844 0
49 -1876 3844 0
49 -1877 3844 0
49 -1878 3844 0
49 -1875 3849 0
49 -1876 3849 0
49 -1877 3849 0
49 -1878 3849 0
49 -1879 3844 0
49 -1880 3844 0
49 -1881 3844 0
49 -1882 3844 0
49 -1879 3849 0
49 -1880 3849 0
49 -1881 3849 0
49 -1882 3850 0
49 -1883 1888 0
49 -1884 1889 0
49 -1885 1890 0
49 -1886 1891 0
49 -1887 1892 0
49 -1893 1904 0
49 -1894 1905 0
49 -1895 1906 0
49 -1896 1907 0
49 -1897 1908 0
49 -1898 1909 0
49 -1899 1910 0
49 -1900 1911 0
49 -1901 1912 0
49 -1902 1913 0
49 -1903 1914 0
49 -1915 1917 0
49 -1916 1918 0
49 -1919 1920 0
49 -1921 1930 0
49 -1922 1931 0
49 -1923 1932 0
49 -1924 1933 0
49 -1925 1934 0
49 -1926 1935 0
49 -1927 1936 0
49 -1928 1937 0
49 -1929 1938 0
49 -1939 1950 0
49 -1940 1951 0
49 -1941 1952 0
49 -1942 1953 0
49 -1943 1954 0
49 -1944 1955 0
49 -1945 1956 0
49 -1946 1957 0
49 -1947 1958 0
49 -1948 1959 0
49 -1949 1960 0
49 -1 3963 0
49 -2 3951 0
49 -3 3936 0
49 -4 3937 0
49 -5 3938 0
49 -6 3939 0
49 -7 3923 0
49 -8 3924 0
49 -9 3925 0
49 -10 3926 0
49 -11 3966 0
49 -12 3955 0
49 -13 3922 0
49 -14 3935 0
49 -15 3922 0
49 -16 3935 0
49 -17 3936 0
49 -18 3937 0
49 -19 3938 0
49 -20 3939 0
49 -21 3940 0
49 -22 3941 0
49 -23 3923 0
49 -24 3924 0
49 -25 3925 0
49 -26 3926 0
49 -27 3927 0
49 -28 3928 0
49 -29 3930 0
49 -30 3943 0
49 -31 3966 0
49 -32 3955 0
49 -33 3922 0
49 -34 3923 0
49 -35 3924 0
49 -36 3925 0
49 -37 3926 0
49 -38 3927 0
49 -39 3928 0
49 -40 3929 0
49 -41 3930 0
49 -42 3931 0
49 -43 3932 0
49 -44 3935 0
49 -45 3936 0
49 -46 3937 0
49 -47 3938 0
49 -48 3939 0
49 -49 3940 0
49 -50 3941 0
49 -51 3942 0
49 -52 3943 0
49 -53 3944 0
49 -54 3945 0
49 -55 3943 0
49 -56 3944 0
49 -57 3945 0
49 -58 3930 0
49 -59 3931 0
49 -60 3932 0
49 -61 3968 0
49 -62 3957 0
49 -63 3947 0
49 -64 3948 0
49 -65 3949 0
49 -66 3959 0
49 -67 3960 0
49 -68 3961 0
49 -69 3922 0
49 -70 3935 0
49 -71 3959 0
49 -72 3947 0
49 -73 3956 0
49 -74 3967 0
49 -75 3938 0
49 -76 3925 0
49 -77 3947 0
49 -78 3949 0
49 -79 3950 0
49 -80 3951 0
49 -81 3953 0
49 -82 3954 0
49 -83 3955 0
49 -84 3956 0
49 -85 3957 0
49 -86 3958 0
49 -87 3959 0
49 -88 3961 0
49 -89 3962 0
49 -90 3963 0
49 -91 3964 0
49 -92 3965 0
49 -93 3966 0
49 -94 3967 0
49 -95 3968 0
49 -96 3969 0
49 -97 3930 0
49 -98 3943 0
49 -99 3922 0
49 -100 3923 0
49 -101 3935 0
49 -102 3936 0
49 -103 3923 0
49 -104 3936 0
49 -105 3963 0
49 -106 3951 0
49 -107 3931 0
49 -108 3932 0
49 -109 3944 0
49 -110 3945 0
49 -111 3959 0
49 -112 3947 0
49 -113 3926 0
49 -114 3927 0
49 -115 3939 0
49 -116 3940 0
49 -117 3942 0
49 -118 3943 0
49 -119 3944 0
49 -120 3945 0
49 -121 3929 0
49 -122 3930 0
49 -123 3931 0
49 -124 3932 0
49 -125 3923 0
49 -126 3936 0
49 -127 3968 0
49 -128 3957 0
49 -129 3926 0
49 -130 3939 0
49 -131 3932 0
49 -132 3945 0
49 -133 3931 0
49 -134 3932 0
49 -135 3944 0
49 -136 3945 0
49 -137 3957 0
49 -138 3968 0
49 -139 3931 0
49 -140 3944 0
49 -141 3945 0
49 -142 3932 0
49 -143 3964 0
49 -144 3953 0
49 -145 3958 0
49 -146 3969 0
49 -147 3938 0
49 -148 3925 0
49 -149 3959 0
49 -150 3947 0
49 -151 3958 0
49 -152 3969 0
49 -153 3958 0
49 -154 3969 0
49 -155 3931 0
49 -156 3944 0
49 -157 3929 0
49 -158 3942 0
49 -159 3931 0
49 -160 3944 0
49 -161 3924 0
49 -162 3937 0
49 -163 3959 0
49 -164 3947 0
49 -165 3935 0
49 -166 3936 0
49 -167 3938 0
49 -168 3954 0
49 -169 3956 0
49 -170 3922 0
49 -171 3923 0
49 -172 3925 0
49 -173 3965 0
49 -174 3967 0
49 -175 3938 0
49 -176 3925 0
49 -177 3932 0
49 -178 3945 0
49 -179 3927 0
49 -180 3940 0
49 -181 3951 0
49 -182 3963 0
49 -183 3937 0
49 -184 3938 0
49 -185 3939 0
49 -186 3940 0
49 -187 3941 0
49 -188 3924 0
49 -189 3925 0
49 -190 3926 0
49 -191 3927 0
49 -192 3928 0
49 -193 3955 0
49 -194 3956 0
49 -195 3966 0
49 -196 3967 0
49 -197 3959 0
49 -198 3947 0
49 -199 3935 0
49 -200 3936 0
49 -201 3938 0
49 -202 3922 0
49 -203 3923 0
49 -204 3925 0
49 -205 3956 0
49 -206 3967 0
49 -207 3951 0
49 -208 3963 0
49 -209 3927 0
49 -210 3940 0
49 -211 3940 0
49 -212 3927 0
49 -213 3961 0
49 -214 3962 0
49 -215 3963 0
49 -216 3964 0
49 -217 3965 0
49 -218 3966 0
49 -219 3967 0
49 -220 3968 0
49 -221 3969 0
49 -222 3949 0
49 -223 3950 0
49 -224 3951 0
49 -225 3953 0
49 -226 3954 0
49 -227 3955 0
49 -228 3956 0
49 -229 3957 0
49 -230 3958 0
49 -231 3936 0
49 -232 3923 0
49 -233 3931 0
49 -234 3944 0
49 -235 3967 0
49 -236 3956 0
49 -237 3922 0
49 -238 3923 0
49 -239 3924 0
49 -240 3925 0
49 -241 3926 0
49 -242 3927 0
49 -243 3928 0
49 -244 3929 0
49 -245 3935 0
49 -246 3936 0
49 -247 3937 0
49 -248 3938 0
49 -249 3939 0
49 -250 3940 0
49 -251 3941 0
49 -252 3942 0
49 -253 3926 0
49 -254 3939 0
49 -255 3962 0
49 -256 3963 0
49 -257 3964 0
49 -258 3965 0
49 -259 3966 0
49 -260 3967 0
49 -261 3968 0
49 -262 3969 0
49 -263 3950 0
49 -264 3951 0
49 -265 3953 0
49 -266 3954 0
49 -267 3955 0
49 -268 3956 0
49 -269 3957 0
49 -270 3958 0
49 -271 3947 0
49 -272 3948 0
49 -273 3959 0
49 -274 3960 0
49 -275 3967 0
49 -276 3956 0
49 -277 3959 0
49 -278 3947 0
49 -279 3923 0
49 -280 3924 0
49 -281 3925 0
49 -282 3936 0
49 -283 3937 0
49 -284 3938 0
49 -285 3939 0
49 -286 3926 0
49 -287 3968 0
49 -288 3969 0
49 -289 3957 0
49 -290 3958 0
49 -291 3926 0
49 -292 3939 0
49 -293 3926 0
49 -294 3939 0
49 -295 3954 0
49 -296 3965 0
49 -297 3969 0
49 -298 3958 0
49 -299 3958 0
49 -300 3969 0
49 -301 3945 0
49 -302 3932 0
49 -303 3965 0
49 -304 3954 0
49 -305 3947 0
49 -306 3948 0
49 -307 3949 0
49 -308 3959 0
49 -309 3960 0
49 -310 3961 0
49 -311 3955 0
49 -312 3966 0
49 -313 3933 0
49 -314 3946 0
49 -315 3958 0
49 -316 3969 0
49 -317 3923 0
49 -318 3936 0
49 -319 3957 0
49 -320 3968 0
49 -321 3944 0
49 -322 3931 0
49 -323 3924 0
49 -324 3937 0
49 -325 3950 0
49 -326 3962 0
49 -327 3969 0
49 -328 3958 0
49 -329 3945 0
49 -330 3932 0
49 -331 3963 0
49 -332 3951 0
49 -333 3951 0
49 -334 3953 0
49 -335 3963 0
49 -336 3964 0
49 -337 3959 0
49 -338 3960 0
49 -339 3947 0
49 -340 3948 0
49 -341 3935 0
49 -342 3936 0
49 -343 3937 0
49 -344 3938 0
49 -345 3939 0
49 -346 3922 0
49 -347 3923 0
49 -348 3924 0
49 -349 3925 0
49 -350 3926 0
49 -351 3945 0
49 -352 3932 0
49 -353 3935 0
49 -354 3922 0
49 -355 3932 0
49 -356 3945 0
49 -357 3932 0
49 -358 3945 0
49 -359 3944 0
49 -360 3931 0
49 -361 3942 0
49 -362 3943 0
49 -363 3929 0
49 -364 3930 0
49 -365 3966 0
49 -366 3955 0
49 -367 3969 0
49 -368 3958 0
49 -369 3955 0
49 -370 3966 0
49 -371 3967 0
49 -372 3968 0
49 -373 3969 0
49 -374 3956 0
49 -375 3957 0
49 -376 3958 0
49 -377 3956 0
49 -378 3957 0
49 -379 3967 0
49 -380 3968 0
49 -381 3957 0
49 -382 3968 0
49 -383 3945 0
49 -384 3932 0
49 -385 3929 0
49 -386 3930 0
49 -387 3931 0
49 -388 3932 0
49 -389 3942 0
49 -390 3943 0
49 -391 3944 0
49 -392 3945 0
49 -393 3950 0
49 -394 3962 0
49 -395 3923 0
49 -396 3924 0
49 -397 3925 0
49 -398 3926 0
49 -399 3936 0
49 -400 3937 0
49 -401 3938 0
49 -402 3939 0
49 -403 3923 0
49 -404 3924 0
49 -405 3936 0
49 -406 3937 0
49 -407 3925 0
49 -408 3938 0
49 -409 3948 0
49 -410 3949 0
49 -411 3950 0
49 -412 3951 0
49 -413 3953 0
49 -414 3954 0
49 -415 3955 0
49 -416 3956 0
49 -417 3957 0
49 -418 3968 0
49 -419 3957 0
49 -420 3960 0
49 -421 3961 0
49 -422 3962 0
49 -423 3963 0
49 -424 3964 0
49 -425 3965 0
49 -426 3966 0
49 -427 3967 0
49 -428 3968 0
49 -429 3937 0
49 -430 3924 0
49 -431 3936 0
49 -432 3937 0
49 -433 3938 0
49 -434 3939 0
49 -435 3940 0
49 -436 3941 0
49 -437 3942 0
49 -438 3943 0
49 -439 3944 0
49 -440 3923 0
49 -441 3924 0
49 -442 3925 0
49 -443 3926 0
49 -444 3927 0
49 -445 3928 0
49 -446 3929 0
49 -447 3930 0
49 -448 3931 0
49 -449 3954 0
49 -450 3965 0
49 -451 3943 0
49 -452 3930 0
49 -453 3948 0
49 -454 3960 0
49 -455 3967 0
49 -456 3956 0
49 -457 3937 0
49 -458 3924 0
49 -459 3966 0
49 -460 3955 0
49 -461 3961 0
49 -462 3962 0
49 -463 3949 0
49 -464 3950 0
49 -465 3968 0
49 -466 3957 0
49 -467 3957 0
49 -468 3968 0
49 -469 3923 0
49 -470 3924 0
49 -471 3936 0
49 -472 3937 0
49 -473 3942 0
49 -474 3943 0
49 -475 3929 0
49 -476 3930 0
49 -477 3941 0
49 -478 3928 0
49 -479 3948 0
49 -480 3960 0
49 -481 3935 0
49 -482 3936 0
49 -483 3937 0
49 -484 3938 0
49 -485 3922 0
49 -486 3923 0
49 -487 3924 0
49 -488 3925 0
49 -489 3962 0
49 -490 3950 0
49 -491 3930 0
49 -492 3943 0
49 -493 3968 0
49 -494 3957 0
49 -495 3943 0
49 -496 3930 0
49 -497 3962 0
49 -498 3963 0
49 -499 3950 0
49 -500 3951 0
49 -501 3949 0
49 -502 3961 0
49 -503 3937 0
49 -504 3924 0
49 -505 3950 0
49 -506 3962 0
49 -507 3936 0
49 -508 3937 0
49 -509 3938 0
49 -510 3939 0
49 -511 3940 0
49 -512 3941 0
49 -513 3942 0
49 -514 3943 0
49 -515 3944 0
49 -516 3923 0
49 -517 3924 0
49 -518 3925 0
49 -519 3926 0
49 -520 3927 0
49 -521 3928 0
49 -522 3929 0
49 -523 3930 0
49 -524 3931 0
49 -525 3951 0
49 -526 3953 0
49 -527 3954 0
49 -528 3955 0
49 -529 3956 0
49 -530 3957 0
49 -531 3963 0
49 -532 3964 0
49 -533 3965 0
49 -534 3966 0
49 -535 3967 0
49 -536 3968 0
49 -537 3942 0
49 -538 3943 0
49 -539 3944 0
49 -540 3929 0
49 -541 3930 0
49 -542 3931 0
49 -543 3949 0
49 -544 3950 0
49 -545 3951 0
49 -546 3953 0
49 -547 3954 0
49 -548 3955 0
49 -549 3956 0
49 -550 3957 0
49 -551 3961 0
49 -552 3962 0
49 -553 3963 0
49 -554 3964 0
49 -555 3965 0
49 -556 3966 0
49 -557 3967 0
49 -558 3968 0
49 -559 3961 0
49 -560 3949 0
49 -561 3941 0
49 -562 3928 0
49 -563 3929 0
49 -564 3942 0
49 -565 3949 0
49 -566 3961 0
49 -567 3966 0
49 -568 3955 0
49 -569 3960 0
49 -570 3948 0
49 -571 3968 0
49 -572 3957 0
49 -573 3932 0
49 -574 3945 0
49 -575 3959 0
49 -576 3947 0
49 -577 3961 0
49 -578 3962 0
49 -579 3963 0
49 -580 3964 0
49 -581 3965 0
49 -582 3966 0
49 -583 3967 0
49 -584 3968 0
49 -585 3949 0
49 -586 3950 0
49 -587 3951 0
49 -588 3953 0
49 -589 3954 0
49 -590 3955 0
49 -591 3956 0
49 -592 3957 0
49 -593 3924 0
49 -594 3937 0
49 -595 3942 0
49 -596 3929 0
49 -597 3954 0
49 -598 3955 0
49 -599 3956 0
49 -600 3957 0
49 -601 3965 0
49 -602 3966 0
49 -603 3967 0
49 -604 3968 0
49 -605 3936 0
49 -606 3937 0
49 -607 3923 0
49 -608 3924 0
49 -609 3930 0
49 -610 3931 0
49 -611 3943 0
49 -612 3944 0
49 -613 3948 0
49 -614 3949 0
49 -615 3950 0
49 -616 3951 0
49 -617 3960 0
49 -618 3961 0
49 -619 3962 0
49 -620 3963 0
49 -621 3935 0
49 -622 3936 0
49 -623 3937 0
49 -624 3938 0
49 -625 3939 0
49 -626 3922 0
49 -627 3923 0
49 -628 3924 0
49 -629 3925 0
49 -630 3926 0
49 -631 3968 0
49 -632 3957 0
49 -633 3950 0
49 -634 3962 0
49 -635 3957 0
49 -636 3968 0
49 -637 3953 0
49 -638 3964 0
49 -639 3957 0
49 -640 3968 0
49 -641 3959 0
49 -642 3960 0
49 -643 3961 0
49 -644 3962 0
49 -645 3963 0
49 -646 3966 0
49 -647 3967 0
49 -648 3968 0
49 -649 3969 0
49 -650 3947 0
49 -651 3948 0
49 -652 3949 0
49 -653 3950 0
49 -654 3951 0
49 -655 3955 0
49 -656 3956 0
49 -657 3957 0
49 -658 3958 0
49 -659 3955 0
49 -660 3956 0
49 -661 3957 0
49 -662 3966 0
49 -663 3967 0
49 -664 3968 0
49 -665 3957 0
49 -666 3968 0
49 -667 3960 0
49 -668 3961 0
49 -669 3948 0
49 -670 3949 0
49 -671 3922 0
49 -672 3923 0
49 -673 3924 0
49 -674 3925 0
49 -675 3926 0
49 -676 3935 0
49 -677 3936 0
49 -678 3937 0
49 -679 3938 0
49 -680 3939 0
49 -681 3944 0
49 -682 3931 0
49 -683 3930 0
49 -684 3943 0
49 -685 3936 0
49 -686 3937 0
49 -687 3938 0
49 -688 3939 0
49 -689 3940 0
49 -690 3941 0
49 -691 3942 0
49 -692 3943 0
49 -693 3944 0
49 -694 3923 0
49 -695 3924 0
49 -696 3925 0
49 -697 3926 0
49 -698 3927 0
49 -699 3928 0
49 -700 3929 0
49 -701 3930 0
49 -702 3931 0
49 -703 3942 0
49 -704 3943 0
49 -705 3944 0
49 -706 3929 0
49 -707 3930 0
49 -708 3931 0
49 -709 3964 0
49 -710 3953 0
49 -711 3938 0
49 -712 3925 0
49 -713 3943 0
49 -714 3930 0
49 -715 3935 0
49 -716 3936 0
49 -717 3937 0
49 -718 3938 0
49 -719 3939 0
49 -720 3940 0
49 -721 3941 0
49 -722 3942 0
49 -723 3943 0
49 -724 3944 0
49 -725 3922 0
49 -726 3923 0
49 -727 3924 0
49 -728 3925 0
49 -729 3926 0
49 -730 3927 0
49 -731 3928 0
49 -732 3929 0
49 -733 3930 0
49 -734 3931 0
49 -735 3947 0
49 -736 3948 0
49 -737 3949 0
49 -738 3950 0
49 -739 3951 0
49 -740 3953 0
49 -741 3954 0
49 -742 3955 0
49 -743 3959 0
49 -744 3960 0
49 -745 3961 0
49 -746 3962 0
49 -747 3963 0
49 -748 3964 0
49 -749 3965 0
49 -750 3966 0
49 -751 3963 0
49 -752 3951 0
49 -753 3968 0
49 -754 3969 0
49 -755 3957 0
49 -756 3958 0
49 -757 3941 0
49 -758 3928 0
49 -759 3947 0
49 -760 3959 0
49 -761 3941 0
49 -762 3928 0
49 -763 3939 0
49 -764 3926 0
49 -765 3922 0
49 -766 3923 0
49 -767 3924 0
49 -768 3925 0
49 -769 3935 0
49 -770 3936 0
49 -771 3937 0
49 -772 3938 0
49 -773 3932 0
49 -774 3945 0
49 -775 3960 0
49 -776 3948 0
49 -777 3944 0
49 -778 3931 0
49 -779 3950 0
49 -780 3962 0
49 -781 3936 0
49 -782 3937 0
49 -783 3938 0
49 -784 3923 0
49 -785 3924 0
49 -786 3925 0
49 -787 3943 0
49 -788 3930 0
49 -789 3931 0
49 -790 3944 0
49 -791 3962 0
49 -792 3950 0
49 -793 3941 0
49 -794 3928 0
49 -795 3966 0
49 -796 3967 0
49 -797 3968 0
49 -798 3955 0
49 -799 3956 0
49 -800 3957 0
49 -801 3923 0
49 -802 3924 0
49 -803 3936 0
49 -804 3937 0
49 -805 3948 0
49 -806 3960 0
49 -807 3964 0
49 -808 3953 0
49 -809 3969 0
49 -810 3958 0
49 -811 3948 0
49 -812 3949 0
49 -813 3960 0
49 -814 3961 0
49 -815 3958 0
49 -816 3969 0
49 -817 3961 0
49 -818 3962 0
49 -819 3949 0
49 -820 3950 0
49 -821 3967 0
49 -822 3956 0
49 -823 3945 0
49 -824 3932 0
49 -825 3959 0
49 -826 3960 0
49 -827 3961 0
49 -828 3962 0
49 -829 3963 0
49 -830 3964 0
49 -831 3965 0
49 -832 3966 0
49 -833 3967 0
49 -834 3968 0
49 -835 3969 0
49 -836 3947 0
49 -837 3948 0
49 -838 3949 0
49 -839 3950 0
49 -840 3951 0
49 -841 3953 0
49 -842 3954 0
49 -843 3955 0
49 -844 3956 0
49 -845 3957 0
49 -846 3958 0
49 -847 3967 0
49 -848 3956 0
49 -849 3930 0
49 -850 3943 0
49 -851 3942 0
49 -852 3943 0
49 -853 3944 0
49 -854 3929 0
49 -855 3930 0
49 -856 3931 0
49 -857 3955 0
49 -858 3956 0
49 -859 3966 0
49 -860 3967 0
49 -861 3957 0
49 -862 3968 0
49 -863 3968 0
49 -864 3957 0
49 -865 3929 0
49 -866 3942 0
49 -867 3961 0
49 -868 3949 0
49 -869 3956 0
49 -870 3957 0
49 -871 3967 0
49 -872 3968 0
49 -873 3951 0
49 -874 3953 0
49 -875 3954 0
49 -876 3955 0
49 -877 3956 0
49 -878 3957 0
49 -879 3958 0
49 -880 3963 0
49 -881 3964 0
49 -882 3965 0
49 -883 3966 0
49 -884 3967 0
49 -885 3968 0
49 -886 3969 0
49 -887 3930 0
49 -888 3931 0
49 -889 3943 0
49 -890 3944 0
49 -891 3957 0
49 -892 3968 0
49 -893 3951 0
49 -894 3953 0
49 -895 3963 0
49 -896 3964 0
49 -897 3923 0
49 -898 3936 0
49 -899 3931 0
49 -900 3944 0
49 -901 3968 0
49 -902 3957 0
49 -903 3950 0
49 -904 3951 0
49 -905 3953 0
49 -906 3954 0
49 -907 3962 0
49 -908 3963 0
49 -909 3964 0
49 -910 3965 0
49 -911 3943 0
49 -912 3930 0
49 -913 3936 0
49 -914 3923 0
49 -915 3960 0
49 -916 3948 0
49 -917 3923 0
49 -918 3924 0
49 -919 3936 0
49 -920 3937 0
49 -921 3948 0
49 -922 3960 0
49 -923 3930 0
49 -924 3943 0
49 -925 3936 0
49 -926 3923 0
49 -927 3939 0
49 -928 3940 0
49 -929 3941 0
49 -930 3942 0
49 -931 3926 0
49 -932 3927 0
49 -933 3928 0
49 -934 3929 0
49 -935 3924 0
49 -936 3937 0
49 -937 3927 0
49 -938 3940 0
49 -939 3935 0
49 -940 3936 0
49 -941 3937 0
49 -942 3938 0
49 -943 3939 0
49 -944 3940 0
49 -945 3941 0
49 -946 3942 0
49 -947 3922 0
49 -948 3923 0
49 -949 3924 0
49 -950 3925 0
49 -951 3926 0
49 -952 3927 0
49 -953 3928 0
49 -954 3929 0
49 -955 3951 0
49 -956 3953 0
49 -957 3954 0
49 -958 3955 0
49 -959 3963 0
49 -960 3964 0
49 -961 3965 0
49 -962 3966 0
49 -963 3949 0
49 -964 3950 0
49 -965 3951 0
49 -966 3961 0
49 -967 3962 0
49 -968 3963 0
49 -969 3922 0
49 -970 3923 0
49 -971 3924 0
49 -972 3925 0
49 -973 3926 0
49 -974 3927 0
49 -975 3928 0
49 -976 3929 0
49 -977 3930 0
49 -978 3931 0
49 -979 3932 0
49 -980 3947 0
49 -981 3948 0
49 -982 3949 0
49 -983 3950 0
49 -984 3951 0
49 -985 3953 0
49 -986 3954 0
49 -987 3955 0
49 -988 3956 0
49 -989 3957 0
49 -990 3958 0
49 -991 3959 0
49 -992 3960 0
49 -993 3961 0
49 -994 3962 0
49 -995 3963 0
49 -996 3964 0
49 -997 3965 0
49 -998 3966 0
49 -999 3967 0
49 -1000 3968 0
49 -1001 3969 0
49 -1002 3935 0
49 -1003 3936 0
49 -1004 3937 0
49 -1005 3938 0
49 -1006 3939 0
49 -1007 3940 0
49 -1008 3941 0
49 -1009 3942 0
49 -1010 3943 0
49 -1011 3944 0
49 -1012 3945 0
49 -1013 3947 0
49 -1014 3948 0
49 -1015 3949 0
49 -1016 3950 0
49 -1017 3951 0
49 -1018 3953 0
49 -1019 3954 0
49 -1020 3955 0
49 -1021 3956 0
49 -1022 3957 0
49 -1023 3958 0
49 -1024 3959 0
49 -1025 3960 0
49 -1026 3961 0
49 -1027 3962 0
49 -1028 3963 0
49 -1029 3964 0
49 -1030 3965 0
49 -1031 3966 0
49 -1032 3967 0
49 -1033 3968 0
49 -1034 3969 0
49 -1035 3941 0
49 -1036 3928 0
49 -1037 3922 0
49 -1038 3935 0
49 -1039 3945 0
49 -1040 3932 0
49 -1041 3943 0
49 -1042 3945 0
49 -1043 3930 0
49 -1044 3932 0
49 -1045 3949 0
49 -1046 3950 0
49 -1047 3951 0
49 -1048 3953 0
49 -1049 3954 0
49 -1050 3955 0
49 -1051 3956 0
49 -1052 3957 0
49 -1053 3961 0
49 -1054 3962 0
49 -1055 3963 0
49 -1056 3964 0
49 -1057 3965 0
49 -1058 3966 0
49 -1059 3967 0
49 -1060 3968 0
49 -1061 3926 0
49 -1062 3939 0
49 -1063 3931 0
49 -1064 3949 0
49 -1065 3950 0
49 -1066 3951 0
49 -1067 3953 0
49 -1068 3954 0
49 -1069 3955 0
49 -1070 3956 0
49 -1071 3957 0
49 -1072 3960 0
49 -1073 3961 0
49 -1074 3962 0
49 -1075 3963 0
49 -1076 3964 0
49 -1077 3965 0
49 -1078 3966 0
49 -1079 3967 0
49 -1080 3968 0
49 -1081 3944 0
49 -1082 3948 0
49 -1083 3949 0
49 -1084 3950 0
49 -1085 3951 0
49 -1086 3953 0
49 -1087 3954 0
49 -1088 3955 0
49 -1089 3956 0
49 -1090 3957 0
49 -1091 3961 0
49 -1092 3962 0
49 -1093 3963 0
49 -1094 3964 0
49 -1095 3965 0
49 -1096 3966 0
49 -1097 3967 0
49 -1098 3968 0
49 -1099 3923 0
49 -1100 3924 0
49 -1101 3925 0
49 -1102 3926 0
49 -1103 3927 0
49 -1104 3928 0
49 -1105 3929 0
49 -1106 3930 0
49 -1107 3936 0
49 -1108 3937 0
49 -1109 3938 0
49 -1110 3939 0
49 -1111 3940 0
49 -1112 3941 0
49 -1113 3942 0
49 -1114 3943 0
49 -1115 3944 0
49 -1116 3948 0
49 -1117 3949 0
49 -1118 3950 0
49 -1119 3951 0
49 -1120 3953 0
49 -1121 3954 0
49 -1122 3955 0
49 -1123 3956 0
49 -1124 3957 0
49 -1125 3923 0
49 -1126 3924 0
49 -1127 3925 0
49 -1128 3926 0
49 -1129 3927 0
49 -1130 3928 0
49 -1131 3929 0
49 -1132 3930 0
49 -1133 3931 0
49 -1134 3936 0
49 -1135 3937 0
49 -1136 3938 0
49 -1137 3939 0
49 -1138 3940 0
49 -1139 3941 0
49 -1140 3942 0
49 -1141 3943 0
49 -1142 3960 0
49 -1143 3961 0
49 -1144 3962 0
49 -1145 3963 0
49 -1146 3964 0
49 -1147 3965 0
49 -1148 3966 0
49 -1149 3967 0
49 -1150 3968 0
49 -1151 3923 0
49 -1152 3924 0
49 -1153 3925 0
49 -1154 3926 0
49 -1155 3927 0
49 -1156 3928 0
49 -1157 3929 0
49 -1158 3930 0
49 -1159 3931 0
49 -1160 3936 0
49 -1161 3937 0
49 -1162 3938 0
49 -1163 3939 0
49 -1164 3940 0
49 -1165 3941 0
49 -1166 3942 0
49 -1167 3943 0
49 -1168 3960 0
49 -1169 3961 0
49 -1170 3923 0
49 -1171 3924 0
49 -1172 3925 0
49 -1173 3926 0
49 -1174 3927 0
49 -1175 3928 0
49 -1176 3929 0
49 -1177 3930 0
49 -1178 3936 0
49 -1179 3937 0
49 -1180 3938 0
49 -1181 3939 0
49 -1182 3940 0
49 -1183 3941 0
49 -1184 3942 0
49 -1185 3943 0
49 -1186 3944 0
49 -1187 3948 0
49 -1188 3949 0
49 -1189 3954 0
49 -1190 3965 0
49 -1191 3923 0
49 -1192 3924 0
49 -1193 3925 0
49 -1194 3926 0
49 -1195 3927 0
49 -1196 3928 0
49 -1197 3929 0
49 -1198 3930 0
49 -1199 3936 0
49 -1200 3937 0
49 -1201 3938 0
49 -1202 3939 0
49 -1203 3940 0
49 -1204 3941 0
49 -1205 3942 0
49 -1206 3943 0
49 -1207 3955 0
49 -1208 3956 0
49 -1209 3957 0
49 -1210 3960 0
49 -1211 3961 0
49 -1212 3962 0
49 -1213 3963 0
49 -1214 3964 0
49 -1215 3965 0
49 -1216 3966 0
49 -1217 3967 0
49 -1218 3968 0
49 -1219 3948 0
49 -1220 3949 0
49 -1221 3950 0
49 -1222 3951 0
49 -1223 3953 0
49 -1224 3954 0
49 -1225 3955 0
49 -1226 3956 0
49 -1227 3957 0
49 -1228 3966 0
49 -1229 3967 0
49 -1230 3968 0
49 -1231 3923 0
49 -1232 3924 0
49 -1233 3925 0
49 -1234 3926 0
49 -1235 3927 0
49 -1236 3928 0
49 -1237 3929 0
49 -1238 3936 0
49 -1239 3937 0
49 -1240 3938 0
49 -1241 3939 0
49 -1242 3940 0
49 -1243 3941 0
49 -1244 3942 0
49 -1245 3954 0
49 -1246 3965 0
49 -1247 3928 0
49 -1248 3941 0
49 -1249 3961 0
49 -1250 3962 0
49 -1251 3963 0
49 -1252 3964 0
49 -1253 3949 0
49 -1254 3950 0
49 -1255 3951 0
49 -1256 3953 0
49 -1257 3924 0
49 -1258 3925 0
49 -1259 3926 0
49 -1260 3937 0
49 -1261 3938 0
49 -1262 3939 0
49 -1263 3932 0
49 -1264 3945 0
49 -1265 3926 0
49 -1266 3939 0
49 -1267 3926 0
49 -1268 3939 0
49 -1269 3963 0
49 -1270 3951 0
49 -1271 3945 0
49 -1272 3932 0
49 -1273 3969 0
49 -1274 3958 0
49 -1275 3965 0
49 -1276 3966 0
49 -1277 3967 0
49 -1278 3968 0
49 -1279 3954 0
49 -1280 3955 0
49 -1281 3956 0
49 -1282 3957 0
49 -1283 3957 0
49 -1284 3968 0
49 -1285 3957 0
49 -1286 3968 0
49 -1287 3964 0
49 -1288 3965 0
49 -1289 3966 0
49 -1290 3967 0
49 -1291 3953 0
49 -1292 3954 0
49 -1293 3955 0
49 -1294 3956 0
49 -1295 3951 0
49 -1296 3953 0
49 -1297 3954 0
49 -1298 3955 0
49 -1299 3956 0
49 -1300 3957 0
49 -1301 3963 0
49 -1302 3964 0
49 -1303 3965 0
49 -1304 3966 0
49 -1305 3967 0
49 -1306 3968 0
49 -1307 3936 0
49 -1308 3937 0
49 -1309 3938 0
49 -1310 3939 0
49 -1311 3923 0
49 -1312 3924 0
49 -1313 3925 0
49 -1314 3926 0
49 -1315 3960 0
49 -1316 3948 0
49 -1317 3969 0
49 -1318 3958 0
49 -1319 3923 0
49 -1320 3924 0
49 -1321 3936 0
49 -1322 3937 0
49 -1323 3923 0
49 -1324 3924 0
49 -1325 3925 0
49 -1326 3926 0
49 -1327 3936 0
49 -1328 3937 0
49 -1329 3938 0
49 -1330 3939 0
49 -1331 3963 0
49 -1332 3964 0
49 -1333 3951 0
49 -1334 3953 0
49 -1335 3936 0
49 -1336 3937 0
49 -1337 3938 0
49 -1338 3923 0
49 -1339 3924 0
49 -1340 3925 0
49 -1341 3929 0
49 -1342 3930 0
49 -1343 3931 0
49 -1344 3942 0
49 -1345 3943 0
49 -1346 3944 0
49 -1347 3953 0
49 -1348 3954 0
49 -1349 3955 0
49 -1350 3956 0
49 -1351 3957 0
49 -1352 3964 0
49 -1353 3965 0
49 -1354 3966 0
49 -1355 3967 0
49 -1356 3968 0
49 -1357 3948 0
49 -1358 3949 0
49 -1359 3960 0
49 -1360 3961 0
49 -1361 3954 0
49 -1362 3955 0
49 -1363 3956 0
49 -1364 3957 0
49 -1365 3965 0
49 -1366 3966 0
49 -1367 3967 0
49 -1368 3968 0
49 -1369 3936 0
49 -1370 3937 0
49 -1371 3938 0
49 -1372 3939 0
49 -1373 3923 0
49 -1374 3924 0
49 -1375 3925 0
49 -1376 3926 0
49 -1377 3923 0
49 -1378 3924 0
49 -1379 3936 0
49 -1380 3937 0
49 -1381 3956 0
49 -1382 3957 0
49 -1383 3967 0
49 -1384 3968 0
49 -1385 3959 0
49 -1386 3960 0
49 -1387 3947 0
49 -1388 3948 0
49 -1389 3940 0
49 -1390 3927 0
49 -1391 3960 0
49 -1392 3961 0
49 -1393 3948 0
49 -1394 3949 0
49 -1395 3945 0
49 -1396 3932 0
49 -1397 3959 0
49 -1398 3960 0
49 -1399 3961 0
49 -1400 3947 0
49 -1401 3948 0
49 -1402 3949 0
49 -1403 3936 0
49 -1404 3937 0
49 -1405 3923 0
49 -1406 3924 0
49 -1407 3936 0
49 -1408 3937 0
49 -1409 3923 0
49 -1410 3924 0
49 -1411 3926 0
49 -1412 3939 0
49 -1413 3923 0
49 -1414 3924 0
49 -1415 3925 0
49 -1416 3936 0
49 -1417 3937 0
49 -1418 3938 0
49 -1419 3964 0
49 -1420 3965 0
49 -1421 3966 0
49 -1422 3967 0
49 -1423 3968 0
49 -1424 3953 0
49 -1425 3954 0
49 -1426 3955 0
49 -1427 3956 0
49 -1428 3957 0
49 -1429 3936 0
49 -1430 3937 0
49 -1431 3938 0
49 -1432 3939 0
49 -1433 3941 0
49 -1434 3942 0
49 -1435 3943 0
49 -1436 3944 0
49 -1437 3923 0
49 -1438 3924 0
49 -1439 3925 0
49 -1440 3926 0
49 -1441 3928 0
49 -1442 3929 0
49 -1443 3930 0
49 -1444 3931 0
49 -1445 3954 0
49 -1446 3955 0
49 -1447 3956 0
49 -1448 3957 0
49 -1449 3965 0
49 -1450 3966 0
49 -1451 3967 0
49 -1452 3968 0
49 -1453 3960 0
49 -1454 3961 0
49 -1455 3962 0
49 -1456 3963 0
49 -1457 3948 0
49 -1458 3949 0
49 -1459 3950 0
49 -1460 3951 0
49 -1461 3936 0
49 -1462 3937 0
49 -1463 3943 0
49 -1464 3944 0
49 -1465 3923 0
49 -1466 3924 0
49 -1467 3930 0
49 -1468 3931 0
49 -1469 3962 0
49 -1470 3963 0
49 -1471 3950 0
49 -1472 3951 0
49 -1473 3967 0
49 -1474 3968 0
49 -1475 3956 0
49 -1476 3957 0
49 -1477 3955 0
49 -1478 3956 0
49 -1479 3957 0
49 -1480 3966 0
49 -1481 3967 0
49 -1482 3968 0
49 -1483 3948 0
49 -1484 3949 0
49 -1485 3950 0
49 -1486 3960 0
49 -1487 3961 0
49 -1488 3962 0
49 -1489 3929 0
49 -1490 3930 0
49 -1491 3931 0
49 -1492 3942 0
49 -1493 3943 0
49 -1494 3944 0
49 -1495 3935 0
49 -1496 3936 0
49 -1497 3937 0
49 -1498 3922 0
49 -1499 3923 0
49 -1500 3924 0
49 -1501 3951 0
49 -1502 3953 0
49 -1503 3954 0
49 -1504 3955 0
49 -1505 3956 0
49 -1506 3957 0
49 -1507 3963 0
49 -1508 3964 0
49 -1509 3965 0
49 -1510 3966 0
49 -1511 3967 0
49 -1512 3968 0
49 -1513 3931 0
49 -1514 3944 0
49 -1515 3951 0
49 -1516 3953 0
49 -1517 3954 0
49 -1518 3955 0
49 -1519 3956 0
49 -1520 3957 0
49 -1521 3963 0
49 -1522 3964 0
49 -1523 3965 0
49 -1524 3966 0
49 -1525 3967 0
49 -1526 3968 0
49 -1527 3940 0
49 -1528 3941 0
49 -1529 3927 0
49 -1530 3928 0
49 -1531 3960 0
49 -1532 3961 0
49 -1533 3948 0
49 -1534 3949 0
49 -1535 3965 0
49 -1536 3966 0
49 -1537 3967 0
49 -1538 3968 0
49 -1539 3954 0
49 -1540 3955 0
49 -1541 3956 0
49 -1542 3957 0
49 -1543 3936 0
49 -1544 3937 0
49 -1545 3938 0
49 -1546 3939 0
49 -1547 3940 0
49 -1548 3923 0
49 -1549 3924 0
49 -1550 3925 0
49 -1551 3926 0
49 -1552 3927 0
49 -1553 3955 0
49 -1554 3966 0
49 -1555 3922 0
49 -1556 3935 0
49 -1557 3935 0
49 -1558 3922 0
49 -1559 3950 0
49 -1560 3951 0
49 -1561 3953 0
49 -1562 3954 0
49 -1563 3955 0
49 -1564 3956 0
49 -1565 3957 0
49 -1566 3958 0
49 -1567 3962 0
49 -1568 3963 0
49 -1569 3964 0
49 -1570 3965 0
49 -1571 3966 0
49 -1572 3967 0
49 -1573 3968 0
49 -1574 3969 0
49 -1575 3929 0
49 -1576 3930 0
49 -1577 3931 0
49 -1578 3942 0
49 -1579 3943 0
49 -1580 3944 0
49 -1581 3949 0
49 -1582 3950 0
49 -1583 3951 0
49 -1584 3953 0
49 -1585 3954 0
49 -1586 3955 0
49 -1587 3956 0
49 -1588 3957 0
49 -1589 3961 0
49 -1590 3962 0
49 -1591 3963 0
49 -1592 3964 0
49 -1593 3965 0
49 -1594 3966 0
49 -1595 3967 0
49 -1596 3968 0
49 -1597 3948 0
49 -1598 3949 0
49 -1599 3950 0
49 -1600 3951 0
49 -1601 3958 0
49 -1602 3960 0
49 -1603 3961 0
49 -1604 3962 0
49 -1605 3963 0
49 -1606 3969 0
49 -1607 3935 0
49 -1608 3936 0
49 -1609 3937 0
49 -1610 3938 0
49 -1611 3942 0
49 -1612 3943 0
49 -1613 3922 0
49 -1614 3923 0
49 -1615 3924 0
49 -1616 3925 0
49 -1617 3929 0
49 -1618 3930 0
49 -1619 3962 0
49 -1620 3963 0
49 -1621 3964 0
49 -1622 3965 0
49 -1623 3966 0
49 -1624 3967 0
49 -1625 3968 0
49 -1626 3969 0
49 -1627 3950 0
49 -1628 3951 0
49 -1629 3953 0
49 -1630 3954 0
49 -1631 3955 0
49 -1632 3956 0
49 -1633 3957 0
49 -1634 3958 0
49 -1635 3935 0
49 -1636 3936 0
49 -1637 3937 0
49 -1638 3938 0
49 -1639 3942 0
49 -1640 3922 0
49 -1641 3923 0
49 -1642 3924 0
49 -1643 3925 0
49 -1644 3929 0
49 -1645 3947 0
49 -1646 3948 0
49 -1647 3949 0
49 -1648 3950 0
49 -1649 3951 0
49 -1650 3953 0
49 -1651 3956 0
49 -1652 3957 0
49 -1653 3958 0
49 -1654 3959 0
49 -1655 3960 0
49 -1656 3961 0
49 -1657 3962 0
49 -1658 3963 0
49 -1659 3964 0
49 -1660 3967 0
49 -1661 3968 0
49 -1662 3969 0
49 -1663 3947 0
49 -1664 3948 0
49 -1665 3949 0
49 -1666 3950 0
49 -1667 3951 0
49 -1668 3953 0
49 -1669 3954 0
49 -1670 3955 0
49 -1671 3956 0
49 -1672 3957 0
49 -1673 3958 0
49 -1674 3959 0
49 -1675 3960 0
49 -1676 3961 0
49 -1677 3962 0
49 -1678 3963 0
49 -1679 3964 0
49 -1680 3965 0
49 -1681 3966 0
49 -1682 3967 0
49 -1683 3968 0
49 -1684 3969 0
49 -1685 3965 0
49 -1686 3966 0
49 -1687 3967 0
49 -1688 3968 0
49 -1689 3954 0
49 -1690 3955 0
49 -1691 3956 0
49 -1692 3957 0
49 -1693 3969 0
49 -1694 3958 0
49 -1695 3947 0
49 -1696 3948 0
49 -1697 3949 0
49 -1698 3959 0
49 -1699 3960 0
49 -1700 3961 0
49 -1701 3941 0
49 -1702 3942 0
49 -1703 3943 0
49 -1704 3944 0
49 -1705 3928 0
49 -1706 3929 0
49 -1707 3930 0
49 -1708 3931 0
49 -1709 3948 0
49 -1710 3949 0
49 -1711 3950 0
49 -1712 3960 0
49 -1713 3961 0
49 -1714 3962 0
49 -1715 3922 0
49 -1716 3929 0
49 -1717 3930 0
49 -1718 3931 0
49 -1719 3932 0
49 -1720 3935 0
49 -1721 3942 0
49 -1722 3943 0
49 -1723 3944 0
49 -1724 3945 0
49 -1725 3958 0
49 -1726 3969 0
49 -1727 3923 0
49 -1728 3924 0
49 -1729 3925 0
49 -1730 3926 0
49 -1731 3927 0
49 -1732 3928 0
49 -1733 3929 0
49 -1734 3930 0
49 -1735 3931 0
49 -1736 3936 0
49 -1737 3937 0
49 -1738 3938 0
49 -1739 3939 0
49 -1740 3940 0
49 -1741 3941 0
49 -1742 3942 0
49 -1743 3943 0
49 -1744 3944 0
49 -1745 3965 0
49 -1746 3966 0
49 -1747 3967 0
49 -1748 3968 0
49 -1749 3954 0
49 -1750 3955 0
49 -1751 3956 0
49 -1752 3957 0
49 -1753 3955 0
49 -1754 3956 0
49 -1755 3957 0
49 -1756 3966 0
49 -1757 3967 0
49 -1758 3968 0
49 -1759 3923 0
49 -1760 3924 0
49 -1761 3925 0
49 -1762 3926 0
49 -1763 3927 0
49 -1764 3928 0
49 -1765 3929 0
49 -1766 3930 0
49 -1767 3936 0
49 -1768 3937 0
49 -1769 3938 0
49 -1770 3939 0
49 -1771 3940 0
49 -1772 3941 0
49 -1773 3942 0
49 -1774 3943 0
49 -1775 3923 0
49 -1776 3924 0
49 -1777 3925 0
49 -1778 3926 0
49 -1779 3927 0
49 -1780 3928 0
49 -1781 3929 0
49 -1782 3930 0
49 -1783 3936 0
49 -1784 3937 0
49 -1785 3938 0
49 -1786 3939 0
49 -1787 3940 0
49 -1788 3941 0
49 -1789 3942 0
49 -1790 3943 0
49 -1791 3936 0
49 -1792 3937 0
49 -1793 3923 0
49 -1794 3924 0
49 -1795 3960 0
49 -1796 3961 0
49 -1797 3962 0
49 -1798 3963 0
49 -1799 3948 0
49 -1800 3949 0
49 -1801 3950 0
49 -1802 3951 0
49 -1803 3948 0
49 -1804 3949 0
49 -1805 3950 0
49 -1806 3951 0
49 -1807 3954 0
49 -1808 3955 0
49 -1809 3956 0
49 -1810 3957 0
49 -1811 3960 0
49 -1812 3961 0
49 -1813 3962 0
49 -1814 3963 0
49 -1815 3965 0
49 -1816 3966 0
49 -1817 3967 0
49 -1818 3968 0
49 -1819 3948 0
49 -1820 3949 0
49 -1821 3950 0
49 -1822 3951 0
49 -1823 3954 0
49 -1824 3955 0
49 -1825 3956 0
49 -1826 3957 0
49 -1827 3960 0
49 -1828 3961 0
49 -1829 3962 0
49 -1830 3963 0
49 -1831 3965 0
49 -1832 3966 0
49 -1833 3967 0
49 -1834 3968 0
49 -1835 3923 0
49 -1836 3924 0
49 -1837 3925 0
49 -1838 3926 0
49 -1839 3927 0
49 -1840 3928 0
49 -1841 3929 0
49 -1842 3930 0
49 -1843 3936 0
49 -1844 3937 0
49 -1845 3938 0
49 -1846 3939 0
49 -1847 3940 0
49 -1848 3941 0
49 -1849 3942 0
49 -1850 3943 0
49 -1851 3923 0
49 -1852 3936 0
49 -1853 3937 0
49 -1854 3938 0
49 -1855 3939 0
49 -1856 3940 0
49 -1857 3941 0
49 -1858 3942 0
49 -1859 3943 0
49 -1860 3944 0
49 -1861 3923 0
49 -1862 3924 0
49 -1863 3925 0
49 -1864 3926 0
49 -1865 3927 0
49 -1866 3928 0
49 -1867 3929 0
49 -1868 3930 0
49 -1869 3931 0
49 -1870 3936 0
49 -1871 3943 0
49 -1872 3944 0
49 -1873 3930 0
49 -1874 3931 0
49 -1875 3923 0
49 -1876 3924 0
49 -1877 3925 0
49 -1878 3926 0
49 -1879 3936 0
49 -1880 3937 0
49 -1881 3938 0
49 -1882 3939 0
49 -1883 3961 0
49 -1884 3962 0
49 -1885 3963 0
49 -1886 3964 0
49 -1887 3965 0
49 -1888 3949 0
49 -1889 3950 0
49 -1890 3951 0
49 -1891 3953 0
49 -1892 3954 0
49 -1893 3922 0
49 -1894 3923 0
49 -1895 3924 0
49 -1896 3925 0
49 -1897 3926 0
49 -1898 3927 0
49 -1899 3928 0
49 -1900 3929 0
49 -1901 3930 0
49 -1902 3931 0
49 -1903 3932 0
49 -1904 3935 0
49 -1905 3936 0
49 -1906 3937 0
49 -1907 3938 0
49 -1908 3939 0
49 -1909 3940 0
49 -1910 3941 0
49 -1911 3942 0
49 -1912 3943 0
49 -1913 3944 0
49 -1914 3945 0
49 -1915 3935 0
49 -1916 3936 0
49 -1917 3922 0
49 -1918 3923 0
49 -1919 3936 0
49 -1920 3923 0
49 -1921 3948 0
49 -1922 3949 0
49 -1923 3950 0
49 -1924 3951 0
49 -1925 3953 0
49 -1926 3954 0
49 -1927 3955 0
49 -1928 3956 0
49 -1929 3957 0
49 -1930 3960 0
49 -1931 3961 0
49 -1932 3962 0
49 -1933 3963 0
49 -1934 3964 0
49 -1935 3965 0
49 -1936 3966 0
49 -1937 3967 0
49 -1938 3968 0
49 -1939 3922 0
49 -1940 3923 0
49 -1941 3924 0
49 -1942 3925 0
49 -1943 3926 0
49 -1944 3927 0
49 -1945 3928 0
49 -1946 3929 0
49 -1947 3930 0
49 -1948 3931 0
49 -1949 3932 0
49 -1950 3935 0
49 -1951 3936 0
49 -1952 3937 0
49 -1953 3938 0
49 -1954 3939 0
49 -1955 3940 0
49 -1956 3941 0
49 -1957 3942 0
49 -1958 3943 0
49 -1959 3944 0
49 -1960 3945 0
