c Dataset: TUD200.4
c Encoding: POSE
c DecisionVars: 624
c OrderVars: 624
c CardinalityAuxVars: 0
c LabelVars: 48
c TotalVars: 1297
c OrderClauses: 2296
c CardinalityClauses: 0
c DistanceClauses: 1754
c LabelLinkClauses: 624
c SoftClauses: 48
c HardClauses: 4674
c TotalClauses: 4722
p wcnf 1297 4722 49
1 -1250 0
1 -1251 0
1 -1252 0
1 -1253 0
1 -1254 0
1 -1255 0
1 -1256 0
1 -1257 0
1 -1258 0
1 -1259 0
1 -1260 0
1 -1261 0
1 -1262 0
1 -1263 0
1 -1264 0
1 -1265 0
1 -1266 0
1 -1267 0
1 -1268 0
1 -1269 0
1 -1270 0
1 -1271 0
1 -1272 0
1 -1273 0
1 -1274 0
1 -1275 0
1 -1276 0
1 -1277 0
1 -1278 0
1 -1279 0
1 -1280 0
1 -1281 0
1 -1282 0
1 -1283 0
1 -1284 0
1 -1285 0
1 -1286 0
1 -1287 0
1 -1288 0
1 -1289 0
1 -1290 0
1 -1291 0
1 -1292 0
1 -1293 0
1 -1294 0
1 -1295 0
1 -1296 0
1 -1297 0
49 -1 626 0
49 -626 1 0
49 626 0
49 -2 627 0
49 -627 2 0
49 627 0
49 -3 628 0
49 -628 3 0
49 628 0
49 -4 629 0
49 -629 4 0
49 629 0
49 -36 661 0
49 -661 36 0
49 -631 630 0
49 -632 631 0
49 -633 632 0
49 -634 633 0
49 -635 634 0
49 -636 635 0
49 -637 636 0
49 -638 637 0
49 -639 638 0
49 -640 639 0
49 -641 640 0
49 -642 641 0
49 -643 642 0
49 -644 643 0
49 -645 644 0
49 -646 645 0
49 -647 646 0
49 -648 647 0
49 -649 648 0
49 -650 649 0
49 -651 650 0
49 -652 651 0
49 -653 652 0
49 -654 653 0
49 -655 654 0
49 -656 655 0
49 -657 656 0
49 -658 657 0
49 -659 658 0
49 -660 659 0
49 -661 660 0
49 630 0
49 -5 630 0
49 -5 -631 0
49 -630 631 5 0
49 -6 631 0
49 -6 -632 0
49 -631 632 6 0
49 -7 632 0
49 -7 -633 0
49 -632 633 7 0
49 -8 633 0
49 -8 -634 0
49 -633 634 8 0
49 -9 634 0
49 -9 -635 0
49 -634 635 9 0
49 -10 635 0
49 -10 -636 0
49 -635 636 10 0
49 -11 636 0
49 -11 -637 0
49 -636 637 11 0
49 -12 637 0
49 -12 -638 0
49 -637 638 12 0
49 -13 638 0
49 -13 -639 0
49 -638 639 13 0
49 -14 639 0
49 -14 -640 0
49 -639 640 14 0
49 -15 640 0
49 -15 -641 0
49 -640 641 15 0
49 -16 641 0
49 -16 -642 0
49 -641 642 16 0
49 -17 642 0
49 -17 -643 0
49 -642 643 17 0
49 -18 643 0
49 -18 -644 0
49 -643 644 18 0
49 -19 644 0
49 -19 -645 0
49 -644 645 19 0
49 -20 645 0
49 -20 -646 0
49 -645 646 20 0
49 -21 646 0
49 -21 -647 0
49 -646 647 21 0
49 -22 647 0
49 -22 -648 0
49 -647 648 22 0
49 -23 648 0
49 -23 -649 0
49 -648 649 23 0
49 -24 649 0
49 -24 -650 0
49 -649 650 24 0
49 -25 650 0
49 -25 -651 0
49 -650 651 25 0
49 -26 651 0
49 -26 -652 0
49 -651 652 26 0
49 -27 652 0
49 -27 -653 0
49 -652 653 27 0
49 -28 653 0
49 -28 -654 0
49 -653 654 28 0
49 -29 654 0
49 -29 -655 0
49 -654 655 29 0
49 -30 655 0
49 -30 -656 0
49 -655 656 30 0
49 -31 656 0
49 -31 -657 0
49 -656 657 31 0
49 -32 657 0
49 -32 -658 0
49 -657 658 32 0
49 -33 658 0
49 -33 -659 0
49 -658 659 33 0
49 -34 659 0
49 -34 -660 0
49 -659 660 34 0
49 -35 660 0
49 -35 -661 0
49 -660 661 35 0
49 -68 693 0
49 -693 68 0
49 -663 662 0
49 -664 663 0
49 -665 664 0
49 -666 665 0
49 -667 666 0
49 -668 667 0
49 -669 668 0
49 -670 669 0
49 -671 670 0
49 -672 671 0
49 -673 672 0
49 -674 673 0
49 -675 674 0
49 -676 675 0
49 -677 676 0
49 -678 677 0
49 -679 678 0
49 -680 679 0
49 -681 680 0
49 -682 681 0
49 -683 682 0
49 -684 683 0
49 -685 684 0
49 -686 685 0
49 -687 686 0
49 -688 687 0
49 -689 688 0
49 -690 689 0
49 -691 690 0
49 -692 691 0
49 -693 692 0
49 662 0
49 -37 662 0
49 -37 -663 0
49 -662 663 37 0
49 -38 663 0
49 -38 -664 0
49 -663 664 38 0
49 -39 664 0
49 -39 -665 0
49 -664 665 39 0
49 -40 665 0
49 -40 -666 0
49 -665 666 40 0
49 -41 666 0
49 -41 -667 0
49 -666 667 41 0
49 -42 667 0
49 -42 -668 0
49 -667 668 42 0
49 -43 668 0
49 -43 -669 0
49 -668 669 43 0
49 -44 669 0
49 -44 -670 0
49 -669 670 44 0
49 -45 670 0
49 -45 -671 0
49 -670 671 45 0
49 -46 671 0
49 -46 -672 0
49 -671 672 46 0
49 -47 672 0
49 -47 -673 0
49 -672 673 47 0
49 -48 673 0
49 -48 -674 0
49 -673 674 48 0
49 -49 674 0
49 -49 -675 0
49 -674 675 49 0
49 -50 675 0
49 -50 -676 0
49 -675 676 50 0
49 -51 676 0
49 -51 -677 0
49 -676 677 51 0
49 -52 677 0
49 -52 -678 0
49 -677 678 52 0
49 -53 678 0
49 -53 -679 0
49 -678 679 53 0
49 -54 679 0
49 -54 -680 0
49 -679 680 54 0
49 -55 680 0
49 -55 -681 0
49 -680 681 55 0
49 -56 681 0
49 -56 -682 0
49 -681 682 56 0
49 -57 682 0
49 -57 -683 0
49 -682 683 57 0
49 -58 683 0
49 -58 -684 0
49 -683 684 58 0
49 -59 684 0
49 -59 -685 0
49 -684 685 59 0
49 -60 685 0
49 -60 -686 0
49 -685 686 60 0
49 -61 686 0
49 -61 -687 0
49 -686 687 61 0
49 -62 687 0
49 -62 -688 0
49 -687 688 62 0
49 -63 688 0
49 -63 -689 0
49 -688 689 63 0
49 -64 689 0
49 -64 -690 0
49 -689 690 64 0
49 -65 690 0
49 -65 -691 0
49 -690 691 65 0
49 -66 691 0
49 -66 -692 0
49 -691 692 66 0
49 -67 692 0
49 -67 -693 0
49 -692 693 67 0
49 -69 694 0
49 -694 69 0
49 694 0
49 -70 695 0
49 -695 70 0
49 695 0
49 -106 731 0
49 -731 106 0
49 -697 696 0
49 -698 697 0
49 -699 698 0
49 -700 699 0
49 -701 700 0
49 -702 701 0
49 -703 702 0
49 -704 703 0
49 -705 704 0
49 -706 705 0
49 -707 706 0
49 -708 707 0
49 -709 708 0
49 -710 709 0
49 -711 710 0
49 -712 711 0
49 -713 712 0
49 -714 713 0
49 -715 714 0
49 -716 715 0
49 -717 716 0
49 -718 717 0
49 -719 718 0
49 -720 719 0
49 -721 720 0
49 -722 721 0
49 -723 722 0
49 -724 723 0
49 -725 724 0
49 -726 725 0
49 -727 726 0
49 -728 727 0
49 -729 728 0
49 -730 729 0
49 -731 730 0
49 696 0
49 -71 696 0
49 -71 -697 0
49 -696 697 71 0
49 -72 697 0
49 -72 -698 0
49 -697 698 72 0
49 -73 698 0
49 -73 -699 0
49 -698 699 73 0
49 -74 699 0
49 -74 -700 0
49 -699 700 74 0
49 -75 700 0
49 -75 -701 0
49 -700 701 75 0
49 -76 701 0
49 -76 -702 0
49 -701 702 76 0
49 -77 702 0
49 -77 -703 0
49 -702 703 77 0
49 -78 703 0
49 -78 -704 0
49 -703 704 78 0
49 -79 704 0
49 -79 -705 0
49 -704 705 79 0
49 -80 705 0
49 -80 -706 0
49 -705 706 80 0
49 -81 706 0
49 -81 -707 0
49 -706 707 81 0
49 -82 707 0
49 -82 -708 0
49 -707 708 82 0
49 -83 708 0
49 -83 -709 0
49 -708 709 83 0
49 -84 709 0
49 -84 -710 0
49 -709 710 84 0
49 -85 710 0
49 -85 -711 0
49 -710 711 85 0
49 -86 711 0
49 -86 -712 0
49 -711 712 86 0
49 -87 712 0
49 -87 -713 0
49 -712 713 87 0
49 -88 713 0
49 -88 -714 0
49 -713 714 88 0
49 -89 714 0
49 -89 -715 0
49 -714 715 89 0
49 -90 715 0
49 -90 -716 0
49 -715 716 90 0
49 -91 716 0
49 -91 -717 0
49 -716 717 91 0
49 -92 717 0
49 -92 -718 0
49 -717 718 92 0
49 -93 718 0
49 -93 -719 0
49 -718 719 93 0
49 -94 719 0
49 -94 -720 0
49 -719 720 94 0
49 -95 720 0
49 -95 -721 0
49 -720 721 95 0
49 -96 721 0
49 -96 -722 0
49 -721 722 96 0
49 -97 722 0
49 -97 -723 0
49 -722 723 97 0
49 -98 723 0
49 -98 -724 0
49 -723 724 98 0
49 -99 724 0
49 -99 -725 0
49 -724 725 99 0
49 -100 725 0
49 -100 -726 0
49 -725 726 100 0
49 -101 726 0
49 -101 -727 0
49 -726 727 101 0
49 -102 727 0
49 -102 -728 0
49 -727 728 102 0
49 -103 728 0
49 -103 -729 0
49 -728 729 103 0
49 -104 729 0
49 -104 -730 0
49 -729 730 104 0
49 -105 730 0
49 -105 -731 0
49 -730 731 105 0
49 -142 767 0
49 -767 142 0
49 -733 732 0
49 -734 733 0
49 -735 734 0
49 -736 735 0
49 -737 736 0
49 -738 737 0
49 -739 738 0
49 -740 739 0
49 -741 740 0
49 -742 741 0
49 -743 742 0
49 -744 743 0
49 -745 744 0
49 -746 745 0
49 -747 746 0
49 -748 747 0
49 -749 748 0
49 -750 749 0
49 -751 750 0
49 -752 751 0
49 -753 752 0
49 -754 753 0
49 -755 754 0
49 -756 755 0
49 -757 756 0
49 -758 757 0
49 -759 758 0
49 -760 759 0
49 -761 760 0
49 -762 761 0
49 -763 762 0
49 -764 763 0
49 -765 764 0
49 -766 765 0
49 -767 766 0
49 732 0
49 -107 732 0
49 -107 -733 0
49 -732 733 107 0
49 -108 733 0
49 -108 -734 0
49 -733 734 108 0
49 -109 734 0
49 -109 -735 0
49 -734 735 109 0
49 -110 735 0
49 -110 -736 0
49 -735 736 110 0
49 -111 736 0
49 -111 -737 0
49 -736 737 111 0
49 -112 737 0
49 -112 -738 0
49 -737 738 112 0
49 -113 738 0
49 -113 -739 0
49 -738 739 113 0
49 -114 739 0
49 -114 -740 0
49 -739 740 114 0
49 -115 740 0
49 -115 -741 0
49 -740 741 115 0
49 -116 741 0
49 -116 -742 0
49 -741 742 116 0
49 -117 742 0
49 -117 -743 0
49 -742 743 117 0
49 -118 743 0
49 -118 -744 0
49 -743 744 118 0
49 -119 744 0
49 -119 -745 0
49 -744 745 119 0
49 -120 745 0
49 -120 -746 0
49 -745 746 120 0
49 -121 746 0
49 -121 -747 0
49 -746 747 121 0
49 -122 747 0
49 -122 -748 0
49 -747 748 122 0
49 -123 748 0
49 -123 -749 0
49 -748 749 123 0
49 -124 749 0
49 -124 -750 0
49 -749 750 124 0
49 -125 750 0
49 -125 -751 0
49 -750 751 125 0
49 -126 751 0
49 -126 -752 0
49 -751 752 126 0
49 -127 752 0
49 -127 -753 0
49 -752 753 127 0
49 -128 753 0
49 -128 -754 0
49 -753 754 128 0
49 -129 754 0
49 -129 -755 0
49 -754 755 129 0
49 -130 755 0
49 -130 -756 0
49 -755 756 130 0
49 -131 756 0
49 -131 -757 0
49 -756 757 131 0
49 -132 757 0
49 -132 -758 0
49 -757 758 132 0
49 -133 758 0
49 -133 -759 0
49 -758 759 133 0
49 -134 759 0
49 -134 -760 0
49 -759 760 134 0
49 -135 760 0
49 -135 -761 0
49 -760 761 135 0
49 -136 761 0
49 -136 -762 0
49 -761 762 136 0
49 -137 762 0
49 -137 -763 0
49 -762 763 137 0
49 -138 763 0
49 -138 -764 0
49 -763 764 138 0
49 -139 764 0
49 -139 -765 0
49 -764 765 139 0
49 -140 765 0
49 -140 -766 0
49 -765 766 140 0
49 -141 766 0
49 -141 -767 0
49 -766 767 141 0
49 -153 778 0
49 -778 153 0
49 -769 768 0
49 -770 769 0
49 -771 770 0
49 -772 771 0
49 -773 772 0
49 -774 773 0
49 -775 774 0
49 -776 775 0
49 -777 776 0
49 -778 777 0
49 768 0
49 -143 768 0
49 -143 -769 0
49 -768 769 143 0
49 -144 769 0
49 -144 -770 0
49 -769 770 144 0
49 -145 770 0
49 -145 -771 0
49 -770 771 145 0
49 -146 771 0
49 -146 -772 0
49 -771 772 146 0
49 -147 772 0
49 -147 -773 0
49 -772 773 147 0
49 -148 773 0
49 -148 -774 0
49 -773 774 148 0
49 -149 774 0
49 -149 -775 0
49 -774 775 149 0
49 -150 775 0
49 -150 -776 0
49 -775 776 150 0
49 -151 776 0
49 -151 -777 0
49 -776 777 151 0
49 -152 777 0
49 -152 -778 0
49 -777 778 152 0
49 -164 789 0
49 -789 164 0
49 -780 779 0
49 -781 780 0
49 -782 781 0
49 -783 782 0
49 -784 783 0
49 -785 784 0
49 -786 785 0
49 -787 786 0
49 -788 787 0
49 -789 788 0
49 779 0
49 -154 779 0
49 -154 -780 0
49 -779 780 154 0
49 -155 780 0
49 -155 -781 0
49 -780 781 155 0
49 -156 781 0
49 -156 -782 0
49 -781 782 156 0
49 -157 782 0
49 -157 -783 0
49 -782 783 157 0
49 -158 783 0
49 -158 -784 0
49 -783 784 158 0
49 -159 784 0
49 -159 -785 0
49 -784 785 159 0
49 -160 785 0
49 -160 -786 0
49 -785 786 160 0
49 -161 786 0
49 -161 -787 0
49 -786 787 161 0
49 -162 787 0
49 -162 -788 0
49 -787 788 162 0
49 -163 788 0
49 -163 -789 0
49 -788 789 163 0
49 -165 790 0
49 -790 165 0
49 790 0
49 -166 791 0
49 -791 166 0
49 791 0
49 -168 793 0
49 -793 168 0
49 -793 792 0
49 792 0
49 -167 792 0
49 -167 -793 0
49 -792 793 167 0
49 -170 795 0
49 -795 170 0
49 -795 794 0
49 794 0
49 -169 794 0
49 -169 -795 0
49 -794 795 169 0
49 -171 796 0
49 -796 171 0
49 796 0
49 -172 797 0
49 -797 172 0
49 797 0
49 -173 798 0
49 -798 173 0
49 798 0
49 -174 799 0
49 -799 174 0
49 799 0
49 -175 800 0
49 -800 175 0
49 800 0
49 -176 801 0
49 -801 176 0
49 801 0
49 -177 802 0
49 -802 177 0
49 802 0
49 -178 803 0
49 -803 178 0
49 803 0
49 -179 804 0
49 -804 179 0
49 804 0
49 -180 805 0
49 -805 180 0
49 805 0
49 -183 808 0
49 -808 183 0
49 -807 806 0
49 -808 807 0
49 806 0
49 -181 806 0
49 -181 -807 0
49 -806 807 181 0
49 -182 807 0
49 -182 -808 0
49 -807 808 182 0
49 -186 811 0
49 -811 186 0
49 -810 809 0
49 -811 810 0
49 809 0
49 -184 809 0
49 -184 -810 0
49 -809 810 184 0
49 -185 810 0
49 -185 -811 0
49 -810 811 185 0
49 -187 812 0
49 -812 187 0
49 812 0
49 -188 813 0
49 -813 188 0
49 813 0
49 -189 814 0
49 -814 189 0
49 814 0
49 -190 815 0
49 -815 190 0
49 815 0
49 -191 816 0
49 -816 191 0
49 816 0
49 -192 817 0
49 -817 192 0
49 817 0
49 -193 818 0
49 -818 193 0
49 818 0
49 -194 819 0
49 -819 194 0
49 819 0
49 -195 820 0
49 -820 195 0
49 820 0
49 -196 821 0
49 -821 196 0
49 821 0
49 -197 822 0
49 -822 197 0
49 822 0
49 -198 823 0
49 -823 198 0
49 823 0
49 -228 853 0
49 -853 228 0
49 -825 824 0
49 -826 825 0
49 -827 826 0
49 -828 827 0
49 -829 828 0
49 -830 829 0
49 -831 830 0
49 -832 831 0
49 -833 832 0
49 -834 833 0
49 -835 834 0
49 -836 835 0
49 -837 836 0
49 -838 837 0
49 -839 838 0
49 -840 839 0
49 -841 840 0
49 -842 841 0
49 -843 842 0
49 -844 843 0
49 -845 844 0
49 -846 845 0
49 -847 846 0
49 -848 847 0
49 -849 848 0
49 -850 849 0
49 -851 850 0
49 -852 851 0
49 -853 852 0
49 824 0
49 -199 824 0
49 -199 -825 0
49 -824 825 199 0
49 -200 825 0
49 -200 -826 0
49 -825 826 200 0
49 -201 826 0
49 -201 -827 0
49 -826 827 201 0
49 -202 827 0
49 -202 -828 0
49 -827 828 202 0
49 -203 828 0
49 -203 -829 0
49 -828 829 203 0
49 -204 829 0
49 -204 -830 0
49 -829 830 204 0
49 -205 830 0
49 -205 -831 0
49 -830 831 205 0
49 -206 831 0
49 -206 -832 0
49 -831 832 206 0
49 -207 832 0
49 -207 -833 0
49 -832 833 207 0
49 -208 833 0
49 -208 -834 0
49 -833 834 208 0
49 -209 834 0
49 -209 -835 0
49 -834 835 209 0
49 -210 835 0
49 -210 -836 0
49 -835 836 210 0
49 -211 836 0
49 -211 -837 0
49 -836 837 211 0
49 -212 837 0
49 -212 -838 0
49 -837 838 212 0
49 -213 838 0
49 -213 -839 0
49 -838 839 213 0
49 -214 839 0
49 -214 -840 0
49 -839 840 214 0
49 -215 840 0
49 -215 -841 0
49 -840 841 215 0
49 -216 841 0
49 -216 -842 0
49 -841 842 216 0
49 -217 842 0
49 -217 -843 0
49 -842 843 217 0
49 -218 843 0
49 -218 -844 0
49 -843 844 218 0
49 -219 844 0
49 -219 -845 0
49 -844 845 219 0
49 -220 845 0
49 -220 -846 0
49 -845 846 220 0
49 -221 846 0
49 -221 -847 0
49 -846 847 221 0
49 -222 847 0
49 -222 -848 0
49 -847 848 222 0
49 -223 848 0
49 -223 -849 0
49 -848 849 223 0
49 -224 849 0
49 -224 -850 0
49 -849 850 224 0
49 -225 850 0
49 -225 -851 0
49 -850 851 225 0
49 -226 851 0
49 -226 -852 0
49 -851 852 226 0
49 -227 852 0
49 -227 -853 0
49 -852 853 227 0
49 -258 883 0
49 -883 258 0
49 -855 854 0
49 -856 855 0
49 -857 856 0
49 -858 857 0
49 -859 858 0
49 -860 859 0
49 -861 860 0
49 -862 861 0
49 -863 862 0
49 -864 863 0
49 -865 864 0
49 -866 865 0
49 -867 866 0
49 -868 867 0
49 -869 868 0
49 -870 869 0
49 -871 870 0
49 -872 871 0
49 -873 872 0
49 -874 873 0
49 -875 874 0
49 -876 875 0
49 -877 876 0
49 -878 877 0
49 -879 878 0
49 -880 879 0
49 -881 880 0
49 -882 881 0
49 -883 882 0
49 854 0
49 -229 854 0
49 -229 -855 0
49 -854 855 229 0
49 -230 855 0
49 -230 -856 0
49 -855 856 230 0
49 -231 856 0
49 -231 -857 0
49 -856 857 231 0
49 -232 857 0
49 -232 -858 0
49 -857 858 232 0
49 -233 858 0
49 -233 -859 0
49 -858 859 233 0
49 -234 859 0
49 -234 -860 0
49 -859 860 234 0
49 -235 860 0
49 -235 -861 0
49 -860 861 235 0
49 -236 861 0
49 -236 -862 0
49 -861 862 236 0
49 -237 862 0
49 -237 -863 0
49 -862 863 237 0
49 -238 863 0
49 -238 -864 0
49 -863 864 238 0
49 -239 864 0
49 -239 -865 0
49 -864 865 239 0
49 -240 865 0
49 -240 -866 0
49 -865 866 240 0
49 -241 866 0
49 -241 -867 0
49 -866 867 241 0
49 -242 867 0
49 -242 -868 0
49 -867 868 242 0
49 -243 868 0
49 -243 -869 0
49 -868 869 243 0
49 -244 869 0
49 -244 -870 0
49 -869 870 244 0
49 -245 870 0
49 -245 -871 0
49 -870 871 245 0
49 -246 871 0
49 -246 -872 0
49 -871 872 246 0
49 -247 872 0
49 -247 -873 0
49 -872 873 247 0
49 -248 873 0
49 -248 -874 0
49 -873 874 248 0
49 -249 874 0
49 -249 -875 0
49 -874 875 249 0
49 -250 875 0
49 -250 -876 0
49 -875 876 250 0
49 -251 876 0
49 -251 -877 0
49 -876 877 251 0
49 -252 877 0
49 -252 -878 0
49 -877 878 252 0
49 -253 878 0
49 -253 -879 0
49 -878 879 253 0
49 -254 879 0
49 -254 -880 0
49 -879 880 254 0
49 -255 880 0
49 -255 -881 0
49 -880 881 255 0
49 -256 881 0
49 -256 -882 0
49 -881 882 256 0
49 -257 882 0
49 -257 -883 0
49 -882 883 257 0
49 -261 886 0
49 -886 261 0
49 -885 884 0
49 -886 885 0
49 884 0
49 -259 884 0
49 -259 -885 0
49 -884 885 259 0
49 -260 885 0
49 -260 -886 0
49 -885 886 260 0
49 -264 889 0
49 -889 264 0
49 -888 887 0
49 -889 888 0
49 887 0
49 -262 887 0
49 -262 -888 0
49 -887 888 262 0
49 -263 888 0
49 -263 -889 0
49 -888 889 263 0
49 -265 890 0
49 -890 265 0
49 890 0
49 -266 891 0
49 -891 266 0
49 891 0
49 -267 892 0
49 -892 267 0
49 892 0
49 -268 893 0
49 -893 268 0
49 893 0
49 -279 904 0
49 -904 279 0
49 -895 894 0
49 -896 895 0
49 -897 896 0
49 -898 897 0
49 -899 898 0
49 -900 899 0
49 -901 900 0
49 -902 901 0
49 -903 902 0
49 -904 903 0
49 894 0
49 -269 894 0
49 -269 -895 0
49 -894 895 269 0
49 -270 895 0
49 -270 -896 0
49 -895 896 270 0
49 -271 896 0
49 -271 -897 0
49 -896 897 271 0
49 -272 897 0
49 -272 -898 0
49 -897 898 272 0
49 -273 898 0
49 -273 -899 0
49 -898 899 273 0
49 -274 899 0
49 -274 -900 0
49 -899 900 274 0
49 -275 900 0
49 -275 -901 0
49 -900 901 275 0
49 -276 901 0
49 -276 -902 0
49 -901 902 276 0
49 -277 902 0
49 -277 -903 0
49 -902 903 277 0
49 -278 903 0
49 -278 -904 0
49 -903 904 278 0
49 -290 915 0
49 -915 290 0
49 -906 905 0
49 -907 906 0
49 -908 907 0
49 -909 908 0
49 -910 909 0
49 -911 910 0
49 -912 911 0
49 -913 912 0
49 -914 913 0
49 -915 914 0
49 905 0
49 -280 905 0
49 -280 -906 0
49 -905 906 280 0
49 -281 906 0
49 -281 -907 0
49 -906 907 281 0
49 -282 907 0
49 -282 -908 0
49 -907 908 282 0
49 -283 908 0
49 -283 -909 0
49 -908 909 283 0
49 -284 909 0
49 -284 -910 0
49 -909 910 284 0
49 -285 910 0
49 -285 -911 0
49 -910 911 285 0
49 -286 911 0
49 -286 -912 0
49 -911 912 286 0
49 -287 912 0
49 -287 -913 0
49 -912 913 287 0
49 -288 913 0
49 -288 -914 0
49 -913 914 288 0
49 -289 914 0
49 -289 -915 0
49 -914 915 289 0
49 -291 916 0
49 -916 291 0
49 916 0
49 -292 917 0
49 -917 292 0
49 917 0
49 -293 918 0
49 -918 293 0
49 918 0
49 -294 919 0
49 -919 294 0
49 919 0
49 -295 920 0
49 -920 295 0
49 920 0
49 -296 921 0
49 -921 296 0
49 921 0
49 -297 922 0
49 -922 297 0
49 922 0
49 -298 923 0
49 -923 298 0
49 923 0
49 -299 924 0
49 -924 299 0
49 924 0
49 -300 925 0
49 -925 300 0
49 925 0
49 -301 926 0
49 -926 301 0
49 926 0
49 -302 927 0
49 -927 302 0
49 927 0
49 -305 930 0
49 -930 305 0
49 -929 928 0
49 -930 929 0
49 928 0
49 -303 928 0
49 -303 -929 0
49 -928 929 303 0
49 -304 929 0
49 -304 -930 0
49 -929 930 304 0
49 -308 933 0
49 -933 308 0
49 -932 931 0
49 -933 932 0
49 931 0
49 -306 931 0
49 -306 -932 0
49 -931 932 306 0
49 -307 932 0
49 -307 -933 0
49 -932 933 307 0
49 -309 934 0
49 -934 309 0
49 934 0
49 -310 935 0
49 -935 310 0
49 935 0
49 -311 936 0
49 -936 311 0
49 936 0
49 -312 937 0
49 -937 312 0
49 937 0
49 -316 941 0
49 -941 316 0
49 -939 938 0
49 -940 939 0
49 -941 940 0
49 938 0
49 -313 938 0
49 -313 -939 0
49 -938 939 313 0
49 -314 939 0
49 -314 -940 0
49 -939 940 314 0
49 -315 940 0
49 -315 -941 0
49 -940 941 315 0
49 -320 945 0
49 -945 320 0
49 -943 942 0
49 -944 943 0
49 -945 944 0
49 942 0
49 -317 942 0
49 -317 -943 0
49 -942 943 317 0
49 -318 943 0
49 -318 -944 0
49 -943 944 318 0
49 -319 944 0
49 -319 -945 0
49 -944 945 319 0
49 -323 948 0
49 -948 323 0
49 -947 946 0
49 -948 947 0
49 946 0
49 -321 946 0
49 -321 -947 0
49 -946 947 321 0
49 -322 947 0
49 -322 -948 0
49 -947 948 322 0
49 -326 951 0
49 -951 326 0
49 -950 949 0
49 -951 950 0
49 949 0
49 -324 949 0
49 -324 -950 0
49 -949 950 324 0
49 -325 950 0
49 -325 -951 0
49 -950 951 325 0
49 -327 952 0
49 -952 327 0
49 952 0
49 -328 953 0
49 -953 328 0
49 953 0
49 -329 954 0
49 -954 329 0
49 954 0
49 -330 955 0
49 -955 330 0
49 955 0
49 -331 956 0
49 -956 331 0
49 956 0
49 -332 957 0
49 -957 332 0
49 957 0
49 -333 958 0
49 -958 333 0
49 958 0
49 -334 959 0
49 -959 334 0
49 959 0
49 -335 960 0
49 -960 335 0
49 960 0
49 -336 961 0
49 -961 336 0
49 961 0
49 -337 962 0
49 -962 337 0
49 962 0
49 -338 963 0
49 -963 338 0
49 963 0
49 -339 964 0
49 -964 339 0
49 964 0
49 -340 965 0
49 -965 340 0
49 965 0
49 -341 966 0
49 -966 341 0
49 966 0
49 -342 967 0
49 -967 342 0
49 967 0
49 -353 978 0
49 -978 353 0
49 -969 968 0
49 -970 969 0
49 -971 970 0
49 -972 971 0
49 -973 972 0
49 -974 973 0
49 -975 974 0
49 -976 975 0
49 -977 976 0
49 -978 977 0
49 968 0
49 -343 968 0
49 -343 -969 0
49 -968 969 343 0
49 -344 969 0
49 -344 -970 0
49 -969 970 344 0
49 -345 970 0
49 -345 -971 0
49 -970 971 345 0
49 -346 971 0
49 -346 -972 0
49 -971 972 346 0
49 -347 972 0
49 -347 -973 0
49 -972 973 347 0
49 -348 973 0
49 -348 -974 0
49 -973 974 348 0
49 -349 974 0
49 -349 -975 0
49 -974 975 349 0
49 -350 975 0
49 -350 -976 0
49 -975 976 350 0
49 -351 976 0
49 -351 -977 0
49 -976 977 351 0
49 -352 977 0
49 -352 -978 0
49 -977 978 352 0
49 -364 989 0
49 -989 364 0
49 -980 979 0
49 -981 980 0
49 -982 981 0
49 -983 982 0
49 -984 983 0
49 -985 984 0
49 -986 985 0
49 -987 986 0
49 -988 987 0
49 -989 988 0
49 979 0
49 -354 979 0
49 -354 -980 0
49 -979 980 354 0
49 -355 980 0
49 -355 -981 0
49 -980 981 355 0
49 -356 981 0
49 -356 -982 0
49 -981 982 356 0
49 -357 982 0
49 -357 -983 0
49 -982 983 357 0
49 -358 983 0
49 -358 -984 0
49 -983 984 358 0
49 -359 984 0
49 -359 -985 0
49 -984 985 359 0
49 -360 985 0
49 -360 -986 0
49 -985 986 360 0
49 -361 986 0
49 -361 -987 0
49 -986 987 361 0
49 -362 987 0
49 -362 -988 0
49 -987 988 362 0
49 -363 988 0
49 -363 -989 0
49 -988 989 363 0
49 -365 990 0
49 -990 365 0
49 990 0
49 -366 991 0
49 -991 366 0
49 991 0
49 -367 992 0
49 -992 367 0
49 992 0
49 -368 993 0
49 -993 368 0
49 993 0
49 -369 994 0
49 -994 369 0
49 994 0
49 -370 995 0
49 -995 370 0
49 995 0
49 -381 1006 0
49 -1006 381 0
49 -997 996 0
49 -998 997 0
49 -999 998 0
49 -1000 999 0
49 -1001 1000 0
49 -1002 1001 0
49 -1003 1002 0
49 -1004 1003 0
49 -1005 1004 0
49 -1006 1005 0
49 996 0
49 -371 996 0
49 -371 -997 0
49 -996 997 371 0
49 -372 997 0
49 -372 -998 0
49 -997 998 372 0
49 -373 998 0
49 -373 -999 0
49 -998 999 373 0
49 -374 999 0
49 -374 -1000 0
49 -999 1000 374 0
49 -375 1000 0
49 -375 -1001 0
49 -1000 1001 375 0
49 -376 1001 0
49 -376 -1002 0
49 -1001 1002 376 0
49 -377 1002 0
49 -377 -1003 0
49 -1002 1003 377 0
49 -378 1003 0
49 -378 -1004 0
49 -1003 1004 378 0
49 -379 1004 0
49 -379 -1005 0
49 -1004 1005 379 0
49 -380 1005 0
49 -380 -1006 0
49 -1005 1006 380 0
49 -392 1017 0
49 -1017 392 0
49 -1008 1007 0
49 -1009 1008 0
49 -1010 1009 0
49 -1011 1010 0
49 -1012 1011 0
49 -1013 1012 0
49 -1014 1013 0
49 -1015 1014 0
49 -1016 1015 0
49 -1017 1016 0
49 1007 0
49 -382 1007 0
49 -382 -1008 0
49 -1007 1008 382 0
49 -383 1008 0
49 -383 -1009 0
49 -1008 1009 383 0
49 -384 1009 0
49 -384 -1010 0
49 -1009 1010 384 0
49 -385 1010 0
49 -385 -1011 0
49 -1010 1011 385 0
49 -386 1011 0
49 -386 -1012 0
49 -1011 1012 386 0
49 -387 1012 0
49 -387 -1013 0
49 -1012 1013 387 0
49 -388 1013 0
49 -388 -1014 0
49 -1013 1014 388 0
49 -389 1014 0
49 -389 -1015 0
49 -1014 1015 389 0
49 -390 1015 0
49 -390 -1016 0
49 -1015 1016 390 0
49 -391 1016 0
49 -391 -1017 0
49 -1016 1017 391 0
49 -393 1018 0
49 -1018 393 0
49 1018 0
49 -394 1019 0
49 -1019 394 0
49 1019 0
49 -395 1020 0
49 -1020 395 0
49 1020 0
49 -396 1021 0
49 -1021 396 0
49 1021 0
49 -399 1024 0
49 -1024 399 0
49 -1023 1022 0
49 -1024 1023 0
49 1022 0
49 -397 1022 0
49 -397 -1023 0
49 -1022 1023 397 0
49 -398 1023 0
49 -398 -1024 0
49 -1023 1024 398 0
49 -402 1027 0
49 -1027 402 0
49 -1026 1025 0
49 -1027 1026 0
49 1025 0
49 -400 1025 0
49 -400 -1026 0
49 -1025 1026 400 0
49 -401 1026 0
49 -401 -1027 0
49 -1026 1027 401 0
49 -403 1028 0
49 -1028 403 0
49 1028 0
49 -404 1029 0
49 -1029 404 0
49 1029 0
49 -405 1030 0
49 -1030 405 0
49 1030 0
49 -406 1031 0
49 -1031 406 0
49 1031 0
49 -408 1033 0
49 -1033 408 0
49 -1033 1032 0
49 1032 0
49 -407 1032 0
49 -407 -1033 0
49 -1032 1033 407 0
49 -410 1035 0
49 -1035 410 0
49 -1035 1034 0
49 1034 0
49 -409 1034 0
49 -409 -1035 0
49 -1034 1035 409 0
49 -411 1036 0
49 -1036 411 0
49 1036 0
49 -412 1037 0
49 -1037 412 0
49 1037 0
49 -413 1038 0
49 -1038 413 0
49 1038 0
49 -414 1039 0
49 -1039 414 0
49 1039 0
49 -415 1040 0
49 -1040 415 0
49 1040 0
49 -416 1041 0
49 -1041 416 0
49 1041 0
49 -417 1042 0
49 -1042 417 0
49 1042 0
49 -418 1043 0
49 -1043 418 0
49 1043 0
49 -419 1044 0
49 -1044 419 0
49 1044 0
49 -420 1045 0
49 -1045 420 0
49 1045 0
49 -421 1046 0
49 -1046 421 0
49 1046 0
49 -422 1047 0
49 -1047 422 0
49 1047 0
49 -423 1048 0
49 -1048 423 0
49 1048 0
49 -424 1049 0
49 -1049 424 0
49 1049 0
49 -425 1050 0
49 -1050 425 0
49 1050 0
49 -426 1051 0
49 -1051 426 0
49 1051 0
49 -427 1052 0
49 -1052 427 0
49 1052 0
49 -428 1053 0
49 -1053 428 0
49 1053 0
49 -429 1054 0
49 -1054 429 0
49 1054 0
49 -430 1055 0
49 -1055 430 0
49 1055 0
49 -441 1066 0
49 -1066 441 0
49 -1057 1056 0
49 -1058 1057 0
49 -1059 1058 0
49 -1060 1059 0
49 -1061 1060 0
49 -1062 1061 0
49 -1063 1062 0
49 -1064 1063 0
49 -1065 1064 0
49 -1066 1065 0
49 1056 0
49 -431 1056 0
49 -431 -1057 0
49 -1056 1057 431 0
49 -432 1057 0
49 -432 -1058 0
49 -1057 1058 432 0
49 -433 1058 0
49 -433 -1059 0
49 -1058 1059 433 0
49 -434 1059 0
49 -434 -1060 0
49 -1059 1060 434 0
49 -435 1060 0
49 -435 -1061 0
49 -1060 1061 435 0
49 -436 1061 0
49 -436 -1062 0
49 -1061 1062 436 0
49 -437 1062 0
49 -437 -1063 0
49 -1062 1063 437 0
49 -438 1063 0
49 -438 -1064 0
49 -1063 1064 438 0
49 -439 1064 0
49 -439 -1065 0
49 -1064 1065 439 0
49 -440 1065 0
49 -440 -1066 0
49 -1065 1066 440 0
49 -452 1077 0
49 -1077 452 0
49 -1068 1067 0
49 -1069 1068 0
49 -1070 1069 0
49 -1071 1070 0
49 -1072 1071 0
49 -1073 1072 0
49 -1074 1073 0
49 -1075 1074 0
49 -1076 1075 0
49 -1077 1076 0
49 1067 0
49 -442 1067 0
49 -442 -1068 0
49 -1067 1068 442 0
49 -443 1068 0
49 -443 -1069 0
49 -1068 1069 443 0
49 -444 1069 0
49 -444 -1070 0
49 -1069 1070 444 0
49 -445 1070 0
49 -445 -1071 0
49 -1070 1071 445 0
49 -446 1071 0
49 -446 -1072 0
49 -1071 1072 446 0
49 -447 1072 0
49 -447 -1073 0
49 -1072 1073 447 0
49 -448 1073 0
49 -448 -1074 0
49 -1073 1074 448 0
49 -449 1074 0
49 -449 -1075 0
49 -1074 1075 449 0
49 -450 1075 0
49 -450 -1076 0
49 -1075 1076 450 0
49 -451 1076 0
49 -451 -1077 0
49 -1076 1077 451 0
49 -463 1088 0
49 -1088 463 0
49 -1079 1078 0
49 -1080 1079 0
49 -1081 1080 0
49 -1082 1081 0
49 -1083 1082 0
49 -1084 1083 0
49 -1085 1084 0
49 -1086 1085 0
49 -1087 1086 0
49 -1088 1087 0
49 1078 0
49 -453 1078 0
49 -453 -1079 0
49 -1078 1079 453 0
49 -454 1079 0
49 -454 -1080 0
49 -1079 1080 454 0
49 -455 1080 0
49 -455 -1081 0
49 -1080 1081 455 0
49 -456 1081 0
49 -456 -1082 0
49 -1081 1082 456 0
49 -457 1082 0
49 -457 -1083 0
49 -1082 1083 457 0
49 -458 1083 0
49 -458 -1084 0
49 -1083 1084 458 0
49 -459 1084 0
49 -459 -1085 0
49 -1084 1085 459 0
49 -460 1085 0
49 -460 -1086 0
49 -1085 1086 460 0
49 -461 1086 0
49 -461 -1087 0
49 -1086 1087 461 0
49 -462 1087 0
49 -462 -1088 0
49 -1087 1088 462 0
49 -474 1099 0
49 -1099 474 0
49 -1090 1089 0
49 -1091 1090 0
49 -1092 1091 0
49 -1093 1092 0
49 -1094 1093 0
49 -1095 1094 0
49 -1096 1095 0
49 -1097 1096 0
49 -1098 1097 0
49 -1099 1098 0
49 1089 0
49 -464 1089 0
49 -464 -1090 0
49 -1089 1090 464 0
49 -465 1090 0
49 -465 -1091 0
49 -1090 1091 465 0
49 -466 1091 0
49 -466 -1092 0
49 -1091 1092 466 0
49 -467 1092 0
49 -467 -1093 0
49 -1092 1093 467 0
49 -468 1093 0
49 -468 -1094 0
49 -1093 1094 468 0
49 -469 1094 0
49 -469 -1095 0
49 -1094 1095 469 0
49 -470 1095 0
49 -470 -1096 0
49 -1095 1096 470 0
49 -471 1096 0
49 -471 -1097 0
49 -1096 1097 471 0
49 -472 1097 0
49 -472 -1098 0
49 -1097 1098 472 0
49 -473 1098 0
49 -473 -1099 0
49 -1098 1099 473 0
49 -475 1100 0
49 -1100 475 0
49 1100 0
49 -476 1101 0
49 -1101 476 0
49 1101 0
49 -477 1102 0
49 -1102 477 0
49 1102 0
49 -478 1103 0
49 -1103 478 0
49 1103 0
49 -479 1104 0
49 -1104 479 0
49 1104 0
49 -480 1105 0
49 -1105 480 0
49 1105 0
49 -481 1106 0
49 -1106 481 0
49 1106 0
49 -482 1107 0
49 -1107 482 0
49 1107 0
49 -493 1118 0
49 -1118 493 0
49 -1109 1108 0
49 -1110 1109 0
49 -1111 1110 0
49 -1112 1111 0
49 -1113 1112 0
49 -1114 1113 0
49 -1115 1114 0
49 -1116 1115 0
49 -1117 1116 0
49 -1118 1117 0
49 1108 0
49 -483 1108 0
49 -483 -1109 0
49 -1108 1109 483 0
49 -484 1109 0
49 -484 -1110 0
49 -1109 1110 484 0
49 -485 1110 0
49 -485 -1111 0
49 -1110 1111 485 0
49 -486 1111 0
49 -486 -1112 0
49 -1111 1112 486 0
49 -487 1112 0
49 -487 -1113 0
49 -1112 1113 487 0
49 -488 1113 0
49 -488 -1114 0
49 -1113 1114 488 0
49 -489 1114 0
49 -489 -1115 0
49 -1114 1115 489 0
49 -490 1115 0
49 -490 -1116 0
49 -1115 1116 490 0
49 -491 1116 0
49 -491 -1117 0
49 -1116 1117 491 0
49 -492 1117 0
49 -492 -1118 0
49 -1117 1118 492 0
49 -504 1129 0
49 -1129 504 0
49 -1120 1119 0
49 -1121 1120 0
49 -1122 1121 0
49 -1123 1122 0
49 -1124 1123 0
49 -1125 1124 0
49 -1126 1125 0
49 -1127 1126 0
49 -1128 1127 0
49 -1129 1128 0
49 1119 0
49 -494 1119 0
49 -494 -1120 0
49 -1119 1120 494 0
49 -495 1120 0
49 -495 -1121 0
49 -1120 1121 495 0
49 -496 1121 0
49 -496 -1122 0
49 -1121 1122 496 0
49 -497 1122 0
49 -497 -1123 0
49 -1122 1123 497 0
49 -498 1123 0
49 -498 -1124 0
49 -1123 1124 498 0
49 -499 1124 0
49 -499 -1125 0
49 -1124 1125 499 0
49 -500 1125 0
49 -500 -1126 0
49 -1125 1126 500 0
49 -501 1126 0
49 -501 -1127 0
49 -1126 1127 501 0
49 -502 1127 0
49 -502 -1128 0
49 -1127 1128 502 0
49 -503 1128 0
49 -503 -1129 0
49 -1128 1129 503 0
49 -505 1130 0
49 -1130 505 0
49 1130 0
49 -506 1131 0
49 -1131 506 0
49 1131 0
49 -507 1132 0
49 -1132 507 0
49 1132 0
49 -508 1133 0
49 -1133 508 0
49 1133 0
49 -509 1134 0
49 -1134 509 0
49 1134 0
49 -510 1135 0
49 -1135 510 0
49 1135 0
49 -512 1137 0
49 -1137 512 0
49 -1137 1136 0
49 1136 0
49 -511 1136 0
49 -511 -1137 0
49 -1136 1137 511 0
49 -514 1139 0
49 -1139 514 0
49 -1139 1138 0
49 1138 0
49 -513 1138 0
49 -513 -1139 0
49 -1138 1139 513 0
49 -519 1144 0
49 -1144 519 0
49 -1141 1140 0
49 -1142 1141 0
49 -1143 1142 0
49 -1144 1143 0
49 1140 0
49 -515 1140 0
49 -515 -1141 0
49 -1140 1141 515 0
49 -516 1141 0
49 -516 -1142 0
49 -1141 1142 516 0
49 -517 1142 0
49 -517 -1143 0
49 -1142 1143 517 0
49 -518 1143 0
49 -518 -1144 0
49 -1143 1144 518 0
49 -524 1149 0
49 -1149 524 0
49 -1146 1145 0
49 -1147 1146 0
49 -1148 1147 0
49 -1149 1148 0
49 1145 0
49 -520 1145 0
49 -520 -1146 0
49 -1145 1146 520 0
49 -521 1146 0
49 -521 -1147 0
49 -1146 1147 521 0
49 -522 1147 0
49 -522 -1148 0
49 -1147 1148 522 0
49 -523 1148 0
49 -523 -1149 0
49 -1148 1149 523 0
49 -525 1150 0
49 -1150 525 0
49 1150 0
49 -526 1151 0
49 -1151 526 0
49 1151 0
49 -527 1152 0
49 -1152 527 0
49 1152 0
49 -528 1153 0
49 -1153 528 0
49 1153 0
49 -532 1157 0
49 -1157 532 0
49 -1155 1154 0
49 -1156 1155 0
49 -1157 1156 0
49 1154 0
49 -529 1154 0
49 -529 -1155 0
49 -1154 1155 529 0
49 -530 1155 0
49 -530 -1156 0
49 -1155 1156 530 0
49 -531 1156 0
49 -531 -1157 0
49 -1156 1157 531 0
49 -536 1161 0
49 -1161 536 0
49 -1159 1158 0
49 -1160 1159 0
49 -1161 1160 0
49 1158 0
49 -533 1158 0
49 -533 -1159 0
49 -1158 1159 533 0
49 -534 1159 0
49 -534 -1160 0
49 -1159 1160 534 0
49 -535 1160 0
49 -535 -1161 0
49 -1160 1161 535 0
49 -537 1162 0
49 -1162 537 0
49 1162 0
49 -538 1163 0
49 -1163 538 0
49 1163 0
49 -539 1164 0
49 -1164 539 0
49 1164 0
49 -540 1165 0
49 -1165 540 0
49 1165 0
49 -551 1176 0
49 -1176 551 0
49 -1167 1166 0
49 -1168 1167 0
49 -1169 1168 0
49 -1170 1169 0
49 -1171 1170 0
49 -1172 1171 0
49 -1173 1172 0
49 -1174 1173 0
49 -1175 1174 0
49 -1176 1175 0
49 1166 0
49 -541 1166 0
49 -541 -1167 0
49 -1166 1167 541 0
49 -542 1167 0
49 -542 -1168 0
49 -1167 1168 542 0
49 -543 1168 0
49 -543 -1169 0
49 -1168 1169 543 0
49 -544 1169 0
49 -544 -1170 0
49 -1169 1170 544 0
49 -545 1170 0
49 -545 -1171 0
49 -1170 1171 545 0
49 -546 1171 0
49 -546 -1172 0
49 -1171 1172 546 0
49 -547 1172 0
49 -547 -1173 0
49 -1172 1173 547 0
49 -548 1173 0
49 -548 -1174 0
49 -1173 1174 548 0
49 -549 1174 0
49 -549 -1175 0
49 -1174 1175 549 0
49 -550 1175 0
49 -550 -1176 0
49 -1175 1176 550 0
49 -562 1187 0
49 -1187 562 0
49 -1178 1177 0
49 -1179 1178 0
49 -1180 1179 0
49 -1181 1180 0
49 -1182 1181 0
49 -1183 1182 0
49 -1184 1183 0
49 -1185 1184 0
49 -1186 1185 0
49 -1187 1186 0
49 1177 0
49 -552 1177 0
49 -552 -1178 0
49 -1177 1178 552 0
49 -553 1178 0
49 -553 -1179 0
49 -1178 1179 553 0
49 -554 1179 0
49 -554 -1180 0
49 -1179 1180 554 0
49 -555 1180 0
49 -555 -1181 0
49 -1180 1181 555 0
49 -556 1181 0
49 -556 -1182 0
49 -1181 1182 556 0
49 -557 1182 0
49 -557 -1183 0
49 -1182 1183 557 0
49 -558 1183 0
49 -558 -1184 0
49 -1183 1184 558 0
49 -559 1184 0
49 -559 -1185 0
49 -1184 1185 559 0
49 -560 1185 0
49 -560 -1186 0
49 -1185 1186 560 0
49 -561 1186 0
49 -561 -1187 0
49 -1186 1187 561 0
49 -565 1190 0
49 -1190 565 0
49 -1189 1188 0
49 -1190 1189 0
49 1188 0
49 -563 1188 0
49 -563 -1189 0
49 -1188 1189 563 0
49 -564 1189 0
49 -564 -1190 0
49 -1189 1190 564 0
49 -568 1193 0
49 -1193 568 0
49 -1192 1191 0
49 -1193 1192 0
49 1191 0
49 -566 1191 0
49 -566 -1192 0
49 -1191 1192 566 0
49 -567 1192 0
49 -567 -1193 0
49 -1192 1193 567 0
49 -569 1194 0
49 -1194 569 0
49 1194 0
49 -570 1195 0
49 -1195 570 0
49 1195 0
49 -571 1196 0
49 -1196 571 0
49 1196 0
49 -572 1197 0
49 -1197 572 0
49 1197 0
49 -573 1198 0
49 -1198 573 0
49 1198 0
49 -574 1199 0
49 -1199 574 0
49 1199 0
49 -575 1200 0
49 -1200 575 0
49 1200 0
49 -576 1201 0
49 -1201 576 0
49 1201 0
49 -577 1202 0
49 -1202 577 0
49 1202 0
49 -578 1203 0
49 -1203 578 0
49 1203 0
49 -579 1204 0
49 -1204 579 0
49 1204 0
49 -580 1205 0
49 -1205 580 0
49 1205 0
49 -581 1206 0
49 -1206 581 0
49 1206 0
49 -582 1207 0
49 -1207 582 0
49 1207 0
49 -583 1208 0
49 -1208 583 0
49 1208 0
49 -584 1209 0
49 -1209 584 0
49 1209 0
49 -585 1210 0
49 -1210 585 0
49 1210 0
49 -586 1211 0
49 -1211 586 0
49 1211 0
49 -587 1212 0
49 -1212 587 0
49 1212 0
49 -588 1213 0
49 -1213 588 0
49 1213 0
49 -589 1214 0
49 -1214 589 0
49 1214 0
49 -590 1215 0
49 -1215 590 0
49 1215 0
49 -598 1223 0
49 -1223 598 0
49 -1217 1216 0
49 -1218 1217 0
49 -1219 1218 0
49 -1220 1219 0
49 -1221 1220 0
49 -1222 1221 0
49 -1223 1222 0
49 1216 0
49 -591 1216 0
49 -591 -1217 0
49 -1216 1217 591 0
49 -592 1217 0
49 -592 -1218 0
49 -1217 1218 592 0
49 -593 1218 0
49 -593 -1219 0
49 -1218 1219 593 0
49 -594 1219 0
49 -594 -1220 0
49 -1219 1220 594 0
49 -595 1220 0
49 -595 -1221 0
49 -1220 1221 595 0
49 -596 1221 0
49 -596 -1222 0
49 -1221 1222 596 0
49 -597 1222 0
49 -597 -1223 0
49 -1222 1223 597 0
49 -606 1231 0
49 -1231 606 0
49 -1225 1224 0
49 -1226 1225 0
49 -1227 1226 0
49 -1228 1227 0
49 -1229 1228 0
49 -1230 1229 0
49 -1231 1230 0
49 1224 0
49 -599 1224 0
49 -599 -1225 0
49 -1224 1225 599 0
49 -600 1225 0
49 -600 -1226 0
49 -1225 1226 600 0
49 -601 1226 0
49 -601 -1227 0
49 -1226 1227 601 0
49 -602 1227 0
49 -602 -1228 0
49 -1227 1228 602 0
49 -603 1228 0
49 -603 -1229 0
49 -1228 1229 603 0
49 -604 1229 0
49 -604 -1230 0
49 -1229 1230 604 0
49 -605 1230 0
49 -605 -1231 0
49 -1230 1231 605 0
49 -607 1232 0
49 -1232 607 0
49 1232 0
49 -608 1233 0
49 -1233 608 0
49 1233 0
49 -609 1234 0
49 -1234 609 0
49 1234 0
49 -610 1235 0
49 -1235 610 0
49 1235 0
49 -611 1236 0
49 -1236 611 0
49 1236 0
49 -612 1237 0
49 -1237 612 0
49 1237 0
49 -618 1243 0
49 -1243 618 0
49 -1239 1238 0
49 -1240 1239 0
49 -1241 1240 0
49 -1242 1241 0
49 -1243 1242 0
49 1238 0
49 -613 1238 0
49 -613 -1239 0
49 -1238 1239 613 0
49 -614 1239 0
49 -614 -1240 0
49 -1239 1240 614 0
49 -615 1240 0
49 -615 -1241 0
49 -1240 1241 615 0
49 -616 1241 0
49 -616 -1242 0
49 -1241 1242 616 0
49 -617 1242 0
49 -617 -1243 0
49 -1242 1243 617 0
49 -624 1249 0
49 -1249 624 0
49 -1245 1244 0
49 -1246 1245 0
49 -1247 1246 0
49 -1248 1247 0
49 -1249 1248 0
49 1244 0
49 -619 1244 0
49 -619 -1245 0
49 -1244 1245 619 0
49 -620 1245 0
49 -620 -1246 0
49 -1245 1246 620 0
49 -621 1246 0
49 -621 -1247 0
49 -1246 1247 621 0
49 -622 1247 0
49 -622 -1248 0
49 -1247 1248 622 0
49 -623 1248 0
49 -623 -1249 0
49 -1248 1249 623 0
49 -1 2 0
49 -1 800 0
49 -1 801 0
49 -1 934 0
49 -1 935 0
49 -1 1021 0
49 -1 1029 0
49 -1 1032 0
49 -1 1034 0
49 -1 1104 0
49 -1 1105 0
49 -2 801 0
49 -2 935 0
49 -2 1032 0
49 -2 1034 0
49 -2 1105 0
49 -3 4 0
49 -3 694 0
49 -3 695 0
49 -3 792 0
49 -3 891 0
49 -3 1029 0
49 -3 1056 0
49 -3 1236 0
49 -4 -793 793 0
49 -4 891 0
49 -4 928 0
49 -4 931 0
49 -4 1056 0
49 -4 1067 0
49 -4 1237 0
49 -5 42 0
49 -6 43 0
49 -7 44 0
49 -8 45 0
49 -9 46 0
49 -10 47 0
49 -11 48 0
49 -12 49 0
49 -13 50 0
49 -14 51 0
49 -15 52 0
49 -16 37 0
49 -17 38 0
49 -18 39 0
49 -19 40 0
49 -20 41 0
49 -21 64 0
49 -22 65 0
49 -23 66 0
49 -24 67 0
49 -25 68 0
49 -26 53 0
49 -27 54 0
49 -28 55 0
49 -29 56 0
49 -30 57 0
49 -31 58 0
49 -32 59 0
49 -33 60 0
49 -34 61 0
49 -35 62 0
49 -36 63 0
49 -5 698 0
49 -6 699 0
49 -7 700 0
49 -8 701 0
49 -9 -697 702 0
49 -10 -698 703 0
49 -11 -699 704 0
49 -12 -700 705 0
49 -13 -701 706 0
49 -14 -702 706 0
49 -15 -703 706 0
49 -16 -706 708 0
49 -17 -706 709 0
49 -18 -706 710 0
49 -19 -706 711 0
49 -20 -707 712 0
49 -21 -714 719 0
49 -22 -715 720 0
49 -23 -716 721 0
49 -24 -717 721 0
49 -25 -718 721 0
49 -26 -721 724 0
49 -27 -721 725 0
49 -28 -721 726 0
49 -29 -722 727 0
49 -30 -723 728 0
49 -31 -724 729 0
49 -32 -725 730 0
49 -33 -726 731 0
49 -34 -727 0
49 -35 -728 0
49 -36 -729 0
49 -5 741 0
49 -6 742 0
49 -7 743 0
49 -8 744 0
49 -9 745 0
49 -10 746 0
49 -11 747 0
49 -12 748 0
49 -13 749 0
49 -14 750 0
49 -15 751 0
49 -16 758 0
49 -17 759 0
49 -18 760 0
49 -19 760 0
49 -20 -733 760 0
49 -21 -739 766 0
49 -22 -739 767 0
49 -23 -739 0
49 -24 -739 0
49 -25 -740 0
49 -26 -747 0
49 -27 -748 0
49 -28 -749 0
49 -29 -750 0
49 -30 -751 0
49 -31 -752 0
49 -32 -753 0
49 -33 -754 0
49 -34 -755 0
49 -35 -756 0
49 -36 -757 0
49 -5 825 0
49 -6 826 0
49 -7 827 0
49 -8 -825 828 0
49 -9 -826 829 0
49 -10 -827 830 0
49 -11 -828 831 0
49 -12 -829 832 0
49 -13 -830 833 0
49 -14 -831 833 0
49 -15 -832 833 0
49 -16 -833 834 0
49 -17 -833 835 0
49 -18 -833 836 0
49 -19 -834 837 0
49 -20 -835 838 0
49 -21 -840 843 0
49 -22 -841 844 0
49 -23 -842 845 0
49 -24 -843 845 0
49 -25 -844 845 0
49 -26 -845 846 0
49 -27 -845 847 0
49 -28 -845 848 0
49 -29 -846 849 0
49 -30 -847 850 0
49 -31 -848 851 0
49 -32 -849 852 0
49 -33 -850 853 0
49 -34 -851 0
49 -35 -852 0
49 -36 -853 0
49 -5 861 0
49 -6 862 0
49 -7 863 0
49 -8 864 0
49 -9 865 0
49 -10 866 0
49 -11 867 0
49 -12 868 0
49 -13 869 0
49 -14 869 0
49 -15 869 0
49 -16 876 0
49 -17 877 0
49 -18 878 0
49 -19 -855 878 0
49 -20 -856 878 0
49 -21 -860 882 0
49 -22 -860 883 0
49 -23 -860 0
49 -24 -861 0
49 -25 -862 0
49 -26 -869 0
49 -27 -869 0
49 -28 -869 0
49 -29 -870 0
49 -30 -871 0
49 -31 -872 0
49 -32 -873 0
49 -33 -874 0
49 -34 -875 0
49 -35 -876 0
49 -36 -877 0
49 -5 1238 0
49 -6 1239 0
49 -7 -1239 1240 0
49 -8 -1240 1241 0
49 -9 -1241 1242 0
49 -10 -1242 1242 0
49 -11 -1242 1242 0
49 -12 -1242 1242 0
49 -13 -1242 1242 0
49 -14 -1242 1242 0
49 -15 -1242 1242 0
49 -16 -1242 1242 0
49 -17 -1242 1242 0
49 -18 -1242 1242 0
49 -19 -1242 1242 0
49 -20 -1242 1242 0
49 -21 -1242 1242 0
49 -22 -1242 1242 0
49 -23 -1242 1242 0
49 -24 -1242 1242 0
49 -25 -1242 1242 0
49 -26 -1242 1242 0
49 -27 -1242 1242 0
49 -28 -1242 1242 0
49 -29 -1242 1242 0
49 -30 -1242 1242 0
49 -31 -1242 1242 0
49 -32 -1242 1242 0
49 -33 -1242 1242 0
49 -34 -1242 1243 0
49 -35 -1243 0
49 -5 1244 0
49 -6 1244 0
49 -7 1244 0
49 -8 1245 0
49 -9 1246 0
49 -10 1247 0
49 -11 1248 0
49 -12 1248 0
49 -13 1248 0
49 -14 1248 0
49 -15 1248 0
49 -16 1248 0
49 -17 1248 0
49 -18 1248 0
49 -19 1248 0
49 -20 1249 0
49 -21 -1245 0
49 -22 -1246 0
49 -23 -1247 0
49 -24 -1248 0
49 -25 -1248 0
49 -26 -1248 0
49 -27 -1248 0
49 -28 -1248 0
49 -29 -1248 0
49 -30 -1248 0
49 -31 -1248 0
49 -32 -1248 0
49 -33 -1249 0
49 -37 706 0
49 -38 706 0
49 -39 706 0
49 -40 706 0
49 -41 706 0
49 -42 -699 713 0
49 -43 -700 714 0
49 -44 -701 715 0
49 -45 -702 716 0
49 -46 -703 717 0
49 -47 -704 718 0
49 -48 -705 719 0
49 -49 -706 720 0
49 -50 -706 721 0
49 -51 -706 721 0
49 -52 -706 721 0
49 -53 -706 721 0
49 -54 -706 721 0
49 -55 -706 721 0
49 -56 -706 721 0
49 -57 -707 722 0
49 -58 -708 723 0
49 -59 -709 724 0
49 -60 -710 725 0
49 -61 -711 726 0
49 -62 -712 727 0
49 -63 -713 728 0
49 -64 -720 0
49 -65 -721 0
49 -66 -721 0
49 -67 -721 0
49 -68 -721 0
49 -37 734 0
49 -38 735 0
49 -39 736 0
49 -40 737 0
49 -41 -733 738 0
49 -42 -739 741 0
49 -43 -739 742 0
49 -44 -739 743 0
49 -45 -739 744 0
49 -46 -740 745 0
49 -47 -741 746 0
49 -48 -742 747 0
49 -49 -743 748 0
49 -50 -744 749 0
49 -51 -745 750 0
49 -52 -746 751 0
49 -53 -747 752 0
49 -54 -748 753 0
49 -55 -749 754 0
49 -56 -750 755 0
49 -57 -751 756 0
49 -58 -752 757 0
49 -59 -753 758 0
49 -60 -754 759 0
49 -61 -755 760 0
49 -62 -756 760 0
49 -63 -757 760 0
49 -64 -761 766 0
49 -65 -762 767 0
49 -66 -763 0
49 -67 -764 0
49 -68 -765 0
49 -37 833 0
49 -38 833 0
49 -39 833 0
49 -40 833 0
49 -41 834 0
49 -42 -826 839 0
49 -43 -827 840 0
49 -44 -828 841 0
49 -45 -829 842 0
49 -46 -830 843 0
49 -47 -831 844 0
49 -48 -832 845 0
49 -49 -833 845 0
49 -50 -833 845 0
49 -51 -833 845 0
49 -52 -833 845 0
49 -53 -833 845 0
49 -54 -833 845 0
49 -55 -833 845 0
49 -56 -833 845 0
49 -57 -833 846 0
49 -58 -834 847 0
49 -59 -835 848 0
49 -60 -836 849 0
49 -61 -837 850 0
49 -62 -838 851 0
49 -63 -839 852 0
49 -64 -844 0
49 -65 -845 0
49 -66 -845 0
49 -67 -845 0
49 -68 -845 0
49 -37 855 0
49 -38 856 0
49 -39 857 0
49 -40 -855 858 0
49 -41 -856 859 0
49 -42 -860 861 0
49 -43 -860 862 0
49 -44 -860 863 0
49 -45 -861 864 0
49 -46 -862 865 0
49 -47 -863 866 0
49 -48 -864 867 0
49 -49 -865 868 0
49 -50 -866 869 0
49 -51 -867 869 0
49 -52 -868 869 0
49 -53 -869 870 0
49 -54 -869 871 0
49 -55 -869 872 0
49 -56 -870 873 0
49 -57 -871 874 0
49 -58 -872 875 0
49 -59 -873 876 0
49 -60 -874 877 0
49 -61 -875 878 0
49 -62 -876 878 0
49 -63 -877 878 0
49 -64 -879 882 0
49 -65 -880 883 0
49 -66 -881 0
49 -67 -882 0
49 -68 -883 0
49 -37 1242 0
49 -38 1242 0
49 -39 1242 0
49 -40 1242 0
49 -41 1242 0
49 -42 1242 0
49 -43 1242 0
49 -44 -1239 1242 0
49 -45 -1240 1242 0
49 -46 -1241 1242 0
49 -47 -1242 1242 0
49 -48 -1242 1242 0
49 -49 -1242 1242 0
49 -50 -1242 1242 0
49 -51 -1242 1242 0
49 -52 -1242 1242 0
49 -53 -1242 1242 0
49 -54 -1242 1242 0
49 -55 -1242 1242 0
49 -56 -1242 1242 0
49 -57 -1242 1242 0
49 -58 -1242 1242 0
49 -59 -1242 1242 0
49 -60 -1242 1242 0
49 -61 -1242 1243 0
49 -62 -1242 0
49 -63 -1242 0
49 -64 -1242 0
49 -65 -1242 0
49 -66 -1242 0
49 -67 -1242 0
49 -68 -1242 0
49 -37 1244 0
49 -38 1244 0
49 -39 1244 0
49 -40 1244 0
49 -41 1244 0
49 -42 1244 0
49 -43 1245 0
49 -44 -1245 1246 0
49 -45 -1246 1247 0
49 -46 -1247 1248 0
49 -47 -1248 1248 0
49 -48 -1248 1248 0
49 -49 -1248 1248 0
49 -50 -1248 1248 0
49 -51 -1248 1248 0
49 -52 -1248 1248 0
49 -53 -1248 1248 0
49 -54 -1248 1248 0
49 -55 -1248 1248 0
49 -56 -1248 1248 0
49 -57 -1248 1248 0
49 -58 -1248 1248 0
49 -59 -1248 1248 0
49 -60 -1248 1248 0
49 -61 -1248 1249 0
49 -62 -1249 0
49 -69 70 0
49 -69 821 0
49 -69 927 0
49 -69 1036 0
49 -69 1037 0
49 -69 1158 0
49 -69 1163 0
49 -69 1188 0
49 -69 1191 0
49 -70 1037 0
49 -70 -1155 1155 0
49 -70 -1159 1159 0
49 -70 1191 0
49 -71 114 0
49 -72 115 0
49 -73 116 0
49 -74 117 0
49 -75 118 0
49 -76 119 0
49 -77 120 0
49 -78 121 0
49 -79 122 0
49 -80 123 0
49 -81 107 0
49 -82 108 0
49 -83 109 0
49 -84 110 0
49 -85 111 0
49 -86 112 0
49 -87 113 0
49 -88 135 0
49 -89 136 0
49 -90 137 0
49 -91 138 0
49 -92 139 0
49 -93 140 0
49 -94 141 0
49 -95 142 0
49 -96 124 0
49 -97 125 0
49 -98 126 0
49 -99 127 0
49 -100 128 0
49 -101 129 0
49 -102 130 0
49 -103 131 0
49 -104 132 0
49 -105 133 0
49 -106 134 0
49 -71 825 0
49 -72 -825 826 0
49 -73 -826 827 0
49 -74 -827 828 0
49 -75 -828 829 0
49 -76 -829 830 0
49 -77 -830 831 0
49 -78 -831 832 0
49 -79 -832 833 0
49 -80 -833 833 0
49 -81 -833 834 0
49 -82 -834 835 0
49 -83 -835 836 0
49 -84 -836 837 0
49 -85 -837 838 0
49 -86 -838 839 0
49 -87 -839 839 0
49 -88 -839 839 0
49 -89 -839 840 0
49 -90 -840 841 0
49 -91 -841 842 0
49 -92 -842 843 0
49 -93 -843 844 0
49 -94 -844 845 0
49 -95 -845 845 0
49 -96 -845 845 0
49 -97 -845 846 0
49 -98 -846 847 0
49 -99 -847 848 0
49 -100 -848 849 0
49 -101 -849 850 0
49 -102 -850 851 0
49 -103 -851 852 0
49 -104 -852 853 0
49 -105 -853 0
49 -71 860 0
49 -72 860 0
49 -73 861 0
49 -74 862 0
49 -75 863 0
49 -76 864 0
49 -77 865 0
49 -78 866 0
49 -79 867 0
49 -80 868 0
49 -81 -856 874 0
49 -82 -857 875 0
49 -83 -858 876 0
49 -84 -859 877 0
49 -85 -860 878 0
49 -86 -860 878 0
49 -87 -860 878 0
49 -88 -860 878 0
49 -89 -860 878 0
49 -90 -860 878 0
49 -91 -861 879 0
49 -92 -862 880 0
49 -93 -863 881 0
49 -94 -864 882 0
49 -95 -865 883 0
49 -96 -870 0
49 -97 -871 0
49 -98 -872 0
49 -99 -873 0
49 -100 -874 0
49 -101 -875 0
49 -102 -876 0
49 -103 -877 0
49 -104 -878 0
49 -105 -878 0
49 -106 -878 0
49 -71 1242 0
49 -72 1242 0
49 -73 1242 0
49 -74 1242 0
49 -75 -1239 1242 0
49 -76 -1240 1242 0
49 -77 -1241 1242 0
49 -78 -1242 1242 0
49 -79 -1242 1242 0
49 -80 -1242 1242 0
49 -81 -1242 1242 0
49 -82 -1242 1242 0
49 -83 -1242 1242 0
49 -84 -1242 1242 0
49 -85 -1242 1242 0
49 -86 -1242 1242 0
49 -87 -1242 1242 0
49 -88 -1242 1242 0
49 -89 -1242 1242 0
49 -90 -1242 1242 0
49 -91 -1242 1242 0
49 -92 -1242 1242 0
49 -93 -1242 1242 0
49 -94 -1242 1242 0
49 -95 -1242 1242 0
49 -96 -1242 1242 0
49 -97 -1242 1242 0
49 -98 -1242 1242 0
49 -99 -1242 1242 0
49 -100 -1242 1242 0
49 -101 -1242 1243 0
49 -102 -1242 0
49 -103 -1242 0
49 -104 -1242 0
49 -105 -1242 0
49 -106 -1242 0
49 -71 1244 0
49 -72 1244 0
49 -73 1244 0
49 -74 1244 0
49 -75 1244 0
49 -76 1245 0
49 -77 1246 0
49 -78 1247 0
49 -79 1248 0
49 -80 1248 0
49 -81 1248 0
49 -82 1248 0
49 -83 1248 0
49 -84 1248 0
49 -85 1248 0
49 -86 1248 0
49 -87 1249 0
49 -88 -1245 0
49 -89 -1246 0
49 -90 -1247 0
49 -91 -1248 0
49 -92 -1248 0
49 -93 -1248 0
49 -94 -1248 0
49 -95 -1248 0
49 -96 -1248 0
49 -97 -1248 0
49 -98 -1248 0
49 -99 -1248 0
49 -100 -1249 0
49 -107 834 0
49 -108 835 0
49 -109 836 0
49 -110 837 0
49 -111 838 0
49 -112 839 0
49 -113 839 0
49 -114 843 0
49 -115 -825 844 0
49 -116 -826 845 0
49 -117 -827 845 0
49 -118 -828 845 0
49 -119 -829 845 0
49 -120 -830 845 0
49 -121 -831 845 0
49 -122 -832 845 0
49 -123 -833 845 0
49 -124 -833 845 0
49 -125 -833 846 0
49 -126 -833 847 0
49 -127 -833 848 0
49 -128 -833 849 0
49 -129 -833 850 0
49 -130 -833 851 0
49 -131 -833 852 0
49 -132 -834 853 0
49 -133 -835 0
49 -134 -836 0
49 -135 -839 0
49 -136 -839 0
49 -137 -840 0
49 -138 -841 0
49 -139 -842 0
49 -140 -843 0
49 -141 -844 0
49 -142 -845 0
49 -107 855 0
49 -108 -855 856 0
49 -109 -856 857 0
49 -110 -857 858 0
49 -111 -858 859 0
49 -112 -859 860 0
49 -113 -860 860 0
49 -114 -860 861 0
49 -115 -861 862 0
49 -116 -862 863 0
49 -117 -863 864 0
49 -118 -864 865 0
49 -119 -865 866 0
49 -120 -866 867 0
49 -121 -867 868 0
49 -122 -868 869 0
49 -123 -869 869 0
49 -124 -869 869 0
49 -125 -869 870 0
49 -126 -870 871 0
49 -127 -871 872 0
49 -128 -872 873 0
49 -129 -873 874 0
49 -130 -874 875 0
49 -131 -875 876 0
49 -132 -876 877 0
49 -133 -877 878 0
49 -134 -878 878 0
49 -135 -878 878 0
49 -136 -878 879 0
49 -137 -879 880 0
49 -138 -880 881 0
49 -139 -881 882 0
49 -140 -882 883 0
49 -141 -883 0
49 -107 1242 0
49 -108 1242 0
49 -109 1242 0
49 -110 1242 0
49 -111 1242 0
49 -112 1242 0
49 -113 1242 0
49 -114 1242 0
49 -115 1242 0
49 -116 1242 0
49 -117 1242 0
49 -118 -1239 1242 0
49 -119 -1240 1242 0
49 -120 -1241 1242 0
49 -121 -1242 1242 0
49 -122 -1242 1242 0
49 -123 -1242 1242 0
49 -124 -1242 1242 0
49 -125 -1242 1242 0
49 -126 -1242 1242 0
49 -127 -1242 1242 0
49 -128 -1242 1242 0
49 -129 -1242 1243 0
49 -130 -1242 0
49 -131 -1242 0
49 -132 -1242 0
49 -133 -1242 0
49 -134 -1242 0
49 -135 -1242 0
49 -136 -1242 0
49 -137 -1242 0
49 -138 -1242 0
49 -139 -1242 0
49 -140 -1242 0
49 -141 -1242 0
49 -142 -1242 0
49 -107 1244 0
49 -108 1244 0
49 -109 1244 0
49 -110 1244 0
49 -111 1244 0
49 -112 1244 0
49 -113 1244 0
49 -114 1248 0
49 -115 1248 0
49 -116 1248 0
49 -117 1248 0
49 -118 -1245 1248 0
49 -119 -1246 1248 0
49 -120 -1247 1248 0
49 -121 -1248 1248 0
49 -122 -1248 1248 0
49 -123 -1248 1248 0
49 -124 -1248 1248 0
49 -125 -1248 1248 0
49 -126 -1248 1248 0
49 -127 -1248 1248 0
49 -128 -1248 1248 0
49 -129 -1248 1249 0
49 -130 -1248 0
49 -131 -1248 0
49 -132 -1248 0
49 -133 -1248 0
49 -134 -1248 0
49 -143 154 0
49 -144 155 0
49 -145 156 0
49 -146 157 0
49 -147 158 0
49 -148 159 0
49 -149 160 0
49 -150 161 0
49 -151 162 0
49 -152 163 0
49 -153 164 0
49 -143 -793 793 0
49 -144 -793 793 0
49 -145 -793 793 0
49 -146 -793 793 0
49 -147 -793 0
49 -148 -793 0
49 -149 -793 0
49 -143 -795 0
49 -144 -795 0
49 -145 -795 0
49 -146 -795 0
49 -147 -795 0
49 -148 -795 0
49 -149 -795 0
49 -150 -795 0
49 -151 -795 0
49 -152 -795 0
49 -165 166 0
49 -165 818 0
49 -165 819 0
49 -165 931 0
49 -165 1043 0
49 -165 1163 0
49 -165 1194 0
49 -165 1195 0
49 -166 819 0
49 -166 931 0
49 -166 995 0
49 -166 1041 0
49 -166 1195 0
49 -167 169 0
49 -168 170 0
49 -167 890 0
49 -167 891 0
49 -167 959 0
49 -167 1029 0
49 -167 1067 0
49 -168 -1068 0
49 -167 1236 0
49 -169 891 0
49 -169 1067 0
49 -170 -1068 1077 0
49 -169 1237 0
49 -169 -1242 1242 0
49 -170 -1242 1242 0
49 -169 -1248 1248 0
49 -170 -1248 1248 0
49 -171 172 0
49 -171 803 0
49 -171 806 0
49 -171 809 0
49 -171 924 0
49 -171 955 0
49 -171 992 0
49 -171 993 0
49 -172 993 0
49 -173 174 0
49 -173 994 0
49 -173 995 0
49 -173 1100 0
49 -173 1101 0
49 -173 1208 0
49 -173 1209 0
49 -174 961 0
49 -174 1101 0
49 -174 1209 0
49 -175 176 0
49 -175 928 0
49 -175 931 0
49 -175 934 0
49 -175 935 0
49 -175 1021 0
49 -175 1032 0
49 -175 1034 0
49 -175 1105 0
49 -176 935 0
49 -176 1032 0
49 -176 1034 0
49 -177 178 0
49 -177 814 0
49 -177 815 0
49 -177 1018 0
49 -177 1019 0
49 -177 1055 0
49 -177 1078 0
49 -177 1089 0
49 -177 1104 0
49 -177 1105 0
49 -177 1106 0
49 -177 1107 0
49 -178 815 0
49 -178 1019 0
49 -178 1078 0
49 -178 1089 0
49 -178 1107 0
49 -179 180 0
49 -179 806 0
49 -179 809 0
49 -179 893 0
49 -179 924 0
49 -179 925 0
49 -179 955 0
49 -179 992 0
49 -179 993 0
49 -180 809 0
49 -180 925 0
49 -180 946 0
49 -180 949 0
49 -180 993 0
49 -181 184 0
49 -182 185 0
49 -183 186 0
49 -184 993 0
49 -187 188 0
49 -187 923 0
49 -187 957 0
49 -187 996 0
49 -188 946 0
49 -188 949 0
49 -188 996 0
49 -188 1007 0
49 -189 190 0
49 -189 937 0
49 -189 1019 0
49 -189 1055 0
49 -189 1078 0
49 -189 1089 0
49 -189 1106 0
49 -189 1107 0
49 -190 1056 0
49 -190 1067 0
49 -190 1078 0
49 -190 1089 0
49 -190 1107 0
49 -191 192 0
49 -191 922 0
49 -191 924 0
49 -191 925 0
49 -191 956 0
49 -191 957 0
49 -191 1007 0
49 -191 1203 0
49 -192 996 0
49 -192 1007 0
49 -192 1203 0
49 -193 194 0
49 -193 928 0
49 -193 931 0
49 -193 1041 0
49 -193 1194 0
49 -193 1195 0
49 -194 928 0
49 -194 1195 0
49 -195 196 0
49 -195 994 0
49 -195 995 0
49 -195 1036 0
49 -195 1158 0
49 -195 1188 0
49 -195 1191 0
49 -196 1037 0
49 -196 1131 0
49 -196 -1155 1155 0
49 -196 -1159 1159 0
49 -196 1188 0
49 -196 1191 0
49 -197 198 0
49 -197 884 0
49 -197 1039 0
49 -197 1134 0
49 -197 1135 0
49 -197 1201 0
49 -197 1214 0
49 -197 1215 0
49 -198 884 0
49 -198 887 0
49 -198 1135 0
49 -199 235 0
49 -200 236 0
49 -201 237 0
49 -202 238 0
49 -203 239 0
49 -204 240 0
49 -205 241 0
49 -206 242 0
49 -207 243 0
49 -208 229 0
49 -209 230 0
49 -210 231 0
49 -211 232 0
49 -212 233 0
49 -213 234 0
49 -214 253 0
49 -215 254 0
49 -216 255 0
49 -217 256 0
49 -218 257 0
49 -219 258 0
49 -220 244 0
49 -221 245 0
49 -222 246 0
49 -223 247 0
49 -224 248 0
49 -225 249 0
49 -226 250 0
49 -227 251 0
49 -228 252 0
49 -199 1241 0
49 -200 1242 0
49 -201 1242 0
49 -202 -1239 1242 0
49 -203 -1240 1242 0
49 -204 -1241 1242 0
49 -205 -1242 1242 0
49 -206 -1242 1242 0
49 -207 -1242 1242 0
49 -208 -1242 1242 0
49 -209 -1242 1242 0
49 -210 -1242 1242 0
49 -211 -1242 1242 0
49 -212 -1242 1242 0
49 -213 -1242 1242 0
49 -214 -1242 1242 0
49 -215 -1242 1242 0
49 -216 -1242 1242 0
49 -217 -1242 1242 0
49 -218 -1242 1242 0
49 -219 -1242 1242 0
49 -220 -1242 1242 0
49 -221 -1242 1242 0
49 -222 -1242 1242 0
49 -223 -1242 1242 0
49 -224 -1242 1242 0
49 -225 -1242 1243 0
49 -226 -1242 0
49 -227 -1242 0
49 -228 -1242 0
49 -199 1244 0
49 -200 1244 0
49 -201 1244 0
49 -202 1244 0
49 -203 1245 0
49 -204 1246 0
49 -205 1247 0
49 -206 1248 0
49 -207 1248 0
49 -208 1248 0
49 -209 1248 0
49 -210 1248 0
49 -211 1248 0
49 -212 1248 0
49 -213 1249 0
49 -214 -1245 0
49 -215 -1246 0
49 -216 -1247 0
49 -217 -1248 0
49 -218 -1248 0
49 -219 -1248 0
49 -220 -1248 0
49 -221 -1248 0
49 -222 -1248 0
49 -223 -1248 0
49 -224 -1249 0
49 -229 1242 0
49 -230 1242 0
49 -231 1242 0
49 -232 1242 0
49 -233 1242 0
49 -234 1242 0
49 -235 1242 0
49 -236 1242 0
49 -237 1242 0
49 -238 -1239 1242 0
49 -239 -1240 1242 0
49 -240 -1241 1242 0
49 -241 -1242 1242 0
49 -242 -1242 1242 0
49 -243 -1242 1242 0
49 -244 -1242 1242 0
49 -245 -1242 1242 0
49 -246 -1242 1242 0
49 -247 -1242 1242 0
49 -248 -1242 1242 0
49 -249 -1242 1243 0
49 -250 -1242 0
49 -251 -1242 0
49 -252 -1242 0
49 -253 -1242 0
49 -254 -1242 0
49 -255 -1242 0
49 -256 -1242 0
49 -257 -1242 0
49 -258 -1242 0
49 -229 1244 0
49 -230 1244 0
49 -231 1244 0
49 -232 1244 0
49 -233 1244 0
49 -234 1244 0
49 -235 1247 0
49 -236 1248 0
49 -237 1248 0
49 -238 -1245 1248 0
49 -239 -1246 1248 0
49 -240 -1247 1248 0
49 -241 -1248 1248 0
49 -242 -1248 1248 0
49 -243 -1248 1248 0
49 -244 -1248 1248 0
49 -245 -1248 1248 0
49 -246 -1248 1248 0
49 -247 -1248 1248 0
49 -248 -1248 1248 0
49 -249 -1248 1249 0
49 -250 -1248 0
49 -251 -1248 0
49 -252 -1248 0
49 -259 262 0
49 -260 263 0
49 -261 264 0
49 -262 1215 0
49 -265 266 0
49 -265 1029 0
49 -265 1055 0
49 -265 1056 0
49 -265 1237 0
49 -266 1056 0
49 -266 1067 0
49 -267 268 0
49 -267 894 0
49 -267 905 0
49 -267 960 0
49 -267 961 0
49 -267 1030 0
49 -267 1031 0
49 -267 1048 0
49 -267 1049 0
49 -267 1150 0
49 -267 1151 0
49 -267 1198 0
49 -267 1199 0
49 -268 894 0
49 -268 905 0
49 -268 961 0
49 -268 1019 0
49 -268 1049 0
49 -268 1151 0
49 -268 1199 0
49 -269 280 0
49 -270 281 0
49 -271 282 0
49 -272 283 0
49 -273 284 0
49 -274 285 0
49 -275 286 0
49 -276 287 0
49 -277 288 0
49 -278 289 0
49 -279 290 0
49 -291 292 0
49 -291 926 0
49 -291 927 0
49 -291 964 0
49 -291 965 0
49 -291 968 0
49 -291 979 0
49 -291 1051 0
49 -291 1052 0
49 -291 1053 0
49 -291 1152 0
49 -291 1153 0
49 -292 965 0
49 -292 968 0
49 -292 979 0
49 -292 996 0
49 -292 1007 0
49 -292 1053 0
49 -292 1153 0
49 -293 294 0
49 -293 946 0
49 -293 949 0
49 -293 963 0
49 -293 967 0
49 -293 1103 0
49 -293 1212 0
49 -294 946 0
49 -294 949 0
49 -294 1213 0
49 -295 296 0
49 -295 926 0
49 -295 927 0
49 -295 1022 0
49 -295 1025 0
49 -295 1133 0
49 -295 1196 0
49 -295 1197 0
49 -295 1206 0
49 -295 1207 0
49 -295 1216 0
49 -295 1224 0
49 -296 927 0
49 -296 968 0
49 -296 979 0
49 -296 1022 0
49 -296 1025 0
49 -296 1197 0
49 -296 1207 0
49 -297 298 0
49 -297 946 0
49 -297 949 0
49 -297 957 0
49 -297 996 0
49 -297 1007 0
49 -297 1203 0
49 -298 996 0
49 -298 1007 0
49 -299 300 0
49 -299 955 0
49 -299 992 0
49 -300 968 0
49 -300 979 0
49 -300 993 0
49 -301 302 0
49 -301 1022 0
49 -301 1025 0
49 -301 1133 0
49 -301 1196 0
49 -301 1197 0
49 -301 1206 0
49 -301 1207 0
49 -302 1022 0
49 -302 1025 0
49 -302 1031 0
49 -302 1197 0
49 -302 1207 0
49 -303 306 0
49 -304 307 0
49 -305 308 0
49 -306 1195 0
49 -309 310 0
49 -309 1021 0
49 -309 1032 0
49 -309 1034 0
49 -309 1105 0
49 -310 1032 0
49 -310 -1035 1035 0
49 -311 312 0
49 -311 963 0
49 -311 990 0
49 -311 991 0
49 -311 1130 0
49 -311 1131 0
49 -311 1138 0
49 -311 1205 0
49 -312 991 0
49 -312 1136 0
49 -312 1138 0
49 -312 1235 0
49 -313 317 0
49 -314 318 0
49 -315 319 0
49 -316 320 0
49 -313 1119 0
49 -314 -1120 0
49 -315 -1121 0
49 -316 -1122 0
49 -313 -1141 1141 0
49 -314 -1141 1141 0
49 -315 -1141 1142 0
49 -316 -1141 1143 0
49 -313 1145 0
49 -314 -1147 0
49 -315 -1148 0
49 -316 -1149 0
49 -313 1205 0
49 -313 1224 0
49 -314 -1226 0
49 -315 -1227 0
49 -316 -1228 0
49 -313 1234 0
49 -317 1108 0
49 -318 1116 0
49 -319 1117 0
49 -320 1118 0
49 -317 1119 0
49 -318 -1120 1127 0
49 -319 -1121 1128 0
49 -320 -1122 1129 0
49 -317 -1141 1141 0
49 -318 -1141 1141 0
49 -319 -1141 1142 0
49 -320 -1141 1143 0
49 -317 -1146 1146 0
49 -318 -1146 1146 0
49 -319 -1146 1147 0
49 -320 -1146 1148 0
49 -321 324 0
49 -322 325 0
49 -323 326 0
49 -324 1213 0
49 -327 328 0
49 -327 1031 0
49 -327 1045 0
49 -327 1165 0
49 -327 1166 0
49 -327 1177 0
49 -327 1199 0
49 -328 1031 0
49 -328 1166 0
49 -328 1177 0
49 -329 330 0
49 -329 992 0
49 -329 993 0
49 -330 993 0
49 -331 332 0
49 -331 996 0
49 -331 1007 0
49 -331 1203 0
49 -332 996 0
49 -332 1007 0
49 -333 334 0
49 -333 994 0
49 -333 995 0
49 -333 1100 0
49 -333 1212 0
49 -333 1213 0
49 -334 995 0
49 -334 1101 0
49 -334 1209 0
49 -335 336 0
49 -335 1021 0
49 -335 1049 0
49 -335 1151 0
49 -335 1199 0
49 -337 338 0
49 -337 966 0
49 -337 967 0
49 -337 1102 0
49 -337 1103 0
49 -337 1134 0
49 -337 1135 0
49 -338 967 0
49 -338 1045 0
49 -338 1103 0
49 -338 1213 0
49 -339 340 0
49 -339 968 0
49 -339 979 0
49 -339 992 0
49 -339 993 0
49 -339 1051 0
49 -339 1053 0
49 -339 1153 0
49 -340 968 0
49 -340 979 0
49 -340 1188 0
49 -340 1191 0
49 -341 342 0
49 -341 1047 0
49 -341 1103 0
49 -341 1212 0
49 -343 354 0
49 -344 355 0
49 -345 356 0
49 -346 357 0
49 -347 358 0
49 -348 359 0
49 -349 360 0
49 -350 361 0
49 -351 362 0
49 -352 363 0
49 -353 364 0
49 -365 366 0
49 -365 1029 0
49 -365 1136 0
49 -365 1138 0
49 -365 1205 0
49 -365 1211 0
49 -366 1131 0
49 -366 1138 0
49 -367 368 0
49 -369 370 0
49 -369 1051 0
49 -369 1100 0
49 -370 1101 0
49 -370 1213 0
49 -371 382 0
49 -372 383 0
49 -373 384 0
49 -374 385 0
49 -375 386 0
49 -376 387 0
49 -377 388 0
49 -378 389 0
49 -379 390 0
49 -380 391 0
49 -381 392 0
49 -393 394 0
49 -393 1055 0
49 -393 1078 0
49 -393 1089 0
49 -393 1106 0
49 -393 1107 0
49 -394 1078 0
49 -394 1089 0
49 -394 1107 0
49 -395 396 0
49 -395 1032 0
49 -395 1034 0
49 -395 1104 0
49 -395 1105 0
49 -396 1032 0
49 -396 1034 0
49 -396 1105 0
49 -397 400 0
49 -398 401 0
49 -399 402 0
49 -400 1197 0
49 -403 404 0
49 -403 1056 0
49 -403 1067 0
49 -403 1236 0
49 -403 1237 0
49 -404 1056 0
49 -404 1067 0
49 -404 1237 0
49 -405 406 0
49 -405 1045 0
49 -405 1047 0
49 -405 1165 0
49 -405 1166 0
49 -405 1177 0
49 -405 1201 0
49 -406 1166 0
49 -406 1177 0
49 -407 409 0
49 -408 410 0
49 -411 412 0
49 -411 1103 0
49 -411 1158 0
49 -411 1163 0
49 -412 -1159 1159 0
49 -412 1191 0
49 -413 414 0
49 -413 1134 0
49 -413 1214 0
49 -413 1216 0
49 -413 1224 0
49 -413 1233 0
49 -415 416 0
49 -415 1043 0
49 -415 1195 0
49 -416 1197 0
49 -417 418 0
49 -417 1194 0
49 -417 1195 0
49 -418 1195 0
49 -418 1205 0
49 -419 420 0
49 -419 1165 0
49 -419 1166 0
49 -419 1177 0
49 -419 1188 0
49 -419 1191 0
49 -420 1166 0
49 -420 1213 0
49 -421 422 0
49 -421 1078 0
49 -421 1089 0
49 -421 1108 0
49 -421 1119 0
49 -421 1140 0
49 -421 1145 0
49 -421 1216 0
49 -421 1224 0
49 -421 1235 0
49 -422 1108 0
49 -422 1135 0
49 -422 -1217 1217 0
49 -422 1224 0
49 -422 1235 0
49 -423 424 0
49 -423 1150 0
49 -423 1151 0
49 -423 1198 0
49 -423 1199 0
49 -424 1151 0
49 -424 1199 0
49 -425 426 0
49 -425 1052 0
49 -425 1053 0
49 -425 1152 0
49 -425 1153 0
49 -426 1053 0
49 -426 1153 0
49 -427 428 0
49 -427 1078 0
49 -427 1089 0
49 -427 1153 0
49 -429 430 0
49 -429 1078 0
49 -429 1089 0
49 -429 1106 0
49 -429 1107 0
49 -430 1078 0
49 -430 1089 0
49 -430 1101 0
49 -430 1107 0
49 -431 442 0
49 -432 443 0
49 -433 444 0
49 -434 445 0
49 -435 446 0
49 -436 447 0
49 -437 448 0
49 -438 449 0
49 -439 450 0
49 -440 451 0
49 -441 452 0
49 -442 -1242 1242 0
49 -443 -1242 1242 0
49 -444 -1242 1243 0
49 -445 -1242 0
49 -446 -1242 0
49 -447 -1242 0
49 -448 -1242 0
49 -449 -1242 0
49 -450 -1242 0
49 -451 -1242 0
49 -452 -1242 0
49 -442 -1248 1248 0
49 -443 -1248 1249 0
49 -444 -1248 0
49 -445 -1248 0
49 -446 -1248 0
49 -447 -1248 0
49 -448 -1248 0
49 -449 -1248 0
49 -450 -1248 0
49 -451 -1248 0
49 -452 -1248 0
49 -453 464 0
49 -454 465 0
49 -455 466 0
49 -456 467 0
49 -457 468 0
49 -458 469 0
49 -459 470 0
49 -460 471 0
49 -461 472 0
49 -462 473 0
49 -463 474 0
49 -475 476 0
49 -475 1209 0
49 -477 478 0
49 -477 1130 0
49 -477 1131 0
49 -478 1213 0
49 -479 480 0
49 -481 482 0
49 -482 1166 0
49 -482 1177 0
49 -483 494 0
49 -484 495 0
49 -485 496 0
49 -486 497 0
49 -487 498 0
49 -488 499 0
49 -489 500 0
49 -490 501 0
49 -491 502 0
49 -492 503 0
49 -493 504 0
49 -483 -1141 1141 0
49 -484 -1141 1141 0
49 -485 -1141 1141 0
49 -486 -1141 1141 0
49 -487 -1141 1141 0
49 -488 -1141 1142 0
49 -489 -1141 1143 0
49 -490 -1141 1144 0
49 -491 -1141 0
49 -492 -1141 0
49 -493 -1142 0
49 -483 -1225 0
49 -484 -1225 0
49 -485 -1225 0
49 -486 -1225 0
49 -487 -1226 0
49 -488 -1227 0
49 -489 -1228 0
49 -490 -1229 0
49 -491 -1230 0
49 -492 -1231 0
49 -494 -1146 1146 0
49 -495 -1146 1147 0
49 -496 -1146 1148 0
49 -497 -1146 1149 0
49 -498 -1146 0
49 -499 -1146 0
49 -500 -1146 0
49 -501 -1146 0
49 -502 -1146 0
49 -503 -1146 0
49 -504 -1146 0
49 -494 -1217 1217 0
49 -495 -1217 1218 0
49 -496 -1217 1219 0
49 -497 -1217 1220 0
49 -498 -1217 1221 0
49 -499 -1217 1222 0
49 -500 -1217 1223 0
49 -501 -1217 0
49 -502 -1217 0
49 -503 -1217 0
49 -504 -1217 0
49 -494 -1225 1225 0
49 -495 -1225 1226 0
49 -496 -1225 1227 0
49 -497 -1225 1228 0
49 -498 -1226 1229 0
49 -499 -1227 1230 0
49 -500 -1228 1231 0
49 -501 -1229 0
49 -502 -1230 0
49 -503 -1231 0
49 -505 506 0
49 -505 1133 0
49 -505 1136 0
49 -505 1138 0
49 -505 1205 0
49 -505 1211 0
49 -506 -1139 1139 0
49 -507 508 0
49 -507 1196 0
49 -507 1197 0
49 -507 1206 0
49 -507 1207 0
49 -507 1208 0
49 -507 1209 0
49 -508 1197 0
49 -508 1207 0
49 -509 510 0
49 -509 1214 0
49 -509 1215 0
49 -509 1232 0
49 -510 1215 0
49 -510 1233 0
49 -511 513 0
49 -512 514 0
49 -515 520 0
49 -516 521 0
49 -517 522 0
49 -518 523 0
49 -519 524 0
49 -515 1224 0
49 -516 -1226 0
49 -517 -1227 0
49 -518 -1228 0
49 -519 -1229 0
49 -515 1234 0
49 -515 1235 0
49 -520 -1217 1217 0
49 -521 -1217 1217 0
49 -522 -1217 1218 0
49 -523 -1217 1219 0
49 -524 -1217 1220 0
49 -520 1224 0
49 -521 -1226 0
49 -522 -1227 0
49 -523 -1228 0
49 -524 -1229 0
49 -525 526 0
49 -525 1199 0
49 -525 1206 0
49 -525 1207 0
49 -527 528 0
49 -528 1166 0
49 -528 1177 0
49 -529 533 0
49 -530 534 0
49 -531 535 0
49 -532 536 0
49 -529 1163 0
49 -529 1166 0
49 -530 -1169 0
49 -531 -1170 0
49 -532 -1171 0
49 -529 1177 0
49 -530 -1179 0
49 -531 -1180 0
49 -532 -1181 0
49 -529 1188 0
49 -530 -1189 0
49 -531 -1189 0
49 -532 -1189 0
49 -529 1191 0
49 -530 -1192 0
49 -531 -1192 0
49 -532 -1192 0
49 -533 1191 0
49 -534 -1192 0
49 -535 -1192 0
49 -536 -1192 0
49 -537 538 0
49 -537 1188 0
49 -537 1191 0
49 -537 1236 0
49 -537 1237 0
49 -538 1188 0
49 -538 1191 0
49 -538 1237 0
49 -539 540 0
49 -539 1166 0
49 -539 1177 0
49 -539 1201 0
49 -539 1214 0
49 -539 1215 0
49 -540 1166 0
49 -540 1177 0
49 -540 1237 0
49 -541 552 0
49 -542 553 0
49 -543 554 0
49 -544 555 0
49 -545 556 0
49 -546 557 0
49 -547 558 0
49 -548 559 0
49 -549 560 0
49 -550 561 0
49 -551 562 0
49 -563 566 0
49 -564 567 0
49 -565 568 0
49 -566 1195 0
49 -569 570 0
49 -571 572 0
49 -571 1207 0
49 -573 574 0
49 -573 1232 0
49 -573 1233 0
49 -574 -1217 1217 0
49 -574 1224 0
49 -575 576 0
49 -576 1209 0
49 -577 578 0
49 -579 580 0
49 -579 1211 0
49 -581 582 0
49 -582 1215 0
49 -583 584 0
49 -584 1215 0
49 -585 586 0
49 -585 1234 0
49 -585 1235 0
49 -586 -1217 1217 0
49 -586 1224 0
49 -587 588 0
49 -589 590 0
49 -589 -1217 1217 0
49 -589 1224 0
49 -589 1233 0
49 -591 599 0
49 -592 600 0
49 -593 601 0
49 -594 602 0
49 -595 603 0
49 -596 604 0
49 -597 605 0
49 -598 606 0
49 -591 1234 0
49 -591 1235 0
49 -599 1235 0
49 -607 608 0
49 -609 610 0
49 -611 612 0
49 -612 -1242 1242 0
49 -612 -1248 1248 0
49 -613 619 0
49 -614 620 0
49 -615 621 0
49 -616 622 0
49 -617 623 0
49 -618 624 0
49 -1 1255 0
49 -2 1268 0
49 -3 1255 0
49 -4 1268 0
49 -5 1250 0
49 -6 1251 0
49 -7 1252 0
49 -8 1253 0
49 -9 1254 0
49 -10 1255 0
49 -11 1256 0
49 -12 1257 0
49 -13 1258 0
49 -14 1259 0
49 -15 1260 0
49 -16 1263 0
49 -17 1264 0
49 -18 1265 0
49 -19 1266 0
49 -20 1267 0
49 -21 1282 0
49 -22 1283 0
49 -23 1284 0
49 -24 1285 0
49 -25 1286 0
49 -26 1287 0
49 -27 1288 0
49 -28 1289 0
49 -29 1290 0
49 -30 1291 0
49 -31 1292 0
49 -32 1293 0
49 -33 1294 0
49 -34 1295 0
49 -35 1296 0
49 -36 1297 0
49 -37 1250 0
49 -38 1251 0
49 -39 1252 0
49 -40 1253 0
49 -41 1254 0
49 -42 1263 0
49 -43 1264 0
49 -44 1265 0
49 -45 1266 0
49 -46 1267 0
49 -47 1268 0
49 -48 1269 0
49 -49 1270 0
49 -50 1271 0
49 -51 1272 0
49 -52 1273 0
49 -53 1275 0
49 -54 1276 0
49 -55 1277 0
49 -56 1278 0
49 -57 1279 0
49 -58 1281 0
49 -59 1282 0
49 -60 1283 0
49 -61 1284 0
49 -62 1285 0
49 -63 1286 0
49 -64 1293 0
49 -65 1294 0
49 -66 1295 0
49 -67 1296 0
49 -68 1297 0
49 -69 1260 0
49 -70 1273 0
49 -71 1251 0
49 -72 1252 0
49 -73 1253 0
49 -74 1254 0
49 -75 1255 0
49 -76 1256 0
49 -77 1257 0
49 -78 1258 0
49 -79 1259 0
49 -80 1260 0
49 -81 1264 0
49 -82 1265 0
49 -83 1266 0
49 -84 1267 0
49 -85 1268 0
49 -86 1269 0
49 -87 1270 0
49 -88 1278 0
49 -89 1279 0
49 -90 1281 0
49 -91 1282 0
49 -92 1283 0
49 -93 1284 0
49 -94 1285 0
49 -95 1286 0
49 -96 1287 0
49 -97 1288 0
49 -98 1289 0
49 -99 1290 0
49 -100 1291 0
49 -101 1292 0
49 -102 1293 0
49 -103 1294 0
49 -104 1295 0
49 -105 1296 0
49 -106 1297 0
49 -107 1251 0
49 -108 1252 0
49 -109 1253 0
49 -110 1254 0
49 -111 1255 0
49 -112 1256 0
49 -113 1257 0
49 -114 1264 0
49 -115 1265 0
49 -116 1266 0
49 -117 1267 0
49 -118 1268 0
49 -119 1269 0
49 -120 1270 0
49 -121 1271 0
49 -122 1272 0
49 -123 1273 0
49 -124 1275 0
49 -125 1276 0
49 -126 1277 0
49 -127 1278 0
49 -128 1279 0
49 -129 1281 0
49 -130 1282 0
49 -131 1283 0
49 -132 1284 0
49 -133 1285 0
49 -134 1286 0
49 -135 1290 0
49 -136 1291 0
49 -137 1292 0
49 -138 1293 0
49 -139 1294 0
49 -140 1295 0
49 -141 1296 0
49 -142 1297 0
49 -143 1287 0
49 -144 1288 0
49 -145 1289 0
49 -146 1290 0
49 -147 1291 0
49 -148 1292 0
49 -149 1293 0
49 -150 1294 0
49 -151 1295 0
49 -152 1296 0
49 -153 1297 0
49 -154 1275 0
49 -155 1276 0
49 -156 1277 0
49 -157 1278 0
49 -158 1279 0
49 -159 1281 0
49 -160 1282 0
49 -161 1283 0
49 -162 1284 0
49 -163 1285 0
49 -164 1286 0
49 -165 1255 0
49 -166 1268 0
49 -167 1257 0
49 -168 1292 0
49 -169 1270 0
49 -170 1281 0
49 -171 1260 0
49 -172 1273 0
49 -173 1256 0
49 -174 1269 0
49 -175 1260 0
49 -176 1273 0
49 -177 1255 0
49 -178 1268 0
49 -179 1256 0
49 -180 1269 0
49 -181 1287 0
49 -182 1296 0
49 -183 1297 0
49 -184 1275 0
49 -185 1285 0
49 -186 1286 0
49 -187 1261 0
49 -188 1274 0
49 -189 1258 0
49 -190 1271 0
49 -191 1254 0
49 -192 1267 0
49 -193 1260 0
49 -194 1273 0
49 -195 1258 0
49 -196 1271 0
49 -197 1256 0
49 -198 1269 0
49 -199 1251 0
49 -200 1252 0
49 -201 1253 0
49 -202 1254 0
49 -203 1255 0
49 -204 1256 0
49 -205 1257 0
49 -206 1258 0
49 -207 1259 0
49 -208 1264 0
49 -209 1265 0
49 -210 1266 0
49 -211 1267 0
49 -212 1268 0
49 -213 1269 0
49 -214 1279 0
49 -215 1281 0
49 -216 1282 0
49 -217 1283 0
49 -218 1284 0
49 -219 1285 0
49 -220 1288 0
49 -221 1289 0
49 -222 1290 0
49 -223 1291 0
49 -224 1292 0
49 -225 1293 0
49 -226 1294 0
49 -227 1295 0
49 -228 1296 0
49 -229 1251 0
49 -230 1252 0
49 -231 1253 0
49 -232 1254 0
49 -233 1255 0
49 -234 1256 0
49 -235 1264 0
49 -236 1265 0
49 -237 1266 0
49 -238 1267 0
49 -239 1268 0
49 -240 1269 0
49 -241 1270 0
49 -242 1271 0
49 -243 1272 0
49 -244 1276 0
49 -245 1277 0
49 -246 1278 0
49 -247 1279 0
49 -248 1281 0
49 -249 1282 0
49 -250 1283 0
49 -251 1284 0
49 -252 1285 0
49 -253 1291 0
49 -254 1292 0
49 -255 1293 0
49 -256 1294 0
49 -257 1295 0
49 -258 1296 0
49 -259 1287 0
49 -260 1296 0
49 -261 1297 0
49 -262 1275 0
49 -263 1285 0
49 -264 1286 0
49 -265 1261 0
49 -266 1274 0
49 -267 1254 0
49 -268 1267 0
49 -269 1287 0
49 -270 1288 0
49 -271 1289 0
49 -272 1290 0
49 -273 1291 0
49 -274 1292 0
49 -275 1293 0
49 -276 1294 0
49 -277 1295 0
49 -278 1296 0
49 -279 1297 0
49 -280 1275 0
49 -281 1276 0
49 -282 1277 0
49 -283 1278 0
49 -284 1279 0
49 -285 1281 0
49 -286 1282 0
49 -287 1283 0
49 -288 1284 0
49 -289 1285 0
49 -290 1286 0
49 -291 1256 0
49 -292 1269 0
49 -293 1259 0
49 -294 1272 0
49 -295 1255 0
49 -296 1268 0
49 -297 1260 0
49 -298 1273 0
49 -299 1261 0
49 -300 1274 0
49 -301 1257 0
49 -302 1270 0
49 -303 1287 0
49 -304 1296 0
49 -305 1297 0
49 -306 1275 0
49 -307 1285 0
49 -308 1286 0
49 -309 1262 0
49 -310 1280 0
49 -311 1256 0
49 -312 1269 0
49 -313 1258 0
49 -314 1291 0
49 -315 1292 0
49 -316 1293 0
49 -317 1271 0
49 -318 1279 0
49 -319 1281 0
49 -320 1282 0
49 -321 1287 0
49 -322 1296 0
49 -323 1297 0
49 -324 1275 0
49 -325 1285 0
49 -326 1286 0
49 -327 1259 0
49 -328 1272 0
49 -329 1254 0
49 -330 1267 0
49 -331 1258 0
49 -332 1271 0
49 -333 1254 0
49 -334 1267 0
49 -335 1258 0
49 -336 1271 0
49 -337 1254 0
49 -338 1267 0
49 -339 1261 0
49 -340 1274 0
49 -341 1258 0
49 -342 1271 0
49 -343 1287 0
49 -344 1288 0
49 -345 1289 0
49 -346 1290 0
49 -347 1291 0
49 -348 1292 0
49 -349 1293 0
49 -350 1294 0
49 -351 1295 0
49 -352 1296 0
49 -353 1297 0
49 -354 1275 0
49 -355 1276 0
49 -356 1277 0
49 -357 1278 0
49 -358 1279 0
49 -359 1281 0
49 -360 1282 0
49 -361 1283 0
49 -362 1284 0
49 -363 1285 0
49 -364 1286 0
49 -365 1261 0
49 -366 1274 0
49 -367 1262 0
49 -368 1280 0
49 -369 1260 0
49 -370 1273 0
49 -371 1287 0
49 -372 1288 0
49 -373 1289 0
49 -374 1290 0
49 -375 1291 0
49 -376 1292 0
49 -377 1293 0
49 -378 1294 0
49 -379 1295 0
49 -380 1296 0
49 -381 1297 0
49 -382 1275 0
49 -383 1276 0
49 -384 1277 0
49 -385 1278 0
49 -386 1279 0
49 -387 1281 0
49 -388 1282 0
49 -389 1283 0
49 -390 1284 0
49 -391 1285 0
49 -392 1286 0
49 -393 1257 0
49 -394 1270 0
49 -395 1254 0
49 -396 1267 0
49 -397 1287 0
49 -398 1296 0
49 -399 1297 0
49 -400 1275 0
49 -401 1285 0
49 -402 1286 0
49 -403 1254 0
49 -404 1267 0
49 -405 1260 0
49 -406 1273 0
49 -407 1287 0
49 -408 1297 0
49 -409 1275 0
49 -410 1286 0
49 -411 1261 0
49 -412 1274 0
49 -413 1254 0
49 -414 1267 0
49 -415 1256 0
49 -416 1269 0
49 -417 1254 0
49 -418 1267 0
49 -419 1256 0
49 -420 1269 0
49 -421 1254 0
49 -422 1267 0
49 -423 1255 0
49 -424 1268 0
49 -425 1254 0
49 -426 1267 0
49 -427 1258 0
49 -428 1271 0
49 -429 1254 0
49 -430 1267 0
49 -431 1287 0
49 -432 1288 0
49 -433 1289 0
49 -434 1290 0
49 -435 1291 0
49 -436 1292 0
49 -437 1293 0
49 -438 1294 0
49 -439 1295 0
49 -440 1296 0
49 -441 1297 0
49 -442 1275 0
49 -443 1276 0
49 -444 1277 0
49 -445 1278 0
49 -446 1279 0
49 -447 1281 0
49 -448 1282 0
49 -449 1283 0
49 -450 1284 0
49 -451 1285 0
49 -452 1286 0
49 -453 1287 0
49 -454 1288 0
49 -455 1289 0
49 -456 1290 0
49 -457 1291 0
49 -458 1292 0
49 -459 1293 0
49 -460 1294 0
49 -461 1295 0
49 -462 1296 0
49 -463 1297 0
49 -464 1275 0
49 -465 1276 0
49 -466 1277 0
49 -467 1278 0
49 -468 1279 0
49 -469 1281 0
49 -470 1282 0
49 -471 1283 0
49 -472 1284 0
49 -473 1285 0
49 -474 1286 0
49 -475 1261 0
49 -476 1274 0
49 -477 1255 0
49 -478 1268 0
49 -479 1258 0
49 -480 1271 0
49 -481 1260 0
49 -482 1273 0
49 -483 1287 0
49 -484 1288 0
49 -485 1289 0
49 -486 1290 0
49 -487 1291 0
49 -488 1292 0
49 -489 1293 0
49 -490 1294 0
49 -491 1295 0
49 -492 1296 0
49 -493 1297 0
49 -494 1275 0
49 -495 1276 0
49 -496 1277 0
49 -497 1278 0
49 -498 1279 0
49 -499 1281 0
49 -500 1282 0
49 -501 1283 0
49 -502 1284 0
49 -503 1285 0
49 -504 1286 0
49 -505 1262 0
49 -506 1280 0
49 -507 1254 0
49 -508 1267 0
49 -509 1257 0
49 -510 1270 0
49 -511 1287 0
49 -512 1297 0
49 -513 1275 0
49 -514 1286 0
49 -515 1255 0
49 -516 1294 0
49 -517 1295 0
49 -518 1296 0
49 -519 1297 0
49 -520 1268 0
49 -521 1283 0
49 -522 1284 0
49 -523 1285 0
49 -524 1286 0
49 -525 1257 0
49 -526 1270 0
49 -527 1257 0
49 -528 1270 0
49 -529 1255 0
49 -530 1295 0
49 -531 1296 0
49 -532 1297 0
49 -533 1268 0
49 -534 1284 0
49 -535 1285 0
49 -536 1286 0
49 -537 1254 0
49 -538 1267 0
49 -539 1255 0
49 -540 1268 0
49 -541 1287 0
49 -542 1288 0
49 -543 1289 0
49 -544 1290 0
49 -545 1291 0
49 -546 1292 0
49 -547 1293 0
49 -548 1294 0
49 -549 1295 0
49 -550 1296 0
49 -551 1297 0
49 -552 1275 0
49 -553 1276 0
49 -554 1277 0
49 -555 1278 0
49 -556 1279 0
49 -557 1281 0
49 -558 1282 0
49 -559 1283 0
49 -560 1284 0
49 -561 1285 0
49 -562 1286 0
49 -563 1287 0
49 -564 1296 0
49 -565 1297 0
49 -566 1275 0
49 -567 1285 0
49 -568 1286 0
49 -569 1262 0
49 -570 1280 0
49 -571 1262 0
49 -572 1280 0
49 -573 1256 0
49 -574 1269 0
49 -575 1254 0
49 -576 1267 0
49 -577 1255 0
49 -578 1268 0
49 -579 1255 0
49 -580 1268 0
49 -581 1259 0
49 -582 1272 0
49 -583 1259 0
49 -584 1272 0
49 -585 1254 0
49 -586 1267 0
49 -587 1262 0
49 -588 1280 0
49 -589 1262 0
49 -590 1280 0
49 -591 1260 0
49 -592 1289 0
49 -593 1290 0
49 -594 1291 0
49 -595 1292 0
49 -596 1293 0
49 -597 1294 0
49 -598 1295 0
49 -599 1273 0
49 -600 1277 0
49 -601 1278 0
49 -602 1279 0
49 -603 1281 0
49 -604 1282 0
49 -605 1283 0
49 -606 1284 0
49 -607 1261 0
49 -608 1274 0
49 -609 1261 0
49 -610 1274 0
49 -611 1260 0
49 -612 1273 0
49 -613 1251 0
49 -614 1252 0
49 -615 1253 0
49 -616 1254 0
49 -617 1295 0
49 -618 1296 0
49 -619 1264 0
49 -620 1265 0
49 -621 1266 0
49 -622 1267 0
49 -623 1284 0
49 -624 1285 0
