c Dataset: TUD200.2
c Encoding: POSE
c DecisionVars: 200
c OrderVars: 200
c CardinalityAuxVars: 0
c LabelVars: 48
c TotalVars: 449
c OrderClauses: 600
c CardinalityClauses: 0
c DistanceClauses: 686
c LabelLinkClauses: 200
c SoftClauses: 48
c HardClauses: 1486
c TotalClauses: 1534
p wcnf 449 1534 49
1 -402 0
1 -403 0
1 -404 0
1 -405 0
1 -406 0
1 -407 0
1 -408 0
1 -409 0
1 -410 0
1 -411 0
1 -412 0
1 -413 0
1 -414 0
1 -415 0
1 -416 0
1 -417 0
1 -418 0
1 -419 0
1 -420 0
1 -421 0
1 -422 0
1 -423 0
1 -424 0
1 -425 0
1 -426 0
1 -427 0
1 -428 0
1 -429 0
1 -430 0
1 -431 0
1 -432 0
1 -433 0
1 -434 0
1 -435 0
1 -436 0
1 -437 0
1 -438 0
1 -439 0
1 -440 0
1 -441 0
1 -442 0
1 -443 0
1 -444 0
1 -445 0
1 -446 0
1 -447 0
1 -448 0
1 -449 0
49 -1 202 0
49 -202 1 0
49 202 0
49 -2 203 0
49 -203 2 0
49 203 0
49 -3 204 0
49 -204 3 0
49 204 0
49 -4 205 0
49 -205 4 0
49 205 0
49 -5 206 0
49 -206 5 0
49 206 0
49 -6 207 0
49 -207 6 0
49 207 0
49 -7 208 0
49 -208 7 0
49 208 0
49 -8 209 0
49 -209 8 0
49 209 0
49 -9 210 0
49 -210 9 0
49 210 0
49 -10 211 0
49 -211 10 0
49 211 0
49 -11 212 0
49 -212 11 0
49 212 0
49 -12 213 0
49 -213 12 0
49 213 0
49 -13 214 0
49 -214 13 0
49 214 0
49 -14 215 0
49 -215 14 0
49 215 0
49 -15 216 0
49 -216 15 0
49 216 0
49 -16 217 0
49 -217 16 0
49 217 0
49 -17 218 0
49 -218 17 0
49 218 0
49 -18 219 0
49 -219 18 0
49 219 0
49 -19 220 0
49 -220 19 0
49 220 0
49 -20 221 0
49 -221 20 0
49 221 0
49 -21 222 0
49 -222 21 0
49 222 0
49 -22 223 0
49 -223 22 0
49 223 0
49 -23 224 0
49 -224 23 0
49 224 0
49 -24 225 0
49 -225 24 0
49 225 0
49 -25 226 0
49 -226 25 0
49 226 0
49 -26 227 0
49 -227 26 0
49 227 0
49 -27 228 0
49 -228 27 0
49 228 0
49 -28 229 0
49 -229 28 0
49 229 0
49 -29 230 0
49 -230 29 0
49 230 0
49 -30 231 0
49 -231 30 0
49 231 0
49 -31 232 0
49 -232 31 0
49 232 0
49 -32 233 0
49 -233 32 0
49 233 0
49 -33 234 0
49 -234 33 0
49 234 0
49 -34 235 0
49 -235 34 0
49 235 0
49 -35 236 0
49 -236 35 0
49 236 0
49 -36 237 0
49 -237 36 0
49 237 0
49 -37 238 0
49 -238 37 0
49 238 0
49 -38 239 0
49 -239 38 0
49 239 0
49 -39 240 0
49 -240 39 0
49 240 0
49 -40 241 0
49 -241 40 0
49 241 0
49 -41 242 0
49 -242 41 0
49 242 0
49 -42 243 0
49 -243 42 0
49 243 0
49 -43 244 0
49 -244 43 0
49 244 0
49 -44 245 0
49 -245 44 0
49 245 0
49 -45 246 0
49 -246 45 0
49 246 0
49 -46 247 0
49 -247 46 0
49 247 0
49 -47 248 0
49 -248 47 0
49 248 0
49 -48 249 0
49 -249 48 0
49 249 0
49 -49 250 0
49 -250 49 0
49 250 0
49 -50 251 0
49 -251 50 0
49 251 0
49 -51 252 0
49 -252 51 0
49 252 0
49 -52 253 0
49 -253 52 0
49 253 0
49 -53 254 0
49 -254 53 0
49 254 0
49 -54 255 0
49 -255 54 0
49 255 0
49 -55 256 0
49 -256 55 0
49 256 0
49 -56 257 0
49 -257 56 0
49 257 0
49 -57 258 0
49 -258 57 0
49 258 0
49 -58 259 0
49 -259 58 0
49 259 0
49 -59 260 0
49 -260 59 0
49 260 0
49 -60 261 0
49 -261 60 0
49 261 0
49 -61 262 0
49 -262 61 0
49 262 0
49 -62 263 0
49 -263 62 0
49 263 0
49 -63 264 0
49 -264 63 0
49 264 0
49 -64 265 0
49 -265 64 0
49 265 0
49 -65 266 0
49 -266 65 0
49 266 0
49 -66 267 0
49 -267 66 0
49 267 0
49 -67 268 0
49 -268 67 0
49 268 0
49 -68 269 0
49 -269 68 0
49 269 0
49 -69 270 0
49 -270 69 0
49 270 0
49 -70 271 0
49 -271 70 0
49 271 0
49 -71 272 0
49 -272 71 0
49 272 0
49 -72 273 0
49 -273 72 0
49 273 0
49 -73 274 0
49 -274 73 0
49 274 0
49 -74 275 0
49 -275 74 0
49 275 0
49 -75 276 0
49 -276 75 0
49 276 0
49 -76 277 0
49 -277 76 0
49 277 0
49 -77 278 0
49 -278 77 0
49 278 0
49 -78 279 0
49 -279 78 0
49 279 0
49 -79 280 0
49 -280 79 0
49 280 0
49 -80 281 0
49 -281 80 0
49 281 0
49 -81 282 0
49 -282 81 0
49 282 0
49 -82 283 0
49 -283 82 0
49 283 0
49 -83 284 0
49 -284 83 0
49 284 0
49 -84 285 0
49 -285 84 0
49 285 0
49 -85 286 0
49 -286 85 0
49 286 0
49 -86 287 0
49 -287 86 0
49 287 0
49 -87 288 0
49 -288 87 0
49 288 0
49 -88 289 0
49 -289 88 0
49 289 0
49 -89 290 0
49 -290 89 0
49 290 0
49 -90 291 0
49 -291 90 0
49 291 0
49 -91 292 0
49 -292 91 0
49 292 0
49 -92 293 0
49 -293 92 0
49 293 0
49 -93 294 0
49 -294 93 0
49 294 0
49 -94 295 0
49 -295 94 0
49 295 0
49 -95 296 0
49 -296 95 0
49 296 0
49 -96 297 0
49 -297 96 0
49 297 0
49 -97 298 0
49 -298 97 0
49 298 0
49 -98 299 0
49 -299 98 0
49 299 0
49 -99 300 0
49 -300 99 0
49 300 0
49 -100 301 0
49 -301 100 0
49 301 0
49 -101 302 0
49 -302 101 0
49 302 0
49 -102 303 0
49 -303 102 0
49 303 0
49 -103 304 0
49 -304 103 0
49 304 0
49 -104 305 0
49 -305 104 0
49 305 0
49 -105 306 0
49 -306 105 0
49 306 0
49 -106 307 0
49 -307 106 0
49 307 0
49 -107 308 0
49 -308 107 0
49 308 0
49 -108 309 0
49 -309 108 0
49 309 0
49 -109 310 0
49 -310 109 0
49 310 0
49 -110 311 0
49 -311 110 0
49 311 0
49 -111 312 0
49 -312 111 0
49 312 0
49 -112 313 0
49 -313 112 0
49 313 0
49 -113 314 0
49 -314 113 0
49 314 0
49 -114 315 0
49 -315 114 0
49 315 0
49 -115 316 0
49 -316 115 0
49 316 0
49 -116 317 0
49 -317 116 0
49 317 0
49 -117 318 0
49 -318 117 0
49 318 0
49 -118 319 0
49 -319 118 0
49 319 0
49 -119 320 0
49 -320 119 0
49 320 0
49 -120 321 0
49 -321 120 0
49 321 0
49 -121 322 0
49 -322 121 0
49 322 0
49 -122 323 0
49 -323 122 0
49 323 0
49 -123 324 0
49 -324 123 0
49 324 0
49 -124 325 0
49 -325 124 0
49 325 0
49 -125 326 0
49 -326 125 0
49 326 0
49 -126 327 0
49 -327 126 0
49 327 0
49 -127 328 0
49 -328 127 0
49 328 0
49 -128 329 0
49 -329 128 0
49 329 0
49 -129 330 0
49 -330 129 0
49 330 0
49 -130 331 0
49 -331 130 0
49 331 0
49 -131 332 0
49 -332 131 0
49 332 0
49 -132 333 0
49 -333 132 0
49 333 0
49 -133 334 0
49 -334 133 0
49 334 0
49 -134 335 0
49 -335 134 0
49 335 0
49 -135 336 0
49 -336 135 0
49 336 0
49 -136 337 0
49 -337 136 0
49 337 0
49 -137 338 0
49 -338 137 0
49 338 0
49 -138 339 0
49 -339 138 0
49 339 0
49 -139 340 0
49 -340 139 0
49 340 0
49 -140 341 0
49 -341 140 0
49 341 0
49 -141 342 0
49 -342 141 0
49 342 0
49 -142 343 0
49 -343 142 0
49 343 0
49 -143 344 0
49 -344 143 0
49 344 0
49 -144 345 0
49 -345 144 0
49 345 0
49 -145 346 0
49 -346 145 0
49 346 0
49 -146 347 0
49 -347 146 0
49 347 0
49 -147 348 0
49 -348 147 0
49 348 0
49 -148 349 0
49 -349 148 0
49 349 0
49 -149 350 0
49 -350 149 0
49 350 0
49 -150 351 0
49 -351 150 0
49 351 0
49 -151 352 0
49 -352 151 0
49 352 0
49 -152 353 0
49 -353 152 0
49 353 0
49 -153 354 0
49 -354 153 0
49 354 0
49 -154 355 0
49 -355 154 0
49 355 0
49 -155 356 0
49 -356 155 0
49 356 0
49 -156 357 0
49 -357 156 0
49 357 0
49 -157 358 0
49 -358 157 0
49 358 0
49 -158 359 0
49 -359 158 0
49 359 0
49 -159 360 0
49 -360 159 0
49 360 0
49 -160 361 0
49 -361 160 0
49 361 0
49 -161 362 0
49 -362 161 0
49 362 0
49 -162 363 0
49 -363 162 0
49 363 0
49 -163 364 0
49 -364 163 0
49 364 0
49 -164 365 0
49 -365 164 0
49 365 0
49 -165 366 0
49 -366 165 0
49 366 0
49 -166 367 0
49 -367 166 0
49 367 0
49 -167 368 0
49 -368 167 0
49 368 0
49 -168 369 0
49 -369 168 0
49 369 0
49 -169 370 0
49 -370 169 0
49 370 0
49 -170 371 0
49 -371 170 0
49 371 0
49 -171 372 0
49 -372 171 0
49 372 0
49 -172 373 0
49 -373 172 0
49 373 0
49 -173 374 0
49 -374 173 0
49 374 0
49 -174 375 0
49 -375 174 0
49 375 0
49 -175 376 0
49 -376 175 0
49 376 0
49 -176 377 0
49 -377 176 0
49 377 0
49 -177 378 0
49 -378 177 0
49 378 0
49 -178 379 0
49 -379 178 0
49 379 0
49 -179 380 0
49 -380 179 0
49 380 0
49 -180 381 0
49 -381 180 0
49 381 0
49 -181 382 0
49 -382 181 0
49 382 0
49 -182 383 0
49 -383 182 0
49 383 0
49 -183 384 0
49 -384 183 0
49 384 0
49 -184 385 0
49 -385 184 0
49 385 0
49 -185 386 0
49 -386 185 0
49 386 0
49 -186 387 0
49 -387 186 0
49 387 0
49 -187 388 0
49 -388 187 0
49 388 0
49 -188 389 0
49 -389 188 0
49 389 0
49 -189 390 0
49 -390 189 0
49 390 0
49 -190 391 0
49 -391 190 0
49 391 0
49 -191 392 0
49 -392 191 0
49 392 0
49 -192 393 0
49 -393 192 0
49 393 0
49 -193 394 0
49 -394 193 0
49 394 0
49 -194 395 0
49 -395 194 0
49 395 0
49 -195 396 0
49 -396 195 0
49 396 0
49 -196 397 0
49 -397 196 0
49 397 0
49 -197 398 0
49 -398 197 0
49 398 0
49 -198 399 0
49 -399 198 0
49 399 0
49 -199 400 0
49 -400 199 0
49 400 0
49 -200 401 0
49 -401 200 0
49 401 0
49 -1 2 0
49 -1 400 0
49 -2 400 0
49 -2 401 0
49 -3 4 0
49 -3 312 0
49 -4 224 0
49 -4 246 0
49 -4 308 0
49 -4 312 0
49 -4 313 0
49 -5 6 0
49 -5 220 0
49 -5 221 0
49 -5 400 0
49 -5 401 0
49 -6 221 0
49 -6 400 0
49 -6 401 0
49 -7 8 0
49 -7 231 0
49 -7 264 0
49 -7 265 0
49 -7 266 0
49 -7 267 0
49 -7 268 0
49 -7 269 0
49 -7 290 0
49 -7 291 0
49 -7 346 0
49 -7 347 0
49 -8 230 0
49 -8 265 0
49 -8 294 0
49 -8 295 0
49 -9 10 0
49 -9 217 0
49 -9 232 0
49 -9 233 0
49 -9 234 0
49 -9 235 0
49 -9 300 0
49 -9 301 0
49 -9 396 0
49 -9 397 0
49 -10 232 0
49 -10 233 0
49 -10 234 0
49 -10 300 0
49 -10 394 0
49 -10 395 0
49 -10 396 0
49 -10 397 0
49 -11 12 0
49 -11 214 0
49 -11 215 0
49 -11 218 0
49 -11 219 0
49 -11 222 0
49 -11 223 0
49 -11 261 0
49 -11 335 0
49 -11 399 0
49 -12 219 0
49 -12 221 0
49 -12 260 0
49 -12 261 0
49 -12 334 0
49 -12 335 0
49 -13 14 0
49 -13 240 0
49 -13 284 0
49 -14 240 0
49 -14 285 0
49 -14 350 0
49 -15 16 0
49 -15 232 0
49 -15 233 0
49 -15 235 0
49 -15 300 0
49 -15 301 0
49 -15 396 0
49 -16 232 0
49 -16 233 0
49 -16 234 0
49 -16 300 0
49 -16 301 0
49 -16 396 0
49 -16 397 0
49 -17 18 0
49 -17 223 0
49 -17 335 0
49 -17 399 0
49 -18 260 0
49 -19 20 0
49 -19 400 0
49 -19 401 0
49 -20 400 0
49 -20 401 0
49 -21 22 0
49 -21 261 0
49 -21 278 0
49 -21 279 0
49 -21 334 0
49 -21 335 0
49 -21 399 0
49 -22 260 0
49 -22 334 0
49 -22 335 0
49 -22 352 0
49 -22 353 0
49 -23 24 0
49 -23 308 0
49 -23 312 0
49 -24 246 0
49 -24 308 0
49 -24 309 0
49 -24 312 0
49 -24 313 0
49 -25 26 0
49 -25 279 0
49 -25 372 0
49 -25 373 0
49 -25 376 0
49 -25 377 0
49 -25 378 0
49 -25 392 0
49 -26 278 0
49 -26 279 0
49 -26 311 0
49 -26 339 0
49 -26 376 0
49 -26 377 0
49 -26 379 0
49 -27 28 0
49 -27 250 0
49 -27 251 0
49 -27 276 0
49 -27 277 0
49 -27 292 0
49 -27 293 0
49 -27 298 0
49 -27 299 0
49 -27 332 0
49 -27 333 0
49 -27 356 0
49 -27 357 0
49 -28 277 0
49 -28 287 0
49 -28 292 0
49 -28 293 0
49 -28 299 0
49 -28 333 0
49 -28 356 0
49 -28 357 0
49 -29 30 0
49 -29 268 0
49 -30 268 0
49 -30 269 0
49 -30 316 0
49 -31 32 0
49 -31 234 0
49 -32 234 0
49 -32 235 0
49 -32 300 0
49 -32 380 0
49 -32 396 0
49 -33 34 0
49 -34 300 0
49 -34 396 0
49 -35 36 0
49 -35 244 0
49 -35 245 0
49 -35 266 0
49 -35 271 0
49 -35 280 0
49 -35 290 0
49 -35 291 0
49 -35 295 0
49 -36 244 0
49 -36 266 0
49 -36 267 0
49 -36 280 0
49 -36 281 0
49 -36 294 0
49 -36 374 0
49 -36 375 0
49 -37 38 0
49 -37 256 0
49 -37 282 0
49 -38 258 0
49 -38 282 0
49 -38 283 0
49 -38 374 0
49 -39 40 0
49 -39 284 0
49 -40 285 0
49 -40 350 0
49 -41 42 0
49 -41 258 0
49 -41 282 0
49 -41 283 0
49 -41 308 0
49 -41 309 0
49 -41 321 0
49 -41 374 0
49 -42 258 0
49 -42 259 0
49 -42 277 0
49 -42 282 0
49 -42 283 0
49 -42 321 0
49 -42 374 0
49 -43 44 0
49 -43 266 0
49 -43 280 0
49 -43 356 0
49 -44 266 0
49 -44 280 0
49 -44 281 0
49 -44 295 0
49 -45 46 0
49 -45 308 0
49 -45 312 0
49 -46 308 0
49 -46 309 0
49 -46 312 0
49 -46 313 0
49 -47 48 0
49 -47 253 0
49 -47 314 0
49 -47 366 0
49 -47 368 0
49 -47 369 0
49 -47 378 0
49 -47 379 0
49 -47 381 0
49 -48 252 0
49 -48 315 0
49 -48 368 0
49 -48 369 0
49 -48 380 0
49 -48 381 0
49 -49 50 0
49 -49 317 0
49 -49 355 0
49 -49 371 0
49 -49 386 0
49 -49 387 0
49 -49 389 0
49 -50 317 0
49 -50 376 0
49 -50 377 0
49 -50 386 0
49 -50 387 0
49 -51 52 0
49 -51 368 0
49 -52 314 0
49 -52 360 0
49 -52 361 0
49 -52 369 0
49 -52 380 0
49 -53 54 0
49 -53 296 0
49 -53 297 0
49 -53 326 0
49 -53 327 0
49 -53 329 0
49 -53 339 0
49 -53 358 0
49 -53 359 0
49 -54 296 0
49 -54 297 0
49 -54 326 0
49 -54 327 0
49 -54 358 0
49 -55 56 0
49 -55 330 0
49 -55 348 0
49 -56 296 0
49 -56 297 0
49 -56 330 0
49 -56 331 0
49 -56 348 0
49 -56 349 0
49 -57 58 0
49 -57 374 0
49 -58 282 0
49 -58 283 0
49 -58 292 0
49 -58 293 0
49 -58 375 0
49 -59 60 0
49 -59 334 0
49 -60 335 0
49 -61 62 0
49 -61 272 0
49 -61 273 0
49 -61 306 0
49 -61 307 0
49 -61 318 0
49 -61 319 0
49 -61 340 0
49 -61 341 0
49 -61 382 0
49 -61 383 0
49 -61 395 0
49 -62 307 0
49 -62 319 0
49 -62 341 0
49 -62 383 0
49 -62 394 0
49 -62 395 0
49 -63 64 0
49 -63 268 0
49 -63 291 0
49 -63 347 0
49 -64 268 0
49 -64 269 0
49 -64 372 0
49 -64 373 0
49 -65 66 0
49 -66 280 0
49 -66 292 0
49 -66 293 0
49 -66 295 0
49 -67 68 0
49 -69 70 0
49 -69 280 0
49 -69 294 0
49 -69 318 0
49 -69 319 0
49 -70 280 0
49 -70 281 0
49 -70 295 0
49 -70 363 0
49 -71 72 0
49 -71 274 0
49 -71 275 0
49 -71 289 0
49 -71 325 0
49 -71 352 0
49 -71 353 0
49 -71 360 0
49 -71 361 0
49 -71 365 0
49 -72 274 0
49 -72 275 0
49 -72 278 0
49 -72 279 0
49 -72 324 0
49 -72 325 0
49 -72 352 0
49 -72 353 0
49 -72 361 0
49 -73 74 0
49 -73 334 0
49 -73 352 0
49 -73 360 0
49 -74 324 0
49 -74 325 0
49 -74 352 0
49 -74 361 0
49 -75 76 0
49 -75 292 0
49 -75 293 0
49 -75 296 0
49 -75 297 0
49 -75 298 0
49 -75 299 0
49 -75 333 0
49 -75 356 0
49 -75 357 0
49 -76 292 0
49 -76 293 0
49 -76 296 0
49 -76 297 0
49 -76 299 0
49 -76 356 0
49 -76 357 0
49 -77 78 0
49 -78 376 0
49 -78 377 0
49 -78 378 0
49 -78 379 0
49 -78 384 0
49 -78 385 0
49 -79 80 0
49 -80 294 0
49 -80 295 0
49 -81 82 0
49 -82 374 0
49 -83 84 0
49 -84 350 0
49 -85 86 0
49 -85 316 0
49 -85 317 0
49 -85 323 0
49 -85 344 0
49 -85 345 0
49 -85 362 0
49 -85 363 0
49 -85 372 0
49 -85 373 0
49 -85 384 0
49 -85 385 0
49 -86 344 0
49 -86 345 0
49 -86 363 0
49 -86 372 0
49 -86 373 0
49 -86 374 0
49 -86 375 0
49 -86 384 0
49 -86 385 0
49 -87 88 0
49 -87 302 0
49 -87 303 0
49 -87 330 0
49 -87 331 0
49 -87 334 0
49 -87 335 0
49 -87 342 0
49 -87 343 0
49 -87 348 0
49 -87 349 0
49 -88 303 0
49 -88 330 0
49 -88 331 0
49 -88 343 0
49 -88 348 0
49 -88 349 0
49 -88 380 0
49 -88 381 0
49 -89 90 0
49 -89 347 0
49 -91 92 0
49 -91 356 0
49 -92 334 0
49 -92 335 0
49 -92 356 0
49 -92 357 0
49 -93 94 0
49 -95 96 0
49 -95 326 0
49 -96 326 0
49 -96 327 0
49 -96 358 0
49 -97 98 0
49 -97 333 0
49 -97 352 0
49 -97 353 0
49 -97 356 0
49 -97 357 0
49 -98 356 0
49 -98 357 0
49 -99 100 0
49 -99 326 0
49 -100 396 0
49 -101 102 0
49 -101 330 0
49 -101 331 0
49 -101 333 0
49 -101 342 0
49 -101 343 0
49 -101 348 0
49 -101 349 0
49 -102 330 0
49 -102 331 0
49 -102 343 0
49 -102 348 0
49 -102 349 0
49 -103 104 0
49 -103 350 0
49 -103 351 0
49 -103 394 0
49 -103 395 0
49 -104 350 0
49 -104 391 0
49 -105 106 0
49 -105 319 0
49 -105 341 0
49 -105 383 0
49 -105 394 0
49 -106 318 0
49 -106 394 0
49 -106 395 0
49 -107 108 0
49 -107 312 0
49 -108 312 0
49 -108 313 0
49 -109 110 0
49 -109 376 0
49 -109 377 0
49 -109 379 0
49 -109 386 0
49 -109 387 0
49 -109 392 0
49 -109 393 0
49 -110 376 0
49 -110 377 0
49 -110 378 0
49 -110 379 0
49 -111 112 0
49 -113 114 0
49 -113 368 0
49 -114 368 0
49 -114 376 0
49 -114 377 0
49 -114 380 0
49 -115 116 0
49 -115 372 0
49 -115 386 0
49 -116 387 0
49 -117 118 0
49 -117 326 0
49 -118 395 0
49 -119 120 0
49 -119 374 0
49 -119 375 0
49 -120 374 0
49 -120 375 0
49 -121 122 0
49 -121 332 0
49 -121 333 0
49 -121 344 0
49 -121 345 0
49 -121 362 0
49 -121 363 0
49 -121 372 0
49 -121 373 0
49 -121 384 0
49 -121 385 0
49 -122 344 0
49 -122 345 0
49 -122 363 0
49 -122 372 0
49 -122 373 0
49 -122 384 0
49 -122 385 0
49 -122 394 0
49 -122 395 0
49 -123 124 0
49 -123 356 0
49 -123 360 0
49 -124 352 0
49 -124 360 0
49 -124 361 0
49 -125 126 0
49 -126 358 0
49 -127 128 0
49 -127 338 0
49 -127 339 0
49 -127 358 0
49 -127 359 0
49 -127 360 0
49 -127 361 0
49 -128 339 0
49 -128 358 0
49 -128 359 0
49 -128 376 0
49 -128 377 0
49 -129 130 0
49 -130 348 0
49 -131 132 0
49 -131 356 0
49 -131 357 0
49 -132 356 0
49 -132 357 0
49 -133 134 0
49 -135 136 0
49 -136 341 0
49 -137 138 0
49 -137 355 0
49 -137 358 0
49 -137 359 0
49 -138 358 0
49 -138 359 0
49 -139 140 0
49 -139 350 0
49 -139 351 0
49 -139 382 0
49 -139 383 0
49 -139 394 0
49 -139 395 0
49 -140 383 0
49 -140 393 0
49 -140 394 0
49 -140 395 0
49 -141 142 0
49 -141 348 0
49 -141 349 0
49 -142 348 0
49 -142 349 0
49 -143 144 0
49 -143 384 0
49 -144 372 0
49 -144 376 0
49 -144 377 0
49 -144 384 0
49 -144 385 0
49 -145 146 0
49 -145 356 0
49 -145 357 0
49 -146 393 0
49 -147 148 0
49 -149 150 0
49 -149 356 0
49 -151 152 0
49 -151 356 0
49 -152 361 0
49 -152 396 0
49 -152 397 0
49 -153 154 0
49 -153 371 0
49 -153 387 0
49 -153 389 0
49 -153 399 0
49 -154 386 0
49 -154 389 0
49 -155 156 0
49 -157 158 0
49 -157 378 0
49 -159 160 0
49 -160 374 0
49 -161 162 0
49 -161 372 0
49 -161 373 0
49 -161 384 0
49 -161 385 0
49 -161 396 0
49 -161 397 0
49 -162 372 0
49 -162 373 0
49 -162 384 0
49 -162 385 0
49 -163 164 0
49 -164 396 0
49 -164 397 0
49 -165 166 0
49 -165 368 0
49 -165 369 0
49 -165 380 0
49 -165 381 0
49 -166 368 0
49 -166 369 0
49 -166 381 0
49 -167 168 0
49 -168 380 0
49 -169 170 0
49 -169 374 0
49 -169 375 0
49 -169 387 0
49 -169 388 0
49 -170 387 0
49 -170 394 0
49 -170 395 0
49 -171 172 0
49 -171 384 0
49 -172 384 0
49 -172 385 0
49 -173 174 0
49 -175 176 0
49 -176 378 0
49 -176 396 0
49 -177 178 0
49 -179 180 0
49 -181 182 0
49 -181 394 0
49 -181 395 0
49 -182 394 0
49 -182 395 0
49 -183 184 0
49 -185 186 0
49 -187 188 0
49 -189 190 0
49 -190 393 0
49 -191 192 0
49 -193 194 0
49 -195 196 0
49 -197 198 0
49 -197 400 0
49 -197 401 0
49 -198 400 0
49 -198 401 0
49 -199 200 0
49 -1 443 0
49 -2 431 0
49 -3 448 0
49 -4 437 0
49 -5 402 0
49 -6 415 0
49 -7 402 0
49 -8 415 0
49 -9 403 0
49 -10 416 0
49 -11 407 0
49 -12 420 0
49 -13 441 0
49 -14 429 0
49 -15 402 0
49 -16 415 0
49 -17 414 0
49 -18 432 0
49 -19 409 0
49 -20 422 0
49 -21 412 0
49 -22 425 0
49 -23 443 0
49 -24 431 0
49 -25 402 0
49 -26 415 0
49 -27 402 0
49 -28 415 0
49 -29 444 0
49 -30 433 0
49 -31 447 0
49 -32 436 0
49 -33 449 0
49 -34 438 0
49 -35 402 0
49 -36 415 0
49 -37 441 0
49 -38 429 0
49 -39 444 0
49 -40 433 0
49 -41 402 0
49 -42 415 0
49 -43 439 0
49 -44 427 0
49 -45 440 0
49 -46 428 0
49 -47 402 0
49 -48 415 0
49 -49 409 0
49 -50 422 0
49 -51 445 0
49 -52 434 0
49 -53 414 0
49 -54 432 0
49 -55 443 0
49 -56 431 0
49 -57 439 0
49 -58 427 0
49 -59 442 0
49 -60 430 0
49 -61 402 0
49 -62 415 0
49 -63 413 0
49 -64 426 0
49 -65 446 0
49 -66 435 0
49 -67 449 0
49 -68 438 0
49 -69 407 0
49 -70 420 0
49 -71 404 0
49 -72 417 0
49 -73 439 0
49 -74 427 0
49 -75 410 0
49 -76 423 0
49 -77 439 0
49 -78 427 0
49 -79 441 0
49 -80 429 0
49 -81 449 0
49 -82 438 0
49 -83 449 0
49 -84 438 0
49 -85 410 0
49 -86 423 0
49 -87 402 0
49 -88 415 0
49 -89 410 0
49 -90 423 0
49 -91 447 0
49 -92 436 0
49 -93 449 0
49 -94 438 0
49 -95 446 0
49 -96 435 0
49 -97 411 0
49 -98 424 0
49 -99 444 0
49 -100 433 0
49 -101 409 0
49 -102 422 0
49 -103 402 0
49 -104 415 0
49 -105 412 0
49 -106 425 0
49 -107 447 0
49 -108 436 0
49 -109 403 0
49 -110 416 0
49 -111 449 0
49 -112 438 0
49 -113 443 0
49 -114 431 0
49 -115 439 0
49 -116 427 0
49 -117 448 0
49 -118 437 0
49 -119 413 0
49 -120 426 0
49 -121 402 0
49 -122 415 0
49 -123 443 0
49 -124 431 0
49 -125 449 0
49 -126 438 0
49 -127 402 0
49 -128 415 0
49 -129 449 0
49 -130 438 0
49 -131 404 0
49 -132 417 0
49 -133 449 0
49 -134 438 0
49 -135 402 0
49 -136 415 0
49 -137 412 0
49 -138 425 0
49 -139 403 0
49 -140 416 0
49 -141 412 0
49 -142 425 0
49 -143 448 0
49 -144 437 0
49 -145 407 0
49 -146 420 0
49 -147 446 0
49 -148 435 0
49 -149 439 0
49 -150 427 0
49 -151 440 0
49 -152 428 0
49 -153 403 0
49 -154 416 0
49 -155 449 0
49 -156 438 0
49 -157 441 0
49 -158 429 0
49 -159 449 0
49 -160 438 0
49 -161 411 0
49 -162 424 0
49 -163 402 0
49 -164 415 0
49 -165 407 0
49 -166 420 0
49 -167 449 0
49 -168 438 0
49 -169 402 0
49 -170 415 0
49 -171 440 0
49 -172 428 0
49 -173 440 0
49 -174 428 0
49 -175 449 0
49 -176 438 0
49 -177 444 0
49 -178 433 0
49 -179 439 0
49 -180 427 0
49 -181 405 0
49 -182 418 0
49 -183 449 0
49 -184 438 0
49 -185 449 0
49 -186 438 0
49 -187 407 0
49 -188 420 0
49 -189 406 0
49 -190 419 0
49 -191 411 0
49 -192 424 0
49 -193 449 0
49 -194 438 0
49 -195 441 0
49 -196 429 0
49 -197 402 0
49 -198 415 0
49 -199 449 0
49 -200 438 0
