c Dataset: TUD916.2
c Encoding: POSE
c DecisionVars: 1180
c OrderVars: 1180
c CardinalityAuxVars: 0
c LabelVars: 48
c TotalVars: 2409
c OrderClauses: 3804
c CardinalityClauses: 0
c DistanceClauses: 3343
c LabelLinkClauses: 1180
c SoftClauses: 48
c HardClauses: 8327
c TotalClauses: 8375
p wcnf 2409 8375 49
1 -2362 0
1 -2363 0
1 -2364 0
1 -2365 0
1 -2366 0
1 -2367 0
1 -2368 0
1 -2369 0
1 -2370 0
1 -2371 0
1 -2372 0
1 -2373 0
1 -2374 0
1 -2375 0
1 -2376 0
1 -2377 0
1 -2378 0
1 -2379 0
1 -2380 0
1 -2381 0
1 -2382 0
1 -2383 0
1 -2384 0
1 -2385 0
1 -2386 0
1 -2387 0
1 -2388 0
1 -2389 0
1 -2390 0
1 -2391 0
1 -2392 0
1 -2393 0
1 -2394 0
1 -2395 0
1 -2396 0
1 -2397 0
1 -2398 0
1 -2399 0
1 -2400 0
1 -2401 0
1 -2402 0
1 -2403 0
1 -2404 0
1 -2405 0
1 -2406 0
1 -2407 0
1 -2408 0
1 -2409 0
49 -1 1182 0
49 -1182 1 0
49 1182 0
49 -2 1183 0
49 -1183 2 0
49 1183 0
49 -3 1184 0
49 -1184 3 0
49 1184 0
49 -4 1185 0
49 -1185 4 0
49 1185 0
49 -5 1186 0
49 -1186 5 0
49 1186 0
49 -6 1187 0
49 -1187 6 0
49 1187 0
49 -7 1188 0
49 -1188 7 0
49 1188 0
49 -8 1189 0
49 -1189 8 0
49 1189 0
49 -9 1190 0
49 -1190 9 0
49 1190 0
49 -10 1191 0
49 -1191 10 0
49 1191 0
49 -11 1192 0
49 -1192 11 0
49 1192 0
49 -12 1193 0
49 -1193 12 0
49 1193 0
49 -13 1194 0
49 -1194 13 0
49 1194 0
49 -14 1195 0
49 -1195 14 0
49 1195 0
49 -25 1206 0
49 -1206 25 0
49 -1197 1196 0
49 -1198 1197 0
49 -1199 1198 0
49 -1200 1199 0
49 -1201 1200 0
49 -1202 1201 0
49 -1203 1202 0
49 -1204 1203 0
49 -1205 1204 0
49 -1206 1205 0
49 1196 0
49 -15 1196 0
49 -15 -1197 0
49 -1196 1197 15 0
49 -16 1197 0
49 -16 -1198 0
49 -1197 1198 16 0
49 -17 1198 0
49 -17 -1199 0
49 -1198 1199 17 0
49 -18 1199 0
49 -18 -1200 0
49 -1199 1200 18 0
49 -19 1200 0
49 -19 -1201 0
49 -1200 1201 19 0
49 -20 1201 0
49 -20 -1202 0
49 -1201 1202 20 0
49 -21 1202 0
49 -21 -1203 0
49 -1202 1203 21 0
49 -22 1203 0
49 -22 -1204 0
49 -1203 1204 22 0
49 -23 1204 0
49 -23 -1205 0
49 -1204 1205 23 0
49 -24 1205 0
49 -24 -1206 0
49 -1205 1206 24 0
49 -36 1217 0
49 -1217 36 0
49 -1208 1207 0
49 -1209 1208 0
49 -1210 1209 0
49 -1211 1210 0
49 -1212 1211 0
49 -1213 1212 0
49 -1214 1213 0
49 -1215 1214 0
49 -1216 1215 0
49 -1217 1216 0
49 1207 0
49 -26 1207 0
49 -26 -1208 0
49 -1207 1208 26 0
49 -27 1208 0
49 -27 -1209 0
49 -1208 1209 27 0
49 -28 1209 0
49 -28 -1210 0
49 -1209 1210 28 0
49 -29 1210 0
49 -29 -1211 0
49 -1210 1211 29 0
49 -30 1211 0
49 -30 -1212 0
49 -1211 1212 30 0
49 -31 1212 0
49 -31 -1213 0
49 -1212 1213 31 0
49 -32 1213 0
49 -32 -1214 0
49 -1213 1214 32 0
49 -33 1214 0
49 -33 -1215 0
49 -1214 1215 33 0
49 -34 1215 0
49 -34 -1216 0
49 -1215 1216 34 0
49 -35 1216 0
49 -35 -1217 0
49 -1216 1217 35 0
49 -40 1221 0
49 -1221 40 0
49 -1219 1218 0
49 -1220 1219 0
49 -1221 1220 0
49 1218 0
49 -37 1218 0
49 -37 -1219 0
49 -1218 1219 37 0
49 -38 1219 0
49 -38 -1220 0
49 -1219 1220 38 0
49 -39 1220 0
49 -39 -1221 0
49 -1220 1221 39 0
49 -44 1225 0
49 -1225 44 0
49 -1223 1222 0
49 -1224 1223 0
49 -1225 1224 0
49 1222 0
49 -41 1222 0
49 -41 -1223 0
49 -1222 1223 41 0
49 -42 1223 0
49 -42 -1224 0
49 -1223 1224 42 0
49 -43 1224 0
49 -43 -1225 0
49 -1224 1225 43 0
49 -45 1226 0
49 -1226 45 0
49 1226 0
49 -46 1227 0
49 -1227 46 0
49 1227 0
49 -47 1228 0
49 -1228 47 0
49 1228 0
49 -48 1229 0
49 -1229 48 0
49 1229 0
49 -49 1230 0
49 -1230 49 0
49 1230 0
49 -50 1231 0
49 -1231 50 0
49 1231 0
49 -51 1232 0
49 -1232 51 0
49 1232 0
49 -52 1233 0
49 -1233 52 0
49 1233 0
49 -53 1234 0
49 -1234 53 0
49 1234 0
49 -54 1235 0
49 -1235 54 0
49 1235 0
49 -55 1236 0
49 -1236 55 0
49 1236 0
49 -56 1237 0
49 -1237 56 0
49 1237 0
49 -57 1238 0
49 -1238 57 0
49 1238 0
49 -58 1239 0
49 -1239 58 0
49 1239 0
49 -70 1251 0
49 -1251 70 0
49 -1241 1240 0
49 -1242 1241 0
49 -1243 1242 0
49 -1244 1243 0
49 -1245 1244 0
49 -1246 1245 0
49 -1247 1246 0
49 -1248 1247 0
49 -1249 1248 0
49 -1250 1249 0
49 -1251 1250 0
49 1240 0
49 -59 1240 0
49 -59 -1241 0
49 -1240 1241 59 0
49 -60 1241 0
49 -60 -1242 0
49 -1241 1242 60 0
49 -61 1242 0
49 -61 -1243 0
49 -1242 1243 61 0
49 -62 1243 0
49 -62 -1244 0
49 -1243 1244 62 0
49 -63 1244 0
49 -63 -1245 0
49 -1244 1245 63 0
49 -64 1245 0
49 -64 -1246 0
49 -1245 1246 64 0
49 -65 1246 0
49 -65 -1247 0
49 -1246 1247 65 0
49 -66 1247 0
49 -66 -1248 0
49 -1247 1248 66 0
49 -67 1248 0
49 -67 -1249 0
49 -1248 1249 67 0
49 -68 1249 0
49 -68 -1250 0
49 -1249 1250 68 0
49 -69 1250 0
49 -69 -1251 0
49 -1250 1251 69 0
49 -82 1263 0
49 -1263 82 0
49 -1253 1252 0
49 -1254 1253 0
49 -1255 1254 0
49 -1256 1255 0
49 -1257 1256 0
49 -1258 1257 0
49 -1259 1258 0
49 -1260 1259 0
49 -1261 1260 0
49 -1262 1261 0
49 -1263 1262 0
49 1252 0
49 -71 1252 0
49 -71 -1253 0
49 -1252 1253 71 0
49 -72 1253 0
49 -72 -1254 0
49 -1253 1254 72 0
49 -73 1254 0
49 -73 -1255 0
49 -1254 1255 73 0
49 -74 1255 0
49 -74 -1256 0
49 -1255 1256 74 0
49 -75 1256 0
49 -75 -1257 0
49 -1256 1257 75 0
49 -76 1257 0
49 -76 -1258 0
49 -1257 1258 76 0
49 -77 1258 0
49 -77 -1259 0
49 -1258 1259 77 0
49 -78 1259 0
49 -78 -1260 0
49 -1259 1260 78 0
49 -79 1260 0
49 -79 -1261 0
49 -1260 1261 79 0
49 -80 1261 0
49 -80 -1262 0
49 -1261 1262 80 0
49 -81 1262 0
49 -81 -1263 0
49 -1262 1263 81 0
49 -83 1264 0
49 -1264 83 0
49 1264 0
49 -84 1265 0
49 -1265 84 0
49 1265 0
49 -85 1266 0
49 -1266 85 0
49 1266 0
49 -86 1267 0
49 -1267 86 0
49 1267 0
49 -87 1268 0
49 -1268 87 0
49 1268 0
49 -88 1269 0
49 -1269 88 0
49 1269 0
49 -89 1270 0
49 -1270 89 0
49 1270 0
49 -90 1271 0
49 -1271 90 0
49 1271 0
49 -91 1272 0
49 -1272 91 0
49 1272 0
49 -92 1273 0
49 -1273 92 0
49 1273 0
49 -93 1274 0
49 -1274 93 0
49 1274 0
49 -94 1275 0
49 -1275 94 0
49 1275 0
49 -95 1276 0
49 -1276 95 0
49 1276 0
49 -96 1277 0
49 -1277 96 0
49 1277 0
49 -97 1278 0
49 -1278 97 0
49 1278 0
49 -98 1279 0
49 -1279 98 0
49 1279 0
49 -99 1280 0
49 -1280 99 0
49 1280 0
49 -100 1281 0
49 -1281 100 0
49 1281 0
49 -101 1282 0
49 -1282 101 0
49 1282 0
49 -102 1283 0
49 -1283 102 0
49 1283 0
49 -103 1284 0
49 -1284 103 0
49 1284 0
49 -104 1285 0
49 -1285 104 0
49 1285 0
49 -105 1286 0
49 -1286 105 0
49 1286 0
49 -106 1287 0
49 -1287 106 0
49 1287 0
49 -107 1288 0
49 -1288 107 0
49 1288 0
49 -108 1289 0
49 -1289 108 0
49 1289 0
49 -109 1290 0
49 -1290 109 0
49 1290 0
49 -110 1291 0
49 -1291 110 0
49 1291 0
49 -111 1292 0
49 -1292 111 0
49 1292 0
49 -112 1293 0
49 -1293 112 0
49 1293 0
49 -113 1294 0
49 -1294 113 0
49 1294 0
49 -114 1295 0
49 -1295 114 0
49 1295 0
49 -115 1296 0
49 -1296 115 0
49 1296 0
49 -116 1297 0
49 -1297 116 0
49 1297 0
49 -117 1298 0
49 -1298 117 0
49 1298 0
49 -118 1299 0
49 -1299 118 0
49 1299 0
49 -119 1300 0
49 -1300 119 0
49 1300 0
49 -120 1301 0
49 -1301 120 0
49 1301 0
49 -125 1306 0
49 -1306 125 0
49 -1303 1302 0
49 -1304 1303 0
49 -1305 1304 0
49 -1306 1305 0
49 1302 0
49 -121 1302 0
49 -121 -1303 0
49 -1302 1303 121 0
49 -122 1303 0
49 -122 -1304 0
49 -1303 1304 122 0
49 -123 1304 0
49 -123 -1305 0
49 -1304 1305 123 0
49 -124 1305 0
49 -124 -1306 0
49 -1305 1306 124 0
49 -130 1311 0
49 -1311 130 0
49 -1308 1307 0
49 -1309 1308 0
49 -1310 1309 0
49 -1311 1310 0
49 1307 0
49 -126 1307 0
49 -126 -1308 0
49 -1307 1308 126 0
49 -127 1308 0
49 -127 -1309 0
49 -1308 1309 127 0
49 -128 1309 0
49 -128 -1310 0
49 -1309 1310 128 0
49 -129 1310 0
49 -129 -1311 0
49 -1310 1311 129 0
49 -131 1312 0
49 -1312 131 0
49 1312 0
49 -132 1313 0
49 -1313 132 0
49 1313 0
49 -133 1314 0
49 -1314 133 0
49 1314 0
49 -134 1315 0
49 -1315 134 0
49 1315 0
49 -138 1319 0
49 -1319 138 0
49 -1317 1316 0
49 -1318 1317 0
49 -1319 1318 0
49 1316 0
49 -135 1316 0
49 -135 -1317 0
49 -1316 1317 135 0
49 -136 1317 0
49 -136 -1318 0
49 -1317 1318 136 0
49 -137 1318 0
49 -137 -1319 0
49 -1318 1319 137 0
49 -142 1323 0
49 -1323 142 0
49 -1321 1320 0
49 -1322 1321 0
49 -1323 1322 0
49 1320 0
49 -139 1320 0
49 -139 -1321 0
49 -1320 1321 139 0
49 -140 1321 0
49 -140 -1322 0
49 -1321 1322 140 0
49 -141 1322 0
49 -141 -1323 0
49 -1322 1323 141 0
49 -143 1324 0
49 -1324 143 0
49 1324 0
49 -144 1325 0
49 -1325 144 0
49 1325 0
49 -145 1326 0
49 -1326 145 0
49 1326 0
49 -146 1327 0
49 -1327 146 0
49 1327 0
49 -147 1328 0
49 -1328 147 0
49 1328 0
49 -148 1329 0
49 -1329 148 0
49 1329 0
49 -149 1330 0
49 -1330 149 0
49 1330 0
49 -150 1331 0
49 -1331 150 0
49 1331 0
49 -151 1332 0
49 -1332 151 0
49 1332 0
49 -152 1333 0
49 -1333 152 0
49 1333 0
49 -155 1336 0
49 -1336 155 0
49 -1335 1334 0
49 -1336 1335 0
49 1334 0
49 -153 1334 0
49 -153 -1335 0
49 -1334 1335 153 0
49 -154 1335 0
49 -154 -1336 0
49 -1335 1336 154 0
49 -158 1339 0
49 -1339 158 0
49 -1338 1337 0
49 -1339 1338 0
49 1337 0
49 -156 1337 0
49 -156 -1338 0
49 -1337 1338 156 0
49 -157 1338 0
49 -157 -1339 0
49 -1338 1339 157 0
49 -159 1340 0
49 -1340 159 0
49 1340 0
49 -160 1341 0
49 -1341 160 0
49 1341 0
49 -167 1348 0
49 -1348 167 0
49 -1343 1342 0
49 -1344 1343 0
49 -1345 1344 0
49 -1346 1345 0
49 -1347 1346 0
49 -1348 1347 0
49 1342 0
49 -161 1342 0
49 -161 -1343 0
49 -1342 1343 161 0
49 -162 1343 0
49 -162 -1344 0
49 -1343 1344 162 0
49 -163 1344 0
49 -163 -1345 0
49 -1344 1345 163 0
49 -164 1345 0
49 -164 -1346 0
49 -1345 1346 164 0
49 -165 1346 0
49 -165 -1347 0
49 -1346 1347 165 0
49 -166 1347 0
49 -166 -1348 0
49 -1347 1348 166 0
49 -174 1355 0
49 -1355 174 0
49 -1350 1349 0
49 -1351 1350 0
49 -1352 1351 0
49 -1353 1352 0
49 -1354 1353 0
49 -1355 1354 0
49 1349 0
49 -168 1349 0
49 -168 -1350 0
49 -1349 1350 168 0
49 -169 1350 0
49 -169 -1351 0
49 -1350 1351 169 0
49 -170 1351 0
49 -170 -1352 0
49 -1351 1352 170 0
49 -171 1352 0
49 -171 -1353 0
49 -1352 1353 171 0
49 -172 1353 0
49 -172 -1354 0
49 -1353 1354 172 0
49 -173 1354 0
49 -173 -1355 0
49 -1354 1355 173 0
49 -175 1356 0
49 -1356 175 0
49 1356 0
49 -176 1357 0
49 -1357 176 0
49 1357 0
49 -177 1358 0
49 -1358 177 0
49 1358 0
49 -178 1359 0
49 -1359 178 0
49 1359 0
49 -179 1360 0
49 -1360 179 0
49 1360 0
49 -180 1361 0
49 -1361 180 0
49 1361 0
49 -181 1362 0
49 -1362 181 0
49 1362 0
49 -182 1363 0
49 -1363 182 0
49 1363 0
49 -183 1364 0
49 -1364 183 0
49 1364 0
49 -184 1365 0
49 -1365 184 0
49 1365 0
49 -185 1366 0
49 -1366 185 0
49 1366 0
49 -186 1367 0
49 -1367 186 0
49 1367 0
49 -187 1368 0
49 -1368 187 0
49 1368 0
49 -188 1369 0
49 -1369 188 0
49 1369 0
49 -189 1370 0
49 -1370 189 0
49 1370 0
49 -190 1371 0
49 -1371 190 0
49 1371 0
49 -191 1372 0
49 -1372 191 0
49 1372 0
49 -192 1373 0
49 -1373 192 0
49 1373 0
49 -193 1374 0
49 -1374 193 0
49 1374 0
49 -194 1375 0
49 -1375 194 0
49 1375 0
49 -195 1376 0
49 -1376 195 0
49 1376 0
49 -196 1377 0
49 -1377 196 0
49 1377 0
49 -197 1378 0
49 -1378 197 0
49 1378 0
49 -198 1379 0
49 -1379 198 0
49 1379 0
49 -199 1380 0
49 -1380 199 0
49 1380 0
49 -200 1381 0
49 -1381 200 0
49 1381 0
49 -201 1382 0
49 -1382 201 0
49 1382 0
49 -202 1383 0
49 -1383 202 0
49 1383 0
49 -203 1384 0
49 -1384 203 0
49 1384 0
49 -204 1385 0
49 -1385 204 0
49 1385 0
49 -205 1386 0
49 -1386 205 0
49 1386 0
49 -206 1387 0
49 -1387 206 0
49 1387 0
49 -208 1389 0
49 -1389 208 0
49 -1389 1388 0
49 1388 0
49 -207 1388 0
49 -207 -1389 0
49 -1388 1389 207 0
49 -210 1391 0
49 -1391 210 0
49 -1391 1390 0
49 1390 0
49 -209 1390 0
49 -209 -1391 0
49 -1390 1391 209 0
49 -211 1392 0
49 -1392 211 0
49 1392 0
49 -212 1393 0
49 -1393 212 0
49 1393 0
49 -213 1394 0
49 -1394 213 0
49 1394 0
49 -214 1395 0
49 -1395 214 0
49 1395 0
49 -215 1396 0
49 -1396 215 0
49 1396 0
49 -216 1397 0
49 -1397 216 0
49 1397 0
49 -221 1402 0
49 -1402 221 0
49 -1399 1398 0
49 -1400 1399 0
49 -1401 1400 0
49 -1402 1401 0
49 1398 0
49 -217 1398 0
49 -217 -1399 0
49 -1398 1399 217 0
49 -218 1399 0
49 -218 -1400 0
49 -1399 1400 218 0
49 -219 1400 0
49 -219 -1401 0
49 -1400 1401 219 0
49 -220 1401 0
49 -220 -1402 0
49 -1401 1402 220 0
49 -226 1407 0
49 -1407 226 0
49 -1404 1403 0
49 -1405 1404 0
49 -1406 1405 0
49 -1407 1406 0
49 1403 0
49 -222 1403 0
49 -222 -1404 0
49 -1403 1404 222 0
49 -223 1404 0
49 -223 -1405 0
49 -1404 1405 223 0
49 -224 1405 0
49 -224 -1406 0
49 -1405 1406 224 0
49 -225 1406 0
49 -225 -1407 0
49 -1406 1407 225 0
49 -227 1408 0
49 -1408 227 0
49 1408 0
49 -228 1409 0
49 -1409 228 0
49 1409 0
49 -229 1410 0
49 -1410 229 0
49 1410 0
49 -230 1411 0
49 -1411 230 0
49 1411 0
49 -231 1412 0
49 -1412 231 0
49 1412 0
49 -232 1413 0
49 -1413 232 0
49 1413 0
49 -233 1414 0
49 -1414 233 0
49 1414 0
49 -234 1415 0
49 -1415 234 0
49 1415 0
49 -235 1416 0
49 -1416 235 0
49 1416 0
49 -236 1417 0
49 -1417 236 0
49 1417 0
49 -237 1418 0
49 -1418 237 0
49 1418 0
49 -238 1419 0
49 -1419 238 0
49 1419 0
49 -239 1420 0
49 -1420 239 0
49 1420 0
49 -240 1421 0
49 -1421 240 0
49 1421 0
49 -241 1422 0
49 -1422 241 0
49 1422 0
49 -242 1423 0
49 -1423 242 0
49 1423 0
49 -243 1424 0
49 -1424 243 0
49 1424 0
49 -244 1425 0
49 -1425 244 0
49 1425 0
49 -245 1426 0
49 -1426 245 0
49 1426 0
49 -246 1427 0
49 -1427 246 0
49 1427 0
49 -247 1428 0
49 -1428 247 0
49 1428 0
49 -248 1429 0
49 -1429 248 0
49 1429 0
49 -249 1430 0
49 -1430 249 0
49 1430 0
49 -250 1431 0
49 -1431 250 0
49 1431 0
49 -251 1432 0
49 -1432 251 0
49 1432 0
49 -252 1433 0
49 -1433 252 0
49 1433 0
49 -259 1440 0
49 -1440 259 0
49 -1435 1434 0
49 -1436 1435 0
49 -1437 1436 0
49 -1438 1437 0
49 -1439 1438 0
49 -1440 1439 0
49 1434 0
49 -253 1434 0
49 -253 -1435 0
49 -1434 1435 253 0
49 -254 1435 0
49 -254 -1436 0
49 -1435 1436 254 0
49 -255 1436 0
49 -255 -1437 0
49 -1436 1437 255 0
49 -256 1437 0
49 -256 -1438 0
49 -1437 1438 256 0
49 -257 1438 0
49 -257 -1439 0
49 -1438 1439 257 0
49 -258 1439 0
49 -258 -1440 0
49 -1439 1440 258 0
49 -266 1447 0
49 -1447 266 0
49 -1442 1441 0
49 -1443 1442 0
49 -1444 1443 0
49 -1445 1444 0
49 -1446 1445 0
49 -1447 1446 0
49 1441 0
49 -260 1441 0
49 -260 -1442 0
49 -1441 1442 260 0
49 -261 1442 0
49 -261 -1443 0
49 -1442 1443 261 0
49 -262 1443 0
49 -262 -1444 0
49 -1443 1444 262 0
49 -263 1444 0
49 -263 -1445 0
49 -1444 1445 263 0
49 -264 1445 0
49 -264 -1446 0
49 -1445 1446 264 0
49 -265 1446 0
49 -265 -1447 0
49 -1446 1447 265 0
49 -267 1448 0
49 -1448 267 0
49 1448 0
49 -268 1449 0
49 -1449 268 0
49 1449 0
49 -269 1450 0
49 -1450 269 0
49 1450 0
49 -270 1451 0
49 -1451 270 0
49 1451 0
49 -271 1452 0
49 -1452 271 0
49 1452 0
49 -272 1453 0
49 -1453 272 0
49 1453 0
49 -273 1454 0
49 -1454 273 0
49 1454 0
49 -274 1455 0
49 -1455 274 0
49 1455 0
49 -275 1456 0
49 -1456 275 0
49 1456 0
49 -276 1457 0
49 -1457 276 0
49 1457 0
49 -277 1458 0
49 -1458 277 0
49 1458 0
49 -278 1459 0
49 -1459 278 0
49 1459 0
49 -279 1460 0
49 -1460 279 0
49 1460 0
49 -280 1461 0
49 -1461 280 0
49 1461 0
49 -281 1462 0
49 -1462 281 0
49 1462 0
49 -282 1463 0
49 -1463 282 0
49 1463 0
49 -283 1464 0
49 -1464 283 0
49 1464 0
49 -284 1465 0
49 -1465 284 0
49 1465 0
49 -285 1466 0
49 -1466 285 0
49 1466 0
49 -286 1467 0
49 -1467 286 0
49 1467 0
49 -287 1468 0
49 -1468 287 0
49 1468 0
49 -288 1469 0
49 -1469 288 0
49 1469 0
49 -289 1470 0
49 -1470 289 0
49 1470 0
49 -290 1471 0
49 -1471 290 0
49 1471 0
49 -291 1472 0
49 -1472 291 0
49 1472 0
49 -292 1473 0
49 -1473 292 0
49 1473 0
49 -294 1475 0
49 -1475 294 0
49 -1475 1474 0
49 1474 0
49 -293 1474 0
49 -293 -1475 0
49 -1474 1475 293 0
49 -296 1477 0
49 -1477 296 0
49 -1477 1476 0
49 1476 0
49 -295 1476 0
49 -295 -1477 0
49 -1476 1477 295 0
49 -297 1478 0
49 -1478 297 0
49 1478 0
49 -298 1479 0
49 -1479 298 0
49 1479 0
49 -299 1480 0
49 -1480 299 0
49 1480 0
49 -300 1481 0
49 -1481 300 0
49 1481 0
49 -301 1482 0
49 -1482 301 0
49 1482 0
49 -302 1483 0
49 -1483 302 0
49 1483 0
49 -303 1484 0
49 -1484 303 0
49 1484 0
49 -304 1485 0
49 -1485 304 0
49 1485 0
49 -305 1486 0
49 -1486 305 0
49 1486 0
49 -306 1487 0
49 -1487 306 0
49 1487 0
49 -307 1488 0
49 -1488 307 0
49 1488 0
49 -308 1489 0
49 -1489 308 0
49 1489 0
49 -309 1490 0
49 -1490 309 0
49 1490 0
49 -310 1491 0
49 -1491 310 0
49 1491 0
49 -311 1492 0
49 -1492 311 0
49 1492 0
49 -312 1493 0
49 -1493 312 0
49 1493 0
49 -313 1494 0
49 -1494 313 0
49 1494 0
49 -314 1495 0
49 -1495 314 0
49 1495 0
49 -315 1496 0
49 -1496 315 0
49 1496 0
49 -316 1497 0
49 -1497 316 0
49 1497 0
49 -317 1498 0
49 -1498 317 0
49 1498 0
49 -318 1499 0
49 -1499 318 0
49 1499 0
49 -319 1500 0
49 -1500 319 0
49 1500 0
49 -320 1501 0
49 -1501 320 0
49 1501 0
49 -321 1502 0
49 -1502 321 0
49 1502 0
49 -322 1503 0
49 -1503 322 0
49 1503 0
49 -323 1504 0
49 -1504 323 0
49 1504 0
49 -324 1505 0
49 -1505 324 0
49 1505 0
49 -326 1507 0
49 -1507 326 0
49 -1507 1506 0
49 1506 0
49 -325 1506 0
49 -325 -1507 0
49 -1506 1507 325 0
49 -328 1509 0
49 -1509 328 0
49 -1509 1508 0
49 1508 0
49 -327 1508 0
49 -327 -1509 0
49 -1508 1509 327 0
49 -329 1510 0
49 -1510 329 0
49 1510 0
49 -330 1511 0
49 -1511 330 0
49 1511 0
49 -331 1512 0
49 -1512 331 0
49 1512 0
49 -332 1513 0
49 -1513 332 0
49 1513 0
49 -333 1514 0
49 -1514 333 0
49 1514 0
49 -334 1515 0
49 -1515 334 0
49 1515 0
49 -335 1516 0
49 -1516 335 0
49 1516 0
49 -336 1517 0
49 -1517 336 0
49 1517 0
49 -337 1518 0
49 -1518 337 0
49 1518 0
49 -338 1519 0
49 -1519 338 0
49 1519 0
49 -339 1520 0
49 -1520 339 0
49 1520 0
49 -340 1521 0
49 -1521 340 0
49 1521 0
49 -341 1522 0
49 -1522 341 0
49 1522 0
49 -342 1523 0
49 -1523 342 0
49 1523 0
49 -343 1524 0
49 -1524 343 0
49 1524 0
49 -344 1525 0
49 -1525 344 0
49 1525 0
49 -345 1526 0
49 -1526 345 0
49 1526 0
49 -346 1527 0
49 -1527 346 0
49 1527 0
49 -357 1538 0
49 -1538 357 0
49 -1529 1528 0
49 -1530 1529 0
49 -1531 1530 0
49 -1532 1531 0
49 -1533 1532 0
49 -1534 1533 0
49 -1535 1534 0
49 -1536 1535 0
49 -1537 1536 0
49 -1538 1537 0
49 1528 0
49 -347 1528 0
49 -347 -1529 0
49 -1528 1529 347 0
49 -348 1529 0
49 -348 -1530 0
49 -1529 1530 348 0
49 -349 1530 0
49 -349 -1531 0
49 -1530 1531 349 0
49 -350 1531 0
49 -350 -1532 0
49 -1531 1532 350 0
49 -351 1532 0
49 -351 -1533 0
49 -1532 1533 351 0
49 -352 1533 0
49 -352 -1534 0
49 -1533 1534 352 0
49 -353 1534 0
49 -353 -1535 0
49 -1534 1535 353 0
49 -354 1535 0
49 -354 -1536 0
49 -1535 1536 354 0
49 -355 1536 0
49 -355 -1537 0
49 -1536 1537 355 0
49 -356 1537 0
49 -356 -1538 0
49 -1537 1538 356 0
49 -368 1549 0
49 -1549 368 0
49 -1540 1539 0
49 -1541 1540 0
49 -1542 1541 0
49 -1543 1542 0
49 -1544 1543 0
49 -1545 1544 0
49 -1546 1545 0
49 -1547 1546 0
49 -1548 1547 0
49 -1549 1548 0
49 1539 0
49 -358 1539 0
49 -358 -1540 0
49 -1539 1540 358 0
49 -359 1540 0
49 -359 -1541 0
49 -1540 1541 359 0
49 -360 1541 0
49 -360 -1542 0
49 -1541 1542 360 0
49 -361 1542 0
49 -361 -1543 0
49 -1542 1543 361 0
49 -362 1543 0
49 -362 -1544 0
49 -1543 1544 362 0
49 -363 1544 0
49 -363 -1545 0
49 -1544 1545 363 0
49 -364 1545 0
49 -364 -1546 0
49 -1545 1546 364 0
49 -365 1546 0
49 -365 -1547 0
49 -1546 1547 365 0
49 -366 1547 0
49 -366 -1548 0
49 -1547 1548 366 0
49 -367 1548 0
49 -367 -1549 0
49 -1548 1549 367 0
49 -369 1550 0
49 -1550 369 0
49 1550 0
49 -370 1551 0
49 -1551 370 0
49 1551 0
49 -371 1552 0
49 -1552 371 0
49 1552 0
49 -372 1553 0
49 -1553 372 0
49 1553 0
49 -373 1554 0
49 -1554 373 0
49 1554 0
49 -374 1555 0
49 -1555 374 0
49 1555 0
49 -375 1556 0
49 -1556 375 0
49 1556 0
49 -376 1557 0
49 -1557 376 0
49 1557 0
49 -384 1565 0
49 -1565 384 0
49 -1559 1558 0
49 -1560 1559 0
49 -1561 1560 0
49 -1562 1561 0
49 -1563 1562 0
49 -1564 1563 0
49 -1565 1564 0
49 1558 0
49 -377 1558 0
49 -377 -1559 0
49 -1558 1559 377 0
49 -378 1559 0
49 -378 -1560 0
49 -1559 1560 378 0
49 -379 1560 0
49 -379 -1561 0
49 -1560 1561 379 0
49 -380 1561 0
49 -380 -1562 0
49 -1561 1562 380 0
49 -381 1562 0
49 -381 -1563 0
49 -1562 1563 381 0
49 -382 1563 0
49 -382 -1564 0
49 -1563 1564 382 0
49 -383 1564 0
49 -383 -1565 0
49 -1564 1565 383 0
49 -392 1573 0
49 -1573 392 0
49 -1567 1566 0
49 -1568 1567 0
49 -1569 1568 0
49 -1570 1569 0
49 -1571 1570 0
49 -1572 1571 0
49 -1573 1572 0
49 1566 0
49 -385 1566 0
49 -385 -1567 0
49 -1566 1567 385 0
49 -386 1567 0
49 -386 -1568 0
49 -1567 1568 386 0
49 -387 1568 0
49 -387 -1569 0
49 -1568 1569 387 0
49 -388 1569 0
49 -388 -1570 0
49 -1569 1570 388 0
49 -389 1570 0
49 -389 -1571 0
49 -1570 1571 389 0
49 -390 1571 0
49 -390 -1572 0
49 -1571 1572 390 0
49 -391 1572 0
49 -391 -1573 0
49 -1572 1573 391 0
49 -393 1574 0
49 -1574 393 0
49 1574 0
49 -394 1575 0
49 -1575 394 0
49 1575 0
49 -395 1576 0
49 -1576 395 0
49 1576 0
49 -396 1577 0
49 -1577 396 0
49 1577 0
49 -399 1580 0
49 -1580 399 0
49 -1579 1578 0
49 -1580 1579 0
49 1578 0
49 -397 1578 0
49 -397 -1579 0
49 -1578 1579 397 0
49 -398 1579 0
49 -398 -1580 0
49 -1579 1580 398 0
49 -402 1583 0
49 -1583 402 0
49 -1582 1581 0
49 -1583 1582 0
49 1581 0
49 -400 1581 0
49 -400 -1582 0
49 -1581 1582 400 0
49 -401 1582 0
49 -401 -1583 0
49 -1582 1583 401 0
49 -403 1584 0
49 -1584 403 0
49 1584 0
49 -404 1585 0
49 -1585 404 0
49 1585 0
49 -405 1586 0
49 -1586 405 0
49 1586 0
49 -406 1587 0
49 -1587 406 0
49 1587 0
49 -407 1588 0
49 -1588 407 0
49 1588 0
49 -408 1589 0
49 -1589 408 0
49 1589 0
49 -409 1590 0
49 -1590 409 0
49 1590 0
49 -410 1591 0
49 -1591 410 0
49 1591 0
49 -411 1592 0
49 -1592 411 0
49 1592 0
49 -412 1593 0
49 -1593 412 0
49 1593 0
49 -413 1594 0
49 -1594 413 0
49 1594 0
49 -414 1595 0
49 -1595 414 0
49 1595 0
49 -415 1596 0
49 -1596 415 0
49 1596 0
49 -416 1597 0
49 -1597 416 0
49 1597 0
49 -420 1601 0
49 -1601 420 0
49 -1599 1598 0
49 -1600 1599 0
49 -1601 1600 0
49 1598 0
49 -417 1598 0
49 -417 -1599 0
49 -1598 1599 417 0
49 -418 1599 0
49 -418 -1600 0
49 -1599 1600 418 0
49 -419 1600 0
49 -419 -1601 0
49 -1600 1601 419 0
49 -424 1605 0
49 -1605 424 0
49 -1603 1602 0
49 -1604 1603 0
49 -1605 1604 0
49 1602 0
49 -421 1602 0
49 -421 -1603 0
49 -1602 1603 421 0
49 -422 1603 0
49 -422 -1604 0
49 -1603 1604 422 0
49 -423 1604 0
49 -423 -1605 0
49 -1604 1605 423 0
49 -425 1606 0
49 -1606 425 0
49 1606 0
49 -426 1607 0
49 -1607 426 0
49 1607 0
49 -427 1608 0
49 -1608 427 0
49 1608 0
49 -428 1609 0
49 -1609 428 0
49 1609 0
49 -435 1616 0
49 -1616 435 0
49 -1611 1610 0
49 -1612 1611 0
49 -1613 1612 0
49 -1614 1613 0
49 -1615 1614 0
49 -1616 1615 0
49 1610 0
49 -429 1610 0
49 -429 -1611 0
49 -1610 1611 429 0
49 -430 1611 0
49 -430 -1612 0
49 -1611 1612 430 0
49 -431 1612 0
49 -431 -1613 0
49 -1612 1613 431 0
49 -432 1613 0
49 -432 -1614 0
49 -1613 1614 432 0
49 -433 1614 0
49 -433 -1615 0
49 -1614 1615 433 0
49 -434 1615 0
49 -434 -1616 0
49 -1615 1616 434 0
49 -442 1623 0
49 -1623 442 0
49 -1618 1617 0
49 -1619 1618 0
49 -1620 1619 0
49 -1621 1620 0
49 -1622 1621 0
49 -1623 1622 0
49 1617 0
49 -436 1617 0
49 -436 -1618 0
49 -1617 1618 436 0
49 -437 1618 0
49 -437 -1619 0
49 -1618 1619 437 0
49 -438 1619 0
49 -438 -1620 0
49 -1619 1620 438 0
49 -439 1620 0
49 -439 -1621 0
49 -1620 1621 439 0
49 -440 1621 0
49 -440 -1622 0
49 -1621 1622 440 0
49 -441 1622 0
49 -441 -1623 0
49 -1622 1623 441 0
49 -443 1624 0
49 -1624 443 0
49 1624 0
49 -444 1625 0
49 -1625 444 0
49 1625 0
49 -445 1626 0
49 -1626 445 0
49 1626 0
49 -446 1627 0
49 -1627 446 0
49 1627 0
49 -449 1630 0
49 -1630 449 0
49 -1629 1628 0
49 -1630 1629 0
49 1628 0
49 -447 1628 0
49 -447 -1629 0
49 -1628 1629 447 0
49 -448 1629 0
49 -448 -1630 0
49 -1629 1630 448 0
49 -452 1633 0
49 -1633 452 0
49 -1632 1631 0
49 -1633 1632 0
49 1631 0
49 -450 1631 0
49 -450 -1632 0
49 -1631 1632 450 0
49 -451 1632 0
49 -451 -1633 0
49 -1632 1633 451 0
49 -454 1635 0
49 -1635 454 0
49 -1635 1634 0
49 1634 0
49 -453 1634 0
49 -453 -1635 0
49 -1634 1635 453 0
49 -456 1637 0
49 -1637 456 0
49 -1637 1636 0
49 1636 0
49 -455 1636 0
49 -455 -1637 0
49 -1636 1637 455 0
49 -457 1638 0
49 -1638 457 0
49 1638 0
49 -458 1639 0
49 -1639 458 0
49 1639 0
49 -459 1640 0
49 -1640 459 0
49 1640 0
49 -460 1641 0
49 -1641 460 0
49 1641 0
49 -461 1642 0
49 -1642 461 0
49 1642 0
49 -462 1643 0
49 -1643 462 0
49 1643 0
49 -463 1644 0
49 -1644 463 0
49 1644 0
49 -464 1645 0
49 -1645 464 0
49 1645 0
49 -465 1646 0
49 -1646 465 0
49 1646 0
49 -466 1647 0
49 -1647 466 0
49 1647 0
49 -467 1648 0
49 -1648 467 0
49 1648 0
49 -468 1649 0
49 -1649 468 0
49 1649 0
49 -469 1650 0
49 -1650 469 0
49 1650 0
49 -470 1651 0
49 -1651 470 0
49 1651 0
49 -471 1652 0
49 -1652 471 0
49 1652 0
49 -472 1653 0
49 -1653 472 0
49 1653 0
49 -473 1654 0
49 -1654 473 0
49 1654 0
49 -474 1655 0
49 -1655 474 0
49 1655 0
49 -475 1656 0
49 -1656 475 0
49 1656 0
49 -476 1657 0
49 -1657 476 0
49 1657 0
49 -478 1659 0
49 -1659 478 0
49 -1659 1658 0
49 1658 0
49 -477 1658 0
49 -477 -1659 0
49 -1658 1659 477 0
49 -480 1661 0
49 -1661 480 0
49 -1661 1660 0
49 1660 0
49 -479 1660 0
49 -479 -1661 0
49 -1660 1661 479 0
49 -481 1662 0
49 -1662 481 0
49 1662 0
49 -482 1663 0
49 -1663 482 0
49 1663 0
49 -483 1664 0
49 -1664 483 0
49 1664 0
49 -484 1665 0
49 -1665 484 0
49 1665 0
49 -485 1666 0
49 -1666 485 0
49 1666 0
49 -486 1667 0
49 -1667 486 0
49 1667 0
49 -487 1668 0
49 -1668 487 0
49 1668 0
49 -488 1669 0
49 -1669 488 0
49 1669 0
49 -489 1670 0
49 -1670 489 0
49 1670 0
49 -490 1671 0
49 -1671 490 0
49 1671 0
49 -491 1672 0
49 -1672 491 0
49 1672 0
49 -492 1673 0
49 -1673 492 0
49 1673 0
49 -493 1674 0
49 -1674 493 0
49 1674 0
49 -494 1675 0
49 -1675 494 0
49 1675 0
49 -500 1681 0
49 -1681 500 0
49 -1677 1676 0
49 -1678 1677 0
49 -1679 1678 0
49 -1680 1679 0
49 -1681 1680 0
49 1676 0
49 -495 1676 0
49 -495 -1677 0
49 -1676 1677 495 0
49 -496 1677 0
49 -496 -1678 0
49 -1677 1678 496 0
49 -497 1678 0
49 -497 -1679 0
49 -1678 1679 497 0
49 -498 1679 0
49 -498 -1680 0
49 -1679 1680 498 0
49 -499 1680 0
49 -499 -1681 0
49 -1680 1681 499 0
49 -506 1687 0
49 -1687 506 0
49 -1683 1682 0
49 -1684 1683 0
49 -1685 1684 0
49 -1686 1685 0
49 -1687 1686 0
49 1682 0
49 -501 1682 0
49 -501 -1683 0
49 -1682 1683 501 0
49 -502 1683 0
49 -502 -1684 0
49 -1683 1684 502 0
49 -503 1684 0
49 -503 -1685 0
49 -1684 1685 503 0
49 -504 1685 0
49 -504 -1686 0
49 -1685 1686 504 0
49 -505 1686 0
49 -505 -1687 0
49 -1686 1687 505 0
49 -507 1688 0
49 -1688 507 0
49 1688 0
49 -508 1689 0
49 -1689 508 0
49 1689 0
49 -509 1690 0
49 -1690 509 0
49 1690 0
49 -510 1691 0
49 -1691 510 0
49 1691 0
49 -511 1692 0
49 -1692 511 0
49 1692 0
49 -512 1693 0
49 -1693 512 0
49 1693 0
49 -513 1694 0
49 -1694 513 0
49 1694 0
49 -514 1695 0
49 -1695 514 0
49 1695 0
49 -515 1696 0
49 -1696 515 0
49 1696 0
49 -516 1697 0
49 -1697 516 0
49 1697 0
49 -517 1698 0
49 -1698 517 0
49 1698 0
49 -518 1699 0
49 -1699 518 0
49 1699 0
49 -519 1700 0
49 -1700 519 0
49 1700 0
49 -520 1701 0
49 -1701 520 0
49 1701 0
49 -521 1702 0
49 -1702 521 0
49 1702 0
49 -522 1703 0
49 -1703 522 0
49 1703 0
49 -529 1710 0
49 -1710 529 0
49 -1705 1704 0
49 -1706 1705 0
49 -1707 1706 0
49 -1708 1707 0
49 -1709 1708 0
49 -1710 1709 0
49 1704 0
49 -523 1704 0
49 -523 -1705 0
49 -1704 1705 523 0
49 -524 1705 0
49 -524 -1706 0
49 -1705 1706 524 0
49 -525 1706 0
49 -525 -1707 0
49 -1706 1707 525 0
49 -526 1707 0
49 -526 -1708 0
49 -1707 1708 526 0
49 -527 1708 0
49 -527 -1709 0
49 -1708 1709 527 0
49 -528 1709 0
49 -528 -1710 0
49 -1709 1710 528 0
49 -536 1717 0
49 -1717 536 0
49 -1712 1711 0
49 -1713 1712 0
49 -1714 1713 0
49 -1715 1714 0
49 -1716 1715 0
49 -1717 1716 0
49 1711 0
49 -530 1711 0
49 -530 -1712 0
49 -1711 1712 530 0
49 -531 1712 0
49 -531 -1713 0
49 -1712 1713 531 0
49 -532 1713 0
49 -532 -1714 0
49 -1713 1714 532 0
49 -533 1714 0
49 -533 -1715 0
49 -1714 1715 533 0
49 -534 1715 0
49 -534 -1716 0
49 -1715 1716 534 0
49 -535 1716 0
49 -535 -1717 0
49 -1716 1717 535 0
49 -537 1718 0
49 -1718 537 0
49 1718 0
49 -538 1719 0
49 -1719 538 0
49 1719 0
49 -539 1720 0
49 -1720 539 0
49 1720 0
49 -540 1721 0
49 -1721 540 0
49 1721 0
49 -541 1722 0
49 -1722 541 0
49 1722 0
49 -542 1723 0
49 -1723 542 0
49 1723 0
49 -543 1724 0
49 -1724 543 0
49 1724 0
49 -544 1725 0
49 -1725 544 0
49 1725 0
49 -545 1726 0
49 -1726 545 0
49 1726 0
49 -546 1727 0
49 -1727 546 0
49 1727 0
49 -547 1728 0
49 -1728 547 0
49 1728 0
49 -548 1729 0
49 -1729 548 0
49 1729 0
49 -549 1730 0
49 -1730 549 0
49 1730 0
49 -550 1731 0
49 -1731 550 0
49 1731 0
49 -552 1733 0
49 -1733 552 0
49 -1733 1732 0
49 1732 0
49 -551 1732 0
49 -551 -1733 0
49 -1732 1733 551 0
49 -554 1735 0
49 -1735 554 0
49 -1735 1734 0
49 1734 0
49 -553 1734 0
49 -553 -1735 0
49 -1734 1735 553 0
49 -555 1736 0
49 -1736 555 0
49 1736 0
49 -556 1737 0
49 -1737 556 0
49 1737 0
49 -557 1738 0
49 -1738 557 0
49 1738 0
49 -558 1739 0
49 -1739 558 0
49 1739 0
49 -559 1740 0
49 -1740 559 0
49 1740 0
49 -560 1741 0
49 -1741 560 0
49 1741 0
49 -561 1742 0
49 -1742 561 0
49 1742 0
49 -562 1743 0
49 -1743 562 0
49 1743 0
49 -563 1744 0
49 -1744 563 0
49 1744 0
49 -564 1745 0
49 -1745 564 0
49 1745 0
49 -565 1746 0
49 -1746 565 0
49 1746 0
49 -566 1747 0
49 -1747 566 0
49 1747 0
49 -567 1748 0
49 -1748 567 0
49 1748 0
49 -568 1749 0
49 -1749 568 0
49 1749 0
49 -569 1750 0
49 -1750 569 0
49 1750 0
49 -570 1751 0
49 -1751 570 0
49 1751 0
49 -571 1752 0
49 -1752 571 0
49 1752 0
49 -572 1753 0
49 -1753 572 0
49 1753 0
49 -573 1754 0
49 -1754 573 0
49 1754 0
49 -574 1755 0
49 -1755 574 0
49 1755 0
49 -575 1756 0
49 -1756 575 0
49 1756 0
49 -576 1757 0
49 -1757 576 0
49 1757 0
49 -577 1758 0
49 -1758 577 0
49 1758 0
49 -578 1759 0
49 -1759 578 0
49 1759 0
49 -579 1760 0
49 -1760 579 0
49 1760 0
49 -580 1761 0
49 -1761 580 0
49 1761 0
49 -581 1762 0
49 -1762 581 0
49 1762 0
49 -582 1763 0
49 -1763 582 0
49 1763 0
49 -583 1764 0
49 -1764 583 0
49 1764 0
49 -584 1765 0
49 -1765 584 0
49 1765 0
49 -585 1766 0
49 -1766 585 0
49 1766 0
49 -586 1767 0
49 -1767 586 0
49 1767 0
49 -587 1768 0
49 -1768 587 0
49 1768 0
49 -588 1769 0
49 -1769 588 0
49 1769 0
49 -589 1770 0
49 -1770 589 0
49 1770 0
49 -590 1771 0
49 -1771 590 0
49 1771 0
49 -591 1772 0
49 -1772 591 0
49 1772 0
49 -592 1773 0
49 -1773 592 0
49 1773 0
49 -593 1774 0
49 -1774 593 0
49 1774 0
49 -594 1775 0
49 -1775 594 0
49 1775 0
49 -595 1776 0
49 -1776 595 0
49 1776 0
49 -596 1777 0
49 -1777 596 0
49 1777 0
49 -598 1779 0
49 -1779 598 0
49 -1779 1778 0
49 1778 0
49 -597 1778 0
49 -597 -1779 0
49 -1778 1779 597 0
49 -600 1781 0
49 -1781 600 0
49 -1781 1780 0
49 1780 0
49 -599 1780 0
49 -599 -1781 0
49 -1780 1781 599 0
49 -601 1782 0
49 -1782 601 0
49 1782 0
49 -602 1783 0
49 -1783 602 0
49 1783 0
49 -603 1784 0
49 -1784 603 0
49 1784 0
49 -604 1785 0
49 -1785 604 0
49 1785 0
49 -605 1786 0
49 -1786 605 0
49 1786 0
49 -606 1787 0
49 -1787 606 0
49 1787 0
49 -607 1788 0
49 -1788 607 0
49 1788 0
49 -608 1789 0
49 -1789 608 0
49 1789 0
49 -609 1790 0
49 -1790 609 0
49 1790 0
49 -610 1791 0
49 -1791 610 0
49 1791 0
49 -616 1797 0
49 -1797 616 0
49 -1793 1792 0
49 -1794 1793 0
49 -1795 1794 0
49 -1796 1795 0
49 -1797 1796 0
49 1792 0
49 -611 1792 0
49 -611 -1793 0
49 -1792 1793 611 0
49 -612 1793 0
49 -612 -1794 0
49 -1793 1794 612 0
49 -613 1794 0
49 -613 -1795 0
49 -1794 1795 613 0
49 -614 1795 0
49 -614 -1796 0
49 -1795 1796 614 0
49 -615 1796 0
49 -615 -1797 0
49 -1796 1797 615 0
49 -622 1803 0
49 -1803 622 0
49 -1799 1798 0
49 -1800 1799 0
49 -1801 1800 0
49 -1802 1801 0
49 -1803 1802 0
49 1798 0
49 -617 1798 0
49 -617 -1799 0
49 -1798 1799 617 0
49 -618 1799 0
49 -618 -1800 0
49 -1799 1800 618 0
49 -619 1800 0
49 -619 -1801 0
49 -1800 1801 619 0
49 -620 1801 0
49 -620 -1802 0
49 -1801 1802 620 0
49 -621 1802 0
49 -621 -1803 0
49 -1802 1803 621 0
49 -623 1804 0
49 -1804 623 0
49 1804 0
49 -624 1805 0
49 -1805 624 0
49 1805 0
49 -625 1806 0
49 -1806 625 0
49 1806 0
49 -626 1807 0
49 -1807 626 0
49 1807 0
49 -627 1808 0
49 -1808 627 0
49 1808 0
49 -628 1809 0
49 -1809 628 0
49 1809 0
49 -629 1810 0
49 -1810 629 0
49 1810 0
49 -630 1811 0
49 -1811 630 0
49 1811 0
49 -631 1812 0
49 -1812 631 0
49 1812 0
49 -632 1813 0
49 -1813 632 0
49 1813 0
49 -633 1814 0
49 -1814 633 0
49 1814 0
49 -634 1815 0
49 -1815 634 0
49 1815 0
49 -635 1816 0
49 -1816 635 0
49 1816 0
49 -636 1817 0
49 -1817 636 0
49 1817 0
49 -637 1818 0
49 -1818 637 0
49 1818 0
49 -638 1819 0
49 -1819 638 0
49 1819 0
49 -639 1820 0
49 -1820 639 0
49 1820 0
49 -640 1821 0
49 -1821 640 0
49 1821 0
49 -642 1823 0
49 -1823 642 0
49 -1823 1822 0
49 1822 0
49 -641 1822 0
49 -641 -1823 0
49 -1822 1823 641 0
49 -644 1825 0
49 -1825 644 0
49 -1825 1824 0
49 1824 0
49 -643 1824 0
49 -643 -1825 0
49 -1824 1825 643 0
49 -645 1826 0
49 -1826 645 0
49 1826 0
49 -646 1827 0
49 -1827 646 0
49 1827 0
49 -647 1828 0
49 -1828 647 0
49 1828 0
49 -648 1829 0
49 -1829 648 0
49 1829 0
49 -649 1830 0
49 -1830 649 0
49 1830 0
49 -650 1831 0
49 -1831 650 0
49 1831 0
49 -651 1832 0
49 -1832 651 0
49 1832 0
49 -652 1833 0
49 -1833 652 0
49 1833 0
49 -653 1834 0
49 -1834 653 0
49 1834 0
49 -654 1835 0
49 -1835 654 0
49 1835 0
49 -655 1836 0
49 -1836 655 0
49 1836 0
49 -656 1837 0
49 -1837 656 0
49 1837 0
49 -657 1838 0
49 -1838 657 0
49 1838 0
49 -658 1839 0
49 -1839 658 0
49 1839 0
49 -659 1840 0
49 -1840 659 0
49 1840 0
49 -660 1841 0
49 -1841 660 0
49 1841 0
49 -661 1842 0
49 -1842 661 0
49 1842 0
49 -662 1843 0
49 -1843 662 0
49 1843 0
49 -663 1844 0
49 -1844 663 0
49 1844 0
49 -664 1845 0
49 -1845 664 0
49 1845 0
49 -665 1846 0
49 -1846 665 0
49 1846 0
49 -666 1847 0
49 -1847 666 0
49 1847 0
49 -667 1848 0
49 -1848 667 0
49 1848 0
49 -668 1849 0
49 -1849 668 0
49 1849 0
49 -670 1851 0
49 -1851 670 0
49 -1851 1850 0
49 1850 0
49 -669 1850 0
49 -669 -1851 0
49 -1850 1851 669 0
49 -672 1853 0
49 -1853 672 0
49 -1853 1852 0
49 1852 0
49 -671 1852 0
49 -671 -1853 0
49 -1852 1853 671 0
49 -673 1854 0
49 -1854 673 0
49 1854 0
49 -674 1855 0
49 -1855 674 0
49 1855 0
49 -675 1856 0
49 -1856 675 0
49 1856 0
49 -676 1857 0
49 -1857 676 0
49 1857 0
49 -677 1858 0
49 -1858 677 0
49 1858 0
49 -678 1859 0
49 -1859 678 0
49 1859 0
49 -679 1860 0
49 -1860 679 0
49 1860 0
49 -680 1861 0
49 -1861 680 0
49 1861 0
49 -681 1862 0
49 -1862 681 0
49 1862 0
49 -682 1863 0
49 -1863 682 0
49 1863 0
49 -683 1864 0
49 -1864 683 0
49 1864 0
49 -684 1865 0
49 -1865 684 0
49 1865 0
49 -685 1866 0
49 -1866 685 0
49 1866 0
49 -686 1867 0
49 -1867 686 0
49 1867 0
49 -687 1868 0
49 -1868 687 0
49 1868 0
49 -688 1869 0
49 -1869 688 0
49 1869 0
49 -689 1870 0
49 -1870 689 0
49 1870 0
49 -690 1871 0
49 -1871 690 0
49 1871 0
49 -691 1872 0
49 -1872 691 0
49 1872 0
49 -692 1873 0
49 -1873 692 0
49 1873 0
49 -693 1874 0
49 -1874 693 0
49 1874 0
49 -694 1875 0
49 -1875 694 0
49 1875 0
49 -695 1876 0
49 -1876 695 0
49 1876 0
49 -696 1877 0
49 -1877 696 0
49 1877 0
49 -697 1878 0
49 -1878 697 0
49 1878 0
49 -698 1879 0
49 -1879 698 0
49 1879 0
49 -699 1880 0
49 -1880 699 0
49 1880 0
49 -700 1881 0
49 -1881 700 0
49 1881 0
49 -701 1882 0
49 -1882 701 0
49 1882 0
49 -702 1883 0
49 -1883 702 0
49 1883 0
49 -703 1884 0
49 -1884 703 0
49 1884 0
49 -704 1885 0
49 -1885 704 0
49 1885 0
49 -705 1886 0
49 -1886 705 0
49 1886 0
49 -706 1887 0
49 -1887 706 0
49 1887 0
49 -707 1888 0
49 -1888 707 0
49 1888 0
49 -708 1889 0
49 -1889 708 0
49 1889 0
49 -709 1890 0
49 -1890 709 0
49 1890 0
49 -710 1891 0
49 -1891 710 0
49 1891 0
49 -711 1892 0
49 -1892 711 0
49 1892 0
49 -712 1893 0
49 -1893 712 0
49 1893 0
49 -713 1894 0
49 -1894 713 0
49 1894 0
49 -714 1895 0
49 -1895 714 0
49 1895 0
49 -715 1896 0
49 -1896 715 0
49 1896 0
49 -716 1897 0
49 -1897 716 0
49 1897 0
49 -717 1898 0
49 -1898 717 0
49 1898 0
49 -718 1899 0
49 -1899 718 0
49 1899 0
49 -719 1900 0
49 -1900 719 0
49 1900 0
49 -720 1901 0
49 -1901 720 0
49 1901 0
49 -723 1904 0
49 -1904 723 0
49 -1903 1902 0
49 -1904 1903 0
49 1902 0
49 -721 1902 0
49 -721 -1903 0
49 -1902 1903 721 0
49 -722 1903 0
49 -722 -1904 0
49 -1903 1904 722 0
49 -726 1907 0
49 -1907 726 0
49 -1906 1905 0
49 -1907 1906 0
49 1905 0
49 -724 1905 0
49 -724 -1906 0
49 -1905 1906 724 0
49 -725 1906 0
49 -725 -1907 0
49 -1906 1907 725 0
49 -727 1908 0
49 -1908 727 0
49 1908 0
49 -728 1909 0
49 -1909 728 0
49 1909 0
49 -729 1910 0
49 -1910 729 0
49 1910 0
49 -730 1911 0
49 -1911 730 0
49 1911 0
49 -731 1912 0
49 -1912 731 0
49 1912 0
49 -732 1913 0
49 -1913 732 0
49 1913 0
49 -733 1914 0
49 -1914 733 0
49 1914 0
49 -734 1915 0
49 -1915 734 0
49 1915 0
49 -735 1916 0
49 -1916 735 0
49 1916 0
49 -736 1917 0
49 -1917 736 0
49 1917 0
49 -737 1918 0
49 -1918 737 0
49 1918 0
49 -738 1919 0
49 -1919 738 0
49 1919 0
49 -739 1920 0
49 -1920 739 0
49 1920 0
49 -740 1921 0
49 -1921 740 0
49 1921 0
49 -741 1922 0
49 -1922 741 0
49 1922 0
49 -742 1923 0
49 -1923 742 0
49 1923 0
49 -743 1924 0
49 -1924 743 0
49 1924 0
49 -744 1925 0
49 -1925 744 0
49 1925 0
49 -747 1928 0
49 -1928 747 0
49 -1927 1926 0
49 -1928 1927 0
49 1926 0
49 -745 1926 0
49 -745 -1927 0
49 -1926 1927 745 0
49 -746 1927 0
49 -746 -1928 0
49 -1927 1928 746 0
49 -750 1931 0
49 -1931 750 0
49 -1930 1929 0
49 -1931 1930 0
49 1929 0
49 -748 1929 0
49 -748 -1930 0
49 -1929 1930 748 0
49 -749 1930 0
49 -749 -1931 0
49 -1930 1931 749 0
49 -751 1932 0
49 -1932 751 0
49 1932 0
49 -752 1933 0
49 -1933 752 0
49 1933 0
49 -753 1934 0
49 -1934 753 0
49 1934 0
49 -754 1935 0
49 -1935 754 0
49 1935 0
49 -755 1936 0
49 -1936 755 0
49 1936 0
49 -756 1937 0
49 -1937 756 0
49 1937 0
49 -757 1938 0
49 -1938 757 0
49 1938 0
49 -758 1939 0
49 -1939 758 0
49 1939 0
49 -759 1940 0
49 -1940 759 0
49 1940 0
49 -760 1941 0
49 -1941 760 0
49 1941 0
49 -761 1942 0
49 -1942 761 0
49 1942 0
49 -762 1943 0
49 -1943 762 0
49 1943 0
49 -763 1944 0
49 -1944 763 0
49 1944 0
49 -764 1945 0
49 -1945 764 0
49 1945 0
49 -765 1946 0
49 -1946 765 0
49 1946 0
49 -766 1947 0
49 -1947 766 0
49 1947 0
49 -767 1948 0
49 -1948 767 0
49 1948 0
49 -768 1949 0
49 -1949 768 0
49 1949 0
49 -769 1950 0
49 -1950 769 0
49 1950 0
49 -770 1951 0
49 -1951 770 0
49 1951 0
49 -771 1952 0
49 -1952 771 0
49 1952 0
49 -772 1953 0
49 -1953 772 0
49 1953 0
49 -773 1954 0
49 -1954 773 0
49 1954 0
49 -774 1955 0
49 -1955 774 0
49 1955 0
49 -775 1956 0
49 -1956 775 0
49 1956 0
49 -776 1957 0
49 -1957 776 0
49 1957 0
49 -777 1958 0
49 -1958 777 0
49 1958 0
49 -778 1959 0
49 -1959 778 0
49 1959 0
49 -779 1960 0
49 -1960 779 0
49 1960 0
49 -780 1961 0
49 -1961 780 0
49 1961 0
49 -781 1962 0
49 -1962 781 0
49 1962 0
49 -782 1963 0
49 -1963 782 0
49 1963 0
49 -783 1964 0
49 -1964 783 0
49 1964 0
49 -784 1965 0
49 -1965 784 0
49 1965 0
49 -785 1966 0
49 -1966 785 0
49 1966 0
49 -786 1967 0
49 -1967 786 0
49 1967 0
49 -787 1968 0
49 -1968 787 0
49 1968 0
49 -788 1969 0
49 -1969 788 0
49 1969 0
49 -789 1970 0
49 -1970 789 0
49 1970 0
49 -790 1971 0
49 -1971 790 0
49 1971 0
49 -791 1972 0
49 -1972 791 0
49 1972 0
49 -792 1973 0
49 -1973 792 0
49 1973 0
49 -793 1974 0
49 -1974 793 0
49 1974 0
49 -794 1975 0
49 -1975 794 0
49 1975 0
49 -795 1976 0
49 -1976 795 0
49 1976 0
49 -796 1977 0
49 -1977 796 0
49 1977 0
49 -797 1978 0
49 -1978 797 0
49 1978 0
49 -798 1979 0
49 -1979 798 0
49 1979 0
49 -799 1980 0
49 -1980 799 0
49 1980 0
49 -800 1981 0
49 -1981 800 0
49 1981 0
49 -801 1982 0
49 -1982 801 0
49 1982 0
49 -802 1983 0
49 -1983 802 0
49 1983 0
49 -803 1984 0
49 -1984 803 0
49 1984 0
49 -804 1985 0
49 -1985 804 0
49 1985 0
49 -805 1986 0
49 -1986 805 0
49 1986 0
49 -806 1987 0
49 -1987 806 0
49 1987 0
49 -807 1988 0
49 -1988 807 0
49 1988 0
49 -808 1989 0
49 -1989 808 0
49 1989 0
49 -809 1990 0
49 -1990 809 0
49 1990 0
49 -810 1991 0
49 -1991 810 0
49 1991 0
49 -811 1992 0
49 -1992 811 0
49 1992 0
49 -812 1993 0
49 -1993 812 0
49 1993 0
49 -813 1994 0
49 -1994 813 0
49 1994 0
49 -814 1995 0
49 -1995 814 0
49 1995 0
49 -815 1996 0
49 -1996 815 0
49 1996 0
49 -816 1997 0
49 -1997 816 0
49 1997 0
49 -817 1998 0
49 -1998 817 0
49 1998 0
49 -818 1999 0
49 -1999 818 0
49 1999 0
49 -819 2000 0
49 -2000 819 0
49 2000 0
49 -820 2001 0
49 -2001 820 0
49 2001 0
49 -821 2002 0
49 -2002 821 0
49 2002 0
49 -822 2003 0
49 -2003 822 0
49 2003 0
49 -823 2004 0
49 -2004 823 0
49 2004 0
49 -824 2005 0
49 -2005 824 0
49 2005 0
49 -825 2006 0
49 -2006 825 0
49 2006 0
49 -826 2007 0
49 -2007 826 0
49 2007 0
49 -832 2013 0
49 -2013 832 0
49 -2009 2008 0
49 -2010 2009 0
49 -2011 2010 0
49 -2012 2011 0
49 -2013 2012 0
49 2008 0
49 -827 2008 0
49 -827 -2009 0
49 -2008 2009 827 0
49 -828 2009 0
49 -828 -2010 0
49 -2009 2010 828 0
49 -829 2010 0
49 -829 -2011 0
49 -2010 2011 829 0
49 -830 2011 0
49 -830 -2012 0
49 -2011 2012 830 0
49 -831 2012 0
49 -831 -2013 0
49 -2012 2013 831 0
49 -838 2019 0
49 -2019 838 0
49 -2015 2014 0
49 -2016 2015 0
49 -2017 2016 0
49 -2018 2017 0
49 -2019 2018 0
49 2014 0
49 -833 2014 0
49 -833 -2015 0
49 -2014 2015 833 0
49 -834 2015 0
49 -834 -2016 0
49 -2015 2016 834 0
49 -835 2016 0
49 -835 -2017 0
49 -2016 2017 835 0
49 -836 2017 0
49 -836 -2018 0
49 -2017 2018 836 0
49 -837 2018 0
49 -837 -2019 0
49 -2018 2019 837 0
49 -839 2020 0
49 -2020 839 0
49 2020 0
49 -840 2021 0
49 -2021 840 0
49 2021 0
49 -841 2022 0
49 -2022 841 0
49 2022 0
49 -842 2023 0
49 -2023 842 0
49 2023 0
49 -843 2024 0
49 -2024 843 0
49 2024 0
49 -844 2025 0
49 -2025 844 0
49 2025 0
49 -845 2026 0
49 -2026 845 0
49 2026 0
49 -846 2027 0
49 -2027 846 0
49 2027 0
49 -847 2028 0
49 -2028 847 0
49 2028 0
49 -848 2029 0
49 -2029 848 0
49 2029 0
49 -849 2030 0
49 -2030 849 0
49 2030 0
49 -850 2031 0
49 -2031 850 0
49 2031 0
49 -851 2032 0
49 -2032 851 0
49 2032 0
49 -852 2033 0
49 -2033 852 0
49 2033 0
49 -853 2034 0
49 -2034 853 0
49 2034 0
49 -854 2035 0
49 -2035 854 0
49 2035 0
49 -855 2036 0
49 -2036 855 0
49 2036 0
49 -856 2037 0
49 -2037 856 0
49 2037 0
49 -857 2038 0
49 -2038 857 0
49 2038 0
49 -858 2039 0
49 -2039 858 0
49 2039 0
49 -859 2040 0
49 -2040 859 0
49 2040 0
49 -860 2041 0
49 -2041 860 0
49 2041 0
49 -861 2042 0
49 -2042 861 0
49 2042 0
49 -862 2043 0
49 -2043 862 0
49 2043 0
49 -863 2044 0
49 -2044 863 0
49 2044 0
49 -864 2045 0
49 -2045 864 0
49 2045 0
49 -865 2046 0
49 -2046 865 0
49 2046 0
49 -866 2047 0
49 -2047 866 0
49 2047 0
49 -867 2048 0
49 -2048 867 0
49 2048 0
49 -868 2049 0
49 -2049 868 0
49 2049 0
49 -871 2052 0
49 -2052 871 0
49 -2051 2050 0
49 -2052 2051 0
49 2050 0
49 -869 2050 0
49 -869 -2051 0
49 -2050 2051 869 0
49 -870 2051 0
49 -870 -2052 0
49 -2051 2052 870 0
49 -874 2055 0
49 -2055 874 0
49 -2054 2053 0
49 -2055 2054 0
49 2053 0
49 -872 2053 0
49 -872 -2054 0
49 -2053 2054 872 0
49 -873 2054 0
49 -873 -2055 0
49 -2054 2055 873 0
49 -875 2056 0
49 -2056 875 0
49 2056 0
49 -876 2057 0
49 -2057 876 0
49 2057 0
49 -877 2058 0
49 -2058 877 0
49 2058 0
49 -878 2059 0
49 -2059 878 0
49 2059 0
49 -879 2060 0
49 -2060 879 0
49 2060 0
49 -880 2061 0
49 -2061 880 0
49 2061 0
49 -881 2062 0
49 -2062 881 0
49 2062 0
49 -882 2063 0
49 -2063 882 0
49 2063 0
49 -883 2064 0
49 -2064 883 0
49 2064 0
49 -884 2065 0
49 -2065 884 0
49 2065 0
49 -885 2066 0
49 -2066 885 0
49 2066 0
49 -886 2067 0
49 -2067 886 0
49 2067 0
49 -887 2068 0
49 -2068 887 0
49 2068 0
49 -888 2069 0
49 -2069 888 0
49 2069 0
49 -889 2070 0
49 -2070 889 0
49 2070 0
49 -890 2071 0
49 -2071 890 0
49 2071 0
49 -891 2072 0
49 -2072 891 0
49 2072 0
49 -892 2073 0
49 -2073 892 0
49 2073 0
49 -893 2074 0
49 -2074 893 0
49 2074 0
49 -894 2075 0
49 -2075 894 0
49 2075 0
49 -895 2076 0
49 -2076 895 0
49 2076 0
49 -896 2077 0
49 -2077 896 0
49 2077 0
49 -897 2078 0
49 -2078 897 0
49 2078 0
49 -898 2079 0
49 -2079 898 0
49 2079 0
49 -899 2080 0
49 -2080 899 0
49 2080 0
49 -900 2081 0
49 -2081 900 0
49 2081 0
49 -902 2083 0
49 -2083 902 0
49 -2083 2082 0
49 2082 0
49 -901 2082 0
49 -901 -2083 0
49 -2082 2083 901 0
49 -904 2085 0
49 -2085 904 0
49 -2085 2084 0
49 2084 0
49 -903 2084 0
49 -903 -2085 0
49 -2084 2085 903 0
49 -905 2086 0
49 -2086 905 0
49 2086 0
49 -906 2087 0
49 -2087 906 0
49 2087 0
49 -907 2088 0
49 -2088 907 0
49 2088 0
49 -908 2089 0
49 -2089 908 0
49 2089 0
49 -909 2090 0
49 -2090 909 0
49 2090 0
49 -910 2091 0
49 -2091 910 0
49 2091 0
49 -911 2092 0
49 -2092 911 0
49 2092 0
49 -912 2093 0
49 -2093 912 0
49 2093 0
49 -913 2094 0
49 -2094 913 0
49 2094 0
49 -914 2095 0
49 -2095 914 0
49 2095 0
49 -915 2096 0
49 -2096 915 0
49 2096 0
49 -916 2097 0
49 -2097 916 0
49 2097 0
49 -917 2098 0
49 -2098 917 0
49 2098 0
49 -918 2099 0
49 -2099 918 0
49 2099 0
49 -919 2100 0
49 -2100 919 0
49 2100 0
49 -920 2101 0
49 -2101 920 0
49 2101 0
49 -921 2102 0
49 -2102 921 0
49 2102 0
49 -922 2103 0
49 -2103 922 0
49 2103 0
49 -923 2104 0
49 -2104 923 0
49 2104 0
49 -924 2105 0
49 -2105 924 0
49 2105 0
49 -927 2108 0
49 -2108 927 0
49 -2107 2106 0
49 -2108 2107 0
49 2106 0
49 -925 2106 0
49 -925 -2107 0
49 -2106 2107 925 0
49 -926 2107 0
49 -926 -2108 0
49 -2107 2108 926 0
49 -930 2111 0
49 -2111 930 0
49 -2110 2109 0
49 -2111 2110 0
49 2109 0
49 -928 2109 0
49 -928 -2110 0
49 -2109 2110 928 0
49 -929 2110 0
49 -929 -2111 0
49 -2110 2111 929 0
49 -931 2112 0
49 -2112 931 0
49 2112 0
49 -932 2113 0
49 -2113 932 0
49 2113 0
49 -933 2114 0
49 -2114 933 0
49 2114 0
49 -934 2115 0
49 -2115 934 0
49 2115 0
49 -935 2116 0
49 -2116 935 0
49 2116 0
49 -936 2117 0
49 -2117 936 0
49 2117 0
49 -937 2118 0
49 -2118 937 0
49 2118 0
49 -938 2119 0
49 -2119 938 0
49 2119 0
49 -939 2120 0
49 -2120 939 0
49 2120 0
49 -940 2121 0
49 -2121 940 0
49 2121 0
49 -941 2122 0
49 -2122 941 0
49 2122 0
49 -942 2123 0
49 -2123 942 0
49 2123 0
49 -943 2124 0
49 -2124 943 0
49 2124 0
49 -944 2125 0
49 -2125 944 0
49 2125 0
49 -945 2126 0
49 -2126 945 0
49 2126 0
49 -946 2127 0
49 -2127 946 0
49 2127 0
49 -947 2128 0
49 -2128 947 0
49 2128 0
49 -948 2129 0
49 -2129 948 0
49 2129 0
49 -949 2130 0
49 -2130 949 0
49 2130 0
49 -950 2131 0
49 -2131 950 0
49 2131 0
49 -951 2132 0
49 -2132 951 0
49 2132 0
49 -952 2133 0
49 -2133 952 0
49 2133 0
49 -953 2134 0
49 -2134 953 0
49 2134 0
49 -954 2135 0
49 -2135 954 0
49 2135 0
49 -955 2136 0
49 -2136 955 0
49 2136 0
49 -956 2137 0
49 -2137 956 0
49 2137 0
49 -957 2138 0
49 -2138 957 0
49 2138 0
49 -958 2139 0
49 -2139 958 0
49 2139 0
49 -959 2140 0
49 -2140 959 0
49 2140 0
49 -960 2141 0
49 -2141 960 0
49 2141 0
49 -961 2142 0
49 -2142 961 0
49 2142 0
49 -962 2143 0
49 -2143 962 0
49 2143 0
49 -963 2144 0
49 -2144 963 0
49 2144 0
49 -964 2145 0
49 -2145 964 0
49 2145 0
49 -965 2146 0
49 -2146 965 0
49 2146 0
49 -966 2147 0
49 -2147 966 0
49 2147 0
49 -967 2148 0
49 -2148 967 0
49 2148 0
49 -968 2149 0
49 -2149 968 0
49 2149 0
49 -969 2150 0
49 -2150 969 0
49 2150 0
49 -970 2151 0
49 -2151 970 0
49 2151 0
49 -971 2152 0
49 -2152 971 0
49 2152 0
49 -972 2153 0
49 -2153 972 0
49 2153 0
49 -973 2154 0
49 -2154 973 0
49 2154 0
49 -974 2155 0
49 -2155 974 0
49 2155 0
49 -975 2156 0
49 -2156 975 0
49 2156 0
49 -976 2157 0
49 -2157 976 0
49 2157 0
49 -977 2158 0
49 -2158 977 0
49 2158 0
49 -978 2159 0
49 -2159 978 0
49 2159 0
49 -979 2160 0
49 -2160 979 0
49 2160 0
49 -980 2161 0
49 -2161 980 0
49 2161 0
49 -981 2162 0
49 -2162 981 0
49 2162 0
49 -982 2163 0
49 -2163 982 0
49 2163 0
49 -983 2164 0
49 -2164 983 0
49 2164 0
49 -984 2165 0
49 -2165 984 0
49 2165 0
49 -985 2166 0
49 -2166 985 0
49 2166 0
49 -986 2167 0
49 -2167 986 0
49 2167 0
49 -987 2168 0
49 -2168 987 0
49 2168 0
49 -988 2169 0
49 -2169 988 0
49 2169 0
49 -989 2170 0
49 -2170 989 0
49 2170 0
49 -990 2171 0
49 -2171 990 0
49 2171 0
49 -991 2172 0
49 -2172 991 0
49 2172 0
49 -992 2173 0
49 -2173 992 0
49 2173 0
49 -996 2177 0
49 -2177 996 0
49 -2175 2174 0
49 -2176 2175 0
49 -2177 2176 0
49 2174 0
49 -993 2174 0
49 -993 -2175 0
49 -2174 2175 993 0
49 -994 2175 0
49 -994 -2176 0
49 -2175 2176 994 0
49 -995 2176 0
49 -995 -2177 0
49 -2176 2177 995 0
49 -1000 2181 0
49 -2181 1000 0
49 -2179 2178 0
49 -2180 2179 0
49 -2181 2180 0
49 2178 0
49 -997 2178 0
49 -997 -2179 0
49 -2178 2179 997 0
49 -998 2179 0
49 -998 -2180 0
49 -2179 2180 998 0
49 -999 2180 0
49 -999 -2181 0
49 -2180 2181 999 0
49 -1001 2182 0
49 -2182 1001 0
49 2182 0
49 -1002 2183 0
49 -2183 1002 0
49 2183 0
49 -1003 2184 0
49 -2184 1003 0
49 2184 0
49 -1004 2185 0
49 -2185 1004 0
49 2185 0
49 -1005 2186 0
49 -2186 1005 0
49 2186 0
49 -1006 2187 0
49 -2187 1006 0
49 2187 0
49 -1007 2188 0
49 -2188 1007 0
49 2188 0
49 -1008 2189 0
49 -2189 1008 0
49 2189 0
49 -1009 2190 0
49 -2190 1009 0
49 2190 0
49 -1010 2191 0
49 -2191 1010 0
49 2191 0
49 -1011 2192 0
49 -2192 1011 0
49 2192 0
49 -1012 2193 0
49 -2193 1012 0
49 2193 0
49 -1013 2194 0
49 -2194 1013 0
49 2194 0
49 -1014 2195 0
49 -2195 1014 0
49 2195 0
49 -1015 2196 0
49 -2196 1015 0
49 2196 0
49 -1016 2197 0
49 -2197 1016 0
49 2197 0
49 -1017 2198 0
49 -2198 1017 0
49 2198 0
49 -1018 2199 0
49 -2199 1018 0
49 2199 0
49 -1019 2200 0
49 -2200 1019 0
49 2200 0
49 -1020 2201 0
49 -2201 1020 0
49 2201 0
49 -1021 2202 0
49 -2202 1021 0
49 2202 0
49 -1022 2203 0
49 -2203 1022 0
49 2203 0
49 -1023 2204 0
49 -2204 1023 0
49 2204 0
49 -1024 2205 0
49 -2205 1024 0
49 2205 0
49 -1025 2206 0
49 -2206 1025 0
49 2206 0
49 -1026 2207 0
49 -2207 1026 0
49 2207 0
49 -1027 2208 0
49 -2208 1027 0
49 2208 0
49 -1028 2209 0
49 -2209 1028 0
49 2209 0
49 -1029 2210 0
49 -2210 1029 0
49 2210 0
49 -1030 2211 0
49 -2211 1030 0
49 2211 0
49 -1031 2212 0
49 -2212 1031 0
49 2212 0
49 -1032 2213 0
49 -2213 1032 0
49 2213 0
49 -1033 2214 0
49 -2214 1033 0
49 2214 0
49 -1034 2215 0
49 -2215 1034 0
49 2215 0
49 -1035 2216 0
49 -2216 1035 0
49 2216 0
49 -1036 2217 0
49 -2217 1036 0
49 2217 0
49 -1038 2219 0
49 -2219 1038 0
49 -2219 2218 0
49 2218 0
49 -1037 2218 0
49 -1037 -2219 0
49 -2218 2219 1037 0
49 -1040 2221 0
49 -2221 1040 0
49 -2221 2220 0
49 2220 0
49 -1039 2220 0
49 -1039 -2221 0
49 -2220 2221 1039 0
49 -1041 2222 0
49 -2222 1041 0
49 2222 0
49 -1042 2223 0
49 -2223 1042 0
49 2223 0
49 -1043 2224 0
49 -2224 1043 0
49 2224 0
49 -1044 2225 0
49 -2225 1044 0
49 2225 0
49 -1045 2226 0
49 -2226 1045 0
49 2226 0
49 -1046 2227 0
49 -2227 1046 0
49 2227 0
49 -1047 2228 0
49 -2228 1047 0
49 2228 0
49 -1048 2229 0
49 -2229 1048 0
49 2229 0
49 -1049 2230 0
49 -2230 1049 0
49 2230 0
49 -1050 2231 0
49 -2231 1050 0
49 2231 0
49 -1051 2232 0
49 -2232 1051 0
49 2232 0
49 -1052 2233 0
49 -2233 1052 0
49 2233 0
49 -1053 2234 0
49 -2234 1053 0
49 2234 0
49 -1054 2235 0
49 -2235 1054 0
49 2235 0
49 -1055 2236 0
49 -2236 1055 0
49 2236 0
49 -1056 2237 0
49 -2237 1056 0
49 2237 0
49 -1057 2238 0
49 -2238 1057 0
49 2238 0
49 -1058 2239 0
49 -2239 1058 0
49 2239 0
49 -1059 2240 0
49 -2240 1059 0
49 2240 0
49 -1060 2241 0
49 -2241 1060 0
49 2241 0
49 -1061 2242 0
49 -2242 1061 0
49 2242 0
49 -1062 2243 0
49 -2243 1062 0
49 2243 0
49 -1073 2254 0
49 -2254 1073 0
49 -2245 2244 0
49 -2246 2245 0
49 -2247 2246 0
49 -2248 2247 0
49 -2249 2248 0
49 -2250 2249 0
49 -2251 2250 0
49 -2252 2251 0
49 -2253 2252 0
49 -2254 2253 0
49 2244 0
49 -1063 2244 0
49 -1063 -2245 0
49 -2244 2245 1063 0
49 -1064 2245 0
49 -1064 -2246 0
49 -2245 2246 1064 0
49 -1065 2246 0
49 -1065 -2247 0
49 -2246 2247 1065 0
49 -1066 2247 0
49 -1066 -2248 0
49 -2247 2248 1066 0
49 -1067 2248 0
49 -1067 -2249 0
49 -2248 2249 1067 0
49 -1068 2249 0
49 -1068 -2250 0
49 -2249 2250 1068 0
49 -1069 2250 0
49 -1069 -2251 0
49 -2250 2251 1069 0
49 -1070 2251 0
49 -1070 -2252 0
49 -2251 2252 1070 0
49 -1071 2252 0
49 -1071 -2253 0
49 -2252 2253 1071 0
49 -1072 2253 0
49 -1072 -2254 0
49 -2253 2254 1072 0
49 -1084 2265 0
49 -2265 1084 0
49 -2256 2255 0
49 -2257 2256 0
49 -2258 2257 0
49 -2259 2258 0
49 -2260 2259 0
49 -2261 2260 0
49 -2262 2261 0
49 -2263 2262 0
49 -2264 2263 0
49 -2265 2264 0
49 2255 0
49 -1074 2255 0
49 -1074 -2256 0
49 -2255 2256 1074 0
49 -1075 2256 0
49 -1075 -2257 0
49 -2256 2257 1075 0
49 -1076 2257 0
49 -1076 -2258 0
49 -2257 2258 1076 0
49 -1077 2258 0
49 -1077 -2259 0
49 -2258 2259 1077 0
49 -1078 2259 0
49 -1078 -2260 0
49 -2259 2260 1078 0
49 -1079 2260 0
49 -1079 -2261 0
49 -2260 2261 1079 0
49 -1080 2261 0
49 -1080 -2262 0
49 -2261 2262 1080 0
49 -1081 2262 0
49 -1081 -2263 0
49 -2262 2263 1081 0
49 -1082 2263 0
49 -1082 -2264 0
49 -2263 2264 1082 0
49 -1083 2264 0
49 -1083 -2265 0
49 -2264 2265 1083 0
49 -1085 2266 0
49 -2266 1085 0
49 2266 0
49 -1086 2267 0
49 -2267 1086 0
49 2267 0
49 -1087 2268 0
49 -2268 1087 0
49 2268 0
49 -1088 2269 0
49 -2269 1088 0
49 2269 0
49 -1089 2270 0
49 -2270 1089 0
49 2270 0
49 -1090 2271 0
49 -2271 1090 0
49 2271 0
49 -1091 2272 0
49 -2272 1091 0
49 2272 0
49 -1092 2273 0
49 -2273 1092 0
49 2273 0
49 -1093 2274 0
49 -2274 1093 0
49 2274 0
49 -1094 2275 0
49 -2275 1094 0
49 2275 0
49 -1095 2276 0
49 -2276 1095 0
49 2276 0
49 -1096 2277 0
49 -2277 1096 0
49 2277 0
49 -1097 2278 0
49 -2278 1097 0
49 2278 0
49 -1098 2279 0
49 -2279 1098 0
49 2279 0
49 -1099 2280 0
49 -2280 1099 0
49 2280 0
49 -1100 2281 0
49 -2281 1100 0
49 2281 0
49 -1101 2282 0
49 -2282 1101 0
49 2282 0
49 -1102 2283 0
49 -2283 1102 0
49 2283 0
49 -1103 2284 0
49 -2284 1103 0
49 2284 0
49 -1104 2285 0
49 -2285 1104 0
49 2285 0
49 -1105 2286 0
49 -2286 1105 0
49 2286 0
49 -1106 2287 0
49 -2287 1106 0
49 2287 0
49 -1107 2288 0
49 -2288 1107 0
49 2288 0
49 -1108 2289 0
49 -2289 1108 0
49 2289 0
49 -1109 2290 0
49 -2290 1109 0
49 2290 0
49 -1110 2291 0
49 -2291 1110 0
49 2291 0
49 -1111 2292 0
49 -2292 1111 0
49 2292 0
49 -1112 2293 0
49 -2293 1112 0
49 2293 0
49 -1113 2294 0
49 -2294 1113 0
49 2294 0
49 -1114 2295 0
49 -2295 1114 0
49 2295 0
49 -1115 2296 0
49 -2296 1115 0
49 2296 0
49 -1116 2297 0
49 -2297 1116 0
49 2297 0
49 -1117 2298 0
49 -2298 1117 0
49 2298 0
49 -1118 2299 0
49 -2299 1118 0
49 2299 0
49 -1119 2300 0
49 -2300 1119 0
49 2300 0
49 -1120 2301 0
49 -2301 1120 0
49 2301 0
49 -1121 2302 0
49 -2302 1121 0
49 2302 0
49 -1122 2303 0
49 -2303 1122 0
49 2303 0
49 -1123 2304 0
49 -2304 1123 0
49 2304 0
49 -1124 2305 0
49 -2305 1124 0
49 2305 0
49 -1125 2306 0
49 -2306 1125 0
49 2306 0
49 -1126 2307 0
49 -2307 1126 0
49 2307 0
49 -1127 2308 0
49 -2308 1127 0
49 2308 0
49 -1128 2309 0
49 -2309 1128 0
49 2309 0
49 -1129 2310 0
49 -2310 1129 0
49 2310 0
49 -1130 2311 0
49 -2311 1130 0
49 2311 0
49 -1131 2312 0
49 -2312 1131 0
49 2312 0
49 -1132 2313 0
49 -2313 1132 0
49 2313 0
49 -1133 2314 0
49 -2314 1133 0
49 2314 0
49 -1134 2315 0
49 -2315 1134 0
49 2315 0
49 -1135 2316 0
49 -2316 1135 0
49 2316 0
49 -1136 2317 0
49 -2317 1136 0
49 2317 0
49 -1137 2318 0
49 -2318 1137 0
49 2318 0
49 -1138 2319 0
49 -2319 1138 0
49 2319 0
49 -1139 2320 0
49 -2320 1139 0
49 2320 0
49 -1140 2321 0
49 -2321 1140 0
49 2321 0
49 -1141 2322 0
49 -2322 1141 0
49 2322 0
49 -1142 2323 0
49 -2323 1142 0
49 2323 0
49 -1143 2324 0
49 -2324 1143 0
49 2324 0
49 -1144 2325 0
49 -2325 1144 0
49 2325 0
49 -1145 2326 0
49 -2326 1145 0
49 2326 0
49 -1146 2327 0
49 -2327 1146 0
49 2327 0
49 -1147 2328 0
49 -2328 1147 0
49 2328 0
49 -1148 2329 0
49 -2329 1148 0
49 2329 0
49 -1149 2330 0
49 -2330 1149 0
49 2330 0
49 -1150 2331 0
49 -2331 1150 0
49 2331 0
49 -1151 2332 0
49 -2332 1151 0
49 2332 0
49 -1152 2333 0
49 -2333 1152 0
49 2333 0
49 -1153 2334 0
49 -2334 1153 0
49 2334 0
49 -1154 2335 0
49 -2335 1154 0
49 2335 0
49 -1155 2336 0
49 -2336 1155 0
49 2336 0
49 -1156 2337 0
49 -2337 1156 0
49 2337 0
49 -1157 2338 0
49 -2338 1157 0
49 2338 0
49 -1158 2339 0
49 -2339 1158 0
49 2339 0
49 -1159 2340 0
49 -2340 1159 0
49 2340 0
49 -1160 2341 0
49 -2341 1160 0
49 2341 0
49 -1161 2342 0
49 -2342 1161 0
49 2342 0
49 -1162 2343 0
49 -2343 1162 0
49 2343 0
49 -1163 2344 0
49 -2344 1163 0
49 2344 0
49 -1164 2345 0
49 -2345 1164 0
49 2345 0
49 -1165 2346 0
49 -2346 1165 0
49 2346 0
49 -1166 2347 0
49 -2347 1166 0
49 2347 0
49 -1167 2348 0
49 -2348 1167 0
49 2348 0
49 -1168 2349 0
49 -2349 1168 0
49 2349 0
49 -1169 2350 0
49 -2350 1169 0
49 2350 0
49 -1170 2351 0
49 -2351 1170 0
49 2351 0
49 -1171 2352 0
49 -2352 1171 0
49 2352 0
49 -1172 2353 0
49 -2353 1172 0
49 2353 0
49 -1173 2354 0
49 -2354 1173 0
49 2354 0
49 -1174 2355 0
49 -2355 1174 0
49 2355 0
49 -1175 2356 0
49 -2356 1175 0
49 2356 0
49 -1176 2357 0
49 -2357 1176 0
49 2357 0
49 -1177 2358 0
49 -2358 1177 0
49 2358 0
49 -1178 2359 0
49 -2359 1178 0
49 2359 0
49 -1179 2360 0
49 -2360 1179 0
49 2360 0
49 -1180 2361 0
49 -2361 1180 0
49 2361 0
49 -1 2 0
49 -1 1278 0
49 -1 1279 0
49 -1 1384 0
49 -1 1385 0
49 -1 1430 0
49 -1 1431 0
49 -1 1586 0
49 -1 1587 0
49 -1 1860 0
49 -1 1861 0
49 -1 2000 0
49 -1 2001 0
49 -1 2140 0
49 -1 2141 0
49 -1 2191 0
49 -2 1279 0
49 -2 1342 0
49 -2 1349 0
49 -2 1384 0
49 -2 1385 0
49 -2 1430 0
49 -2 1431 0
49 -2 1586 0
49 -2 1587 0
49 -2 1860 0
49 -2 1861 0
49 -2 2001 0
49 -2 2141 0
49 -3 4 0
49 -3 1298 0
49 -3 1746 0
49 -5 6 0
49 -5 1288 0
49 -5 1289 0
49 -5 1698 0
49 -5 1699 0
49 -5 1878 0
49 -5 1879 0
49 -5 1957 0
49 -5 2096 0
49 -5 2097 0
49 -5 2196 0
49 -5 2197 0
49 -5 2282 0
49 -5 2283 0
49 -5 2332 0
49 -5 2333 0
49 -6 1289 0
49 -6 1419 0
49 -6 1698 0
49 -6 1699 0
49 -6 1879 0
49 -6 2096 0
49 -6 2097 0
49 -6 2196 0
49 -6 2197 0
49 -6 2283 0
49 -6 2332 0
49 -6 2333 0
49 -7 8 0
49 -7 1195 0
49 -7 1228 0
49 -7 1229 0
49 -7 1234 0
49 -7 1235 0
49 -7 1268 0
49 -7 1269 0
49 -7 1272 0
49 -7 1273 0
49 -7 1331 0
49 -7 2360 0
49 -7 2361 0
49 -8 1228 0
49 -8 1229 0
49 -8 1234 0
49 -8 1235 0
49 -8 1268 0
49 -8 1269 0
49 -8 1272 0
49 -8 1273 0
49 -8 2360 0
49 -8 2361 0
49 -9 10 0
49 -11 12 0
49 -11 1194 0
49 -11 1195 0
49 -11 1286 0
49 -11 1295 0
49 -12 1222 0
49 -12 1287 0
49 -12 -1549 1549 0
49 -13 14 0
49 -13 1228 0
49 -13 1229 0
49 -13 1234 0
49 -13 1235 0
49 -13 1268 0
49 -13 1269 0
49 -13 1272 0
49 -13 1273 0
49 -13 1331 0
49 -13 2360 0
49 -13 2361 0
49 -14 1228 0
49 -14 1229 0
49 -14 1234 0
49 -14 1235 0
49 -14 1268 0
49 -14 1269 0
49 -14 1272 0
49 -14 1273 0
49 -14 2360 0
49 -14 2361 0
49 -15 26 0
49 -16 27 0
49 -17 28 0
49 -18 29 0
49 -19 30 0
49 -20 31 0
49 -21 32 0
49 -22 33 0
49 -23 34 0
49 -24 35 0
49 -25 36 0
49 -15 1288 0
49 -15 1289 0
49 -15 1549 0
49 -16 -1549 0
49 -17 -1549 0
49 -18 -1549 0
49 -19 -1549 0
49 -20 -1549 0
49 -21 -1549 0
49 -22 -1549 0
49 -23 -1549 0
49 -24 -1549 0
49 -25 -1549 0
49 -26 1279 0
49 -26 1295 0
49 -37 41 0
49 -38 42 0
49 -39 43 0
49 -40 44 0
49 -45 46 0
49 -46 1498 0
49 -46 1499 0
49 -47 48 0
49 -47 1234 0
49 -47 1268 0
49 -48 1234 0
49 -48 1235 0
49 -48 1268 0
49 -48 1269 0
49 -48 1272 0
49 -48 2360 0
49 -49 50 0
49 -49 1270 0
49 -50 1312 0
49 -50 1364 0
49 -50 1365 0
49 -50 1375 0
49 -50 1975 0
49 -51 52 0
49 -51 1448 0
49 -52 1394 0
49 -53 54 0
49 -53 1268 0
49 -54 1268 0
49 -54 1269 0
49 -54 1272 0
49 -54 2360 0
49 -55 56 0
49 -55 1840 0
49 -56 1652 0
49 -56 2116 0
49 -57 58 0
49 -57 1279 0
49 -57 1498 0
49 -57 2359 0
49 -58 1424 0
49 -58 1425 0
49 -58 1488 0
49 -58 1498 0
49 -59 82 0
49 -60 71 0
49 -61 72 0
49 -62 73 0
49 -63 74 0
49 -64 75 0
49 -65 76 0
49 -66 77 0
49 -67 78 0
49 -68 79 0
49 -69 80 0
49 -70 81 0
49 -71 1287 0
49 -72 1287 0
49 -73 1287 0
49 -74 1287 0
49 -75 1287 0
49 -76 1287 0
49 -77 1287 0
49 -78 1287 0
49 -79 1287 0
49 -80 1287 0
49 -81 1287 0
49 -82 1287 0
49 -83 84 0
49 -83 1880 0
49 -84 1486 0
49 -84 1675 0
49 -84 1880 0
49 -85 86 0
49 -86 1328 0
49 -86 1332 0
49 -86 1776 0
49 -87 88 0
49 -88 1272 0
49 -88 2360 0
49 -89 90 0
49 -89 1974 0
49 -90 1313 0
49 -90 1364 0
49 -91 92 0
49 -91 2360 0
49 -92 2360 0
49 -92 2361 0
49 -93 94 0
49 -93 1550 0
49 -94 1312 0
49 -94 1342 0
49 -95 96 0
49 -95 1460 0
49 -95 1461 0
49 -95 1566 0
49 -96 1386 0
49 -96 1387 0
49 -96 1394 0
49 -96 1395 0
49 -96 1460 0
49 -96 1558 0
49 -96 1592 0
49 -97 98 0
49 -97 1331 0
49 -97 1384 0
49 -97 1385 0
49 -97 1430 0
49 -97 1431 0
49 -97 1586 0
49 -97 1587 0
49 -97 1860 0
49 -97 1861 0
49 -97 2001 0
49 -97 2140 0
49 -97 2141 0
49 -97 2191 0
49 -98 1384 0
49 -98 1385 0
49 -98 1430 0
49 -98 1431 0
49 -98 1450 0
49 -98 1451 0
49 -98 1586 0
49 -98 1587 0
49 -98 1860 0
49 -98 1861 0
49 -98 2141 0
49 -99 100 0
49 -99 1388 0
49 -99 1390 0
49 -99 1495 0
49 -99 1822 0
49 -99 2035 0
49 -100 1495 0
49 -100 1519 0
49 -100 1792 0
49 -100 1798 0
49 -101 102 0
49 -101 1290 0
49 -101 1291 0
49 -101 1378 0
49 -101 1379 0
49 -101 1478 0
49 -101 1609 0
49 -102 1291 0
49 -102 1416 0
49 -102 1417 0
49 -102 1649 0
49 -103 104 0
49 -103 1464 0
49 -103 1495 0
49 -103 1522 0
49 -104 1454 0
49 -104 1455 0
49 -104 1790 0
49 -104 1791 0
49 -105 106 0
49 -107 108 0
49 -107 1698 0
49 -107 1699 0
49 -107 1842 0
49 -107 1843 0
49 -107 1878 0
49 -107 1879 0
49 -107 1957 0
49 -107 2096 0
49 -107 2097 0
49 -107 2196 0
49 -107 2197 0
49 -107 2282 0
49 -107 2283 0
49 -107 2332 0
49 -107 2333 0
49 -108 1698 0
49 -108 1699 0
49 -108 1879 0
49 -108 2096 0
49 -108 2097 0
49 -108 2196 0
49 -108 2197 0
49 -108 2283 0
49 -108 2332 0
49 -108 2333 0
49 -109 110 0
49 -110 1648 0
49 -111 112 0
49 -111 1297 0
49 -111 1527 0
49 -111 1585 0
49 -112 1822 0
49 -112 -1825 1825 0
49 -113 114 0
49 -113 1510 0
49 -114 1450 0
49 -114 1451 0
49 -114 1511 0
49 -115 116 0
49 -115 1755 0
49 -115 2134 0
49 -115 2135 0
49 -115 2359 0
49 -116 1369 0
49 -116 1497 0
49 -116 1498 0
49 -116 1499 0
49 -116 1755 0
49 -116 2359 0
49 -117 118 0
49 -119 120 0
49 -119 1329 0
49 -119 1332 0
49 -119 1333 0
49 -119 1764 0
49 -119 1765 0
49 -120 1379 0
49 -120 1777 0
49 -121 126 0
49 -122 127 0
49 -123 128 0
49 -124 129 0
49 -125 130 0
49 -121 1775 0
49 -122 1775 0
49 -123 1775 0
49 -124 1775 0
49 -125 1775 0
49 -126 1342 0
49 -127 1342 0
49 -128 1342 0
49 -129 1342 0
49 -130 1342 0
49 -126 1428 0
49 -127 1428 0
49 -128 1428 0
49 -129 1428 0
49 -130 1428 0
49 -126 1429 0
49 -127 1429 0
49 -128 1429 0
49 -129 1429 0
49 -130 1429 0
49 -131 132 0
49 -132 1974 0
49 -132 1975 0
49 -133 134 0
49 -133 1349 0
49 -133 1550 0
49 -134 1420 0
49 -134 1421 0
49 -135 139 0
49 -136 140 0
49 -137 141 0
49 -138 142 0
49 -135 1490 0
49 -136 1490 0
49 -137 1490 0
49 -138 1490 0
49 -135 1491 0
49 -136 1491 0
49 -137 1491 0
49 -138 1491 0
49 -135 1790 0
49 -136 1790 0
49 -137 1790 0
49 -138 1790 0
49 -143 144 0
49 -143 1740 0
49 -144 1858 0
49 -144 2082 0
49 -144 -2085 2085 0
49 -145 146 0
49 -145 1650 0
49 -145 1651 0
49 -145 1868 0
49 -145 1869 0
49 -145 1880 0
49 -145 1881 0
49 -145 1890 0
49 -145 1891 0
49 -145 1896 0
49 -145 1897 0
49 -145 2070 0
49 -145 2071 0
49 -145 2160 0
49 -145 2161 0
49 -145 2266 0
49 -145 2267 0
49 -145 2300 0
49 -145 2301 0
49 -146 1651 0
49 -146 1807 0
49 -146 1869 0
49 -146 1891 0
49 -146 1897 0
49 -146 2071 0
49 -146 2160 0
49 -146 2161 0
49 -146 2266 0
49 -146 2267 0
49 -146 2300 0
49 -146 2301 0
49 -147 148 0
49 -148 1776 0
49 -149 150 0
49 -149 2360 0
49 -149 2361 0
49 -150 2360 0
49 -150 2361 0
49 -151 152 0
49 -152 1448 0
49 -152 1449 0
49 -153 156 0
49 -154 157 0
49 -155 158 0
49 -153 1667 0
49 -154 1667 0
49 -155 1667 0
49 -153 1689 0
49 -154 1689 0
49 -155 1689 0
49 -153 1694 0
49 -154 1694 0
49 -155 1694 0
49 -153 1695 0
49 -154 1695 0
49 -155 1695 0
49 -153 1723 0
49 -154 1723 0
49 -155 1723 0
49 -156 1688 0
49 -157 1688 0
49 -158 1688 0
49 -156 1748 0
49 -157 1748 0
49 -158 1748 0
49 -156 1749 0
49 -157 1749 0
49 -158 1749 0
49 -159 160 0
49 -159 1748 0
49 -159 1749 0
49 -159 1753 0
49 -159 1846 0
49 -159 1847 0
49 -159 2021 0
49 -159 2153 0
49 -159 2232 0
49 -159 2233 0
49 -159 2276 0
49 -159 2277 0
49 -159 2319 0
49 -159 2334 0
49 -159 2335 0
49 -160 1814 0
49 -160 1815 0
49 -160 1846 0
49 -160 1847 0
49 -160 2233 0
49 -160 2277 0
49 -160 2334 0
49 -160 2335 0
49 -161 168 0
49 -162 169 0
49 -163 170 0
49 -164 171 0
49 -165 172 0
49 -166 173 0
49 -167 174 0
49 -175 176 0
49 -175 1420 0
49 -175 1556 0
49 -175 1628 0
49 -175 1631 0
49 -175 1702 0
49 -175 1703 0
49 -175 1820 0
49 -175 1877 0
49 -175 2136 0
49 -175 2137 0
49 -176 1652 0
49 -176 1653 0
49 -176 2125 0
49 -177 178 0
49 -177 1394 0
49 -177 1527 0
49 -177 1558 0
49 -178 1413 0
49 -178 1592 0
49 -179 180 0
49 -179 1828 0
49 -180 1462 0
49 -180 1598 0
49 -180 1602 0
49 -180 1617 0
49 -180 1828 0
49 -181 182 0
49 -181 2121 0
49 -181 2196 0
49 -181 2197 0
49 -182 1626 0
49 -182 1826 0
49 -182 1827 0
49 -182 2120 0
49 -182 2349 0
49 -183 184 0
49 -183 1974 0
49 -184 1374 0
49 -184 1975 0
49 -185 186 0
49 -185 1656 0
49 -185 1657 0
49 -185 1697 0
49 -185 1840 0
49 -186 1454 0
49 -186 1652 0
49 -186 1923 0
49 -187 188 0
49 -187 1489 0
49 -187 1498 0
49 -187 2357 0
49 -187 2359 0
49 -188 1498 0
49 -188 1755 0
49 -188 2360 0
49 -188 2361 0
49 -189 190 0
49 -189 1511 0
49 -189 1514 0
49 -189 1515 0
49 -190 -1549 1549 0
49 -191 192 0
49 -191 1386 0
49 -191 1387 0
49 -191 1577 0
49 -192 1495 0
49 -192 1505 0
49 -192 -1735 1735 0
49 -193 194 0
49 -194 1488 0
49 -195 196 0
49 -195 1750 0
49 -195 1751 0
49 -195 1768 0
49 -195 1769 0
49 -195 1804 0
49 -195 1805 0
49 -195 1892 0
49 -195 1893 0
49 -195 1946 0
49 -195 1947 0
49 -195 1988 0
49 -195 1989 0
49 -195 1992 0
49 -195 1993 0
49 -195 2056 0
49 -195 2057 0
49 -195 2162 0
49 -195 2163 0
49 -196 1751 0
49 -196 1805 0
49 -196 1893 0
49 -196 1946 0
49 -196 1947 0
49 -196 1988 0
49 -196 1989 0
49 -196 1993 0
49 -196 2001 0
49 -196 2057 0
49 -196 2162 0
49 -196 2163 0
49 -197 198 0
49 -197 1649 0
49 -197 2087 0
49 -198 1647 0
49 -198 2087 0
49 -199 200 0
49 -199 1526 0
49 -199 1527 0
49 -199 1670 0
49 -199 1671 0
49 -199 1693 0
49 -199 1915 0
49 -200 1554 0
49 -200 1915 0
49 -200 2352 0
49 -200 2359 0
49 -201 202 0
49 -201 1413 0
49 -201 1558 0
49 -201 1566 0
49 -201 1790 0
49 -201 1791 0
49 -202 1394 0
49 -202 1457 0
49 -202 1566 0
49 -202 1593 0
49 -203 204 0
49 -204 1430 0
49 -204 1586 0
49 -204 1860 0
49 -204 1916 0
49 -205 206 0
49 -205 1488 0
49 -206 1640 0
49 -206 1641 0
49 -206 -1681 1681 0
49 -206 1826 0
49 -207 209 0
49 -208 210 0
49 -209 1974 0
49 -210 1974 0
49 -211 212 0
49 -212 1450 0
49 -212 1872 0
49 -213 214 0
49 -214 1413 0
49 -214 1520 0
49 -215 216 0
49 -215 1664 0
49 -215 1665 0
49 -215 1953 0
49 -216 1665 0
49 -216 1695 0
49 -216 1843 0
49 -216 -2051 2051 0
49 -217 222 0
49 -218 223 0
49 -219 224 0
49 -220 225 0
49 -221 226 0
49 -217 1873 0
49 -218 1873 0
49 -219 1873 0
49 -220 1873 0
49 -221 1873 0
49 -217 2131 0
49 -218 2131 0
49 -219 2131 0
49 -220 2131 0
49 -221 2131 0
49 -227 228 0
49 -227 2216 0
49 -227 2292 0
49 -228 1760 0
49 -228 2090 0
49 -228 2216 0
49 -228 2217 0
49 -228 2238 0
49 -229 230 0
49 -229 1485 0
49 -229 1899 0
49 -229 1965 0
49 -229 2156 0
49 -229 2326 0
49 -229 2327 0
49 -230 1986 0
49 -231 232 0
49 -231 1592 0
49 -232 1592 0
49 -233 234 0
49 -233 1772 0
49 -233 1773 0
49 -233 1920 0
49 -233 1921 0
49 -233 2042 0
49 -233 2043 0
49 -233 2104 0
49 -233 2105 0
49 -233 2182 0
49 -233 2183 0
49 -233 2271 0
49 -233 2308 0
49 -233 2309 0
49 -233 2316 0
49 -233 2317 0
49 -233 2321 0
49 -234 1772 0
49 -234 1773 0
49 -234 1920 0
49 -234 2042 0
49 -234 2043 0
49 -234 2182 0
49 -234 2308 0
49 -234 2309 0
49 -234 2316 0
49 -234 2317 0
49 -235 236 0
49 -236 1449 0
49 -237 238 0
49 -237 1428 0
49 -237 1429 0
49 -237 1467 0
49 -237 1554 0
49 -237 1555 0
49 -238 1671 0
49 -238 1692 0
49 -238 2353 0
49 -239 240 0
49 -239 2124 0
49 -240 1557 0
49 -240 1631 0
49 -241 242 0
49 -241 1736 0
49 -241 1737 0
49 -241 1990 0
49 -241 1991 0
49 -241 2088 0
49 -241 2089 0
49 -241 2166 0
49 -241 2167 0
49 -241 2186 0
49 -241 2187 0
49 -241 2202 0
49 -241 2203 0
49 -241 2236 0
49 -241 2237 0
49 -241 2296 0
49 -241 2297 0
49 -241 2306 0
49 -241 2307 0
49 -242 1737 0
49 -242 1991 0
49 -242 2089 0
49 -242 2166 0
49 -242 2167 0
49 -242 2187 0
49 -242 2236 0
49 -242 2237 0
49 -242 2296 0
49 -242 2297 0
49 -242 2307 0
49 -242 2331 0
49 -243 244 0
49 -243 1720 0
49 -243 1842 0
49 -244 1843 0
49 -245 246 0
49 -245 1775 0
49 -247 248 0
49 -247 1728 0
49 -248 1722 0
49 -248 1723 0
49 -248 1728 0
49 -248 2030 0
49 -248 2102 0
49 -249 250 0
49 -250 1586 0
49 -250 1860 0
49 -251 252 0
49 -251 1673 0
49 -251 1692 0
49 -252 1550 0
49 -252 1551 0
49 -252 2353 0
49 -253 260 0
49 -254 261 0
49 -255 262 0
49 -256 263 0
49 -257 264 0
49 -258 265 0
49 -259 266 0
49 -253 1458 0
49 -254 1458 0
49 -255 1458 0
49 -256 1458 0
49 -257 1458 0
49 -258 1458 0
49 -259 1458 0
49 -253 1459 0
49 -254 1459 0
49 -255 1459 0
49 -256 1459 0
49 -257 1459 0
49 -258 1459 0
49 -259 1459 0
49 -253 1473 0
49 -254 1473 0
49 -255 1473 0
49 -256 1473 0
49 -257 1473 0
49 -258 1473 0
49 -259 1473 0
49 -253 1634 0
49 -254 1634 0
49 -255 1634 0
49 -256 1634 0
49 -257 1634 0
49 -258 1634 0
49 -259 1634 0
49 -253 1776 0
49 -254 1776 0
49 -255 1776 0
49 -256 1776 0
49 -257 1776 0
49 -258 1776 0
49 -259 1776 0
49 -267 268 0
49 -269 270 0
49 -270 1872 0
49 -271 272 0
49 -271 -2083 2083 0
49 -272 1859 0
49 -272 -2085 2085 0
49 -272 2288 0
49 -272 2289 0
49 -273 274 0
49 -273 1652 0
49 -273 1840 0
49 -274 1652 0
49 -275 276 0
49 -275 1518 0
49 -275 1741 0
49 -275 1824 0
49 -275 1963 0
49 -276 1511 0
49 -276 1824 0
49 -277 278 0
49 -277 1574 0
49 -277 1575 0
49 -277 1638 0
49 -277 1639 0
49 -277 1911 0
49 -277 2005 0
49 -277 2065 0
49 -277 2066 0
49 -277 2067 0
49 -277 2092 0
49 -277 2093 0
49 -277 2118 0
49 -277 2119 0
49 -278 1574 0
49 -278 1575 0
49 -278 1639 0
49 -278 2066 0
49 -278 2067 0
49 -278 2092 0
49 -278 2093 0
49 -278 2118 0
49 -278 2119 0
49 -279 280 0
49 -279 1592 0
49 -281 282 0
49 -281 1606 0
49 -282 1606 0
49 -282 1607 0
49 -283 284 0
49 -283 1522 0
49 -284 1491 0
49 -284 2350 0
49 -285 286 0
49 -285 1550 0
49 -285 1551 0
49 -285 1554 0
49 -285 1670 0
49 -285 1692 0
49 -285 2352 0
49 -286 1554 0
49 -286 1671 0
49 -286 2353 0
49 -287 288 0
49 -288 2106 0
49 -289 290 0
49 -289 1814 0
49 -290 1822 0
49 -290 1824 0
49 -290 1832 0
49 -291 292 0
49 -292 1647 0
49 -292 1777 0
49 -293 295 0
49 -294 296 0
49 -293 2355 0
49 -294 2355 0
49 -295 1522 0
49 -296 1522 0
49 -295 1790 0
49 -296 1790 0
49 -297 298 0
49 -297 1649 0
49 -299 300 0
49 -299 1782 0
49 -299 2109 0
49 -300 1768 0
49 -300 1769 0
49 -300 2106 0
49 -300 2109 0
49 -301 302 0
49 -301 1517 0
49 -301 1745 0
49 -301 1786 0
49 -301 1792 0
49 -301 1905 0
49 -301 2061 0
49 -301 2105 0
49 -302 1872 0
49 -302 1873 0
49 -302 1905 0
49 -302 2039 0
49 -302 2061 0
49 -302 2104 0
49 -303 304 0
49 -303 1726 0
49 -303 2162 0
49 -303 2163 0
49 -303 2227 0
49 -303 2344 0
49 -304 1727 0
49 -304 2241 0
49 -305 306 0
49 -307 308 0
49 -309 310 0
49 -311 312 0
49 -311 1551 0
49 -311 1775 0
49 -312 1551 0
49 -312 2340 0
49 -312 2341 0
49 -313 314 0
49 -313 1740 0
49 -313 2034 0
49 -314 1740 0
49 -314 1741 0
49 -314 2035 0
49 -315 316 0
49 -315 1742 0
49 -315 1839 0
49 -316 1985 0
49 -316 2266 0
49 -316 2267 0
49 -317 318 0
49 -319 320 0
49 -319 2292 0
49 -320 1994 0
49 -320 2292 0
49 -320 2293 0
49 -321 322 0
49 -321 1729 0
49 -321 1871 0
49 -321 1916 0
49 -321 2030 0
49 -322 1916 0
49 -322 1917 0
49 -323 324 0
49 -324 1730 0
49 -324 2223 0
49 -325 327 0
49 -326 328 0
49 -325 1634 0
49 -326 1634 0
49 -325 1636 0
49 -326 1637 0
49 -325 1777 0
49 -326 1777 0
49 -329 330 0
49 -330 1819 0
49 -331 332 0
49 -331 1874 0
49 -331 1875 0
49 -331 1974 0
49 -333 334 0
49 -335 336 0
49 -335 1864 0
49 -335 1865 0
49 -335 1880 0
49 -335 1881 0
49 -335 1938 0
49 -335 1939 0
49 -335 2062 0
49 -335 2063 0
49 -335 2128 0
49 -335 2129 0
49 -335 2150 0
49 -335 2151 0
49 -335 2168 0
49 -335 2169 0
49 -335 2286 0
49 -335 2287 0
49 -335 2314 0
49 -335 2315 0
49 -336 1865 0
49 -336 1939 0
49 -336 2063 0
49 -336 2128 0
49 -336 2129 0
49 -336 2141 0
49 -336 2150 0
49 -336 2151 0
49 -336 2168 0
49 -336 2169 0
49 -336 2286 0
49 -336 2287 0
49 -336 2315 0
49 -337 338 0
49 -337 1824 0
49 -337 2310 0
49 -337 2311 0
49 -338 1740 0
49 -338 2214 0
49 -338 2215 0
49 -339 340 0
49 -339 1670 0
49 -339 1724 0
49 -340 1688 0
49 -340 1725 0
49 -341 342 0
49 -341 1790 0
49 -342 1791 0
49 -342 2350 0
49 -343 344 0
49 -343 1762 0
49 -343 1763 0
49 -343 1954 0
49 -343 1955 0
49 -343 2114 0
49 -343 2115 0
49 -343 2138 0
49 -343 2139 0
49 -343 2144 0
49 -343 2145 0
49 -343 2206 0
49 -343 2207 0
49 -343 2234 0
49 -343 2235 0
49 -343 2240 0
49 -343 2241 0
49 -343 2242 0
49 -343 2243 0
49 -344 1762 0
49 -344 1763 0
49 -344 1955 0
49 -344 2115 0
49 -344 2138 0
49 -344 2139 0
49 -344 2144 0
49 -344 2145 0
49 -344 2206 0
49 -344 2207 0
49 -344 2234 0
49 -344 2235 0
49 -344 2241 0
49 -344 2242 0
49 -344 2243 0
49 -345 346 0
49 -345 1844 0
49 -345 1916 0
49 -345 1917 0
49 -346 1759 0
49 -346 2346 0
49 -347 358 0
49 -348 359 0
49 -349 360 0
49 -350 361 0
49 -351 362 0
49 -352 363 0
49 -353 364 0
49 -354 365 0
49 -355 366 0
49 -356 367 0
49 -357 368 0
49 -358 1974 0
49 -359 1974 0
49 -360 1974 0
49 -361 1974 0
49 -362 1974 0
49 -363 1974 0
49 -364 1974 0
49 -365 1974 0
49 -366 1974 0
49 -367 1974 0
49 -368 1974 0
49 -358 1975 0
49 -359 1975 0
49 -360 1975 0
49 -361 1975 0
49 -362 1975 0
49 -363 1975 0
49 -364 1975 0
49 -365 1975 0
49 -366 1975 0
49 -367 1975 0
49 -368 1975 0
49 -369 370 0
49 -371 372 0
49 -371 1815 0
49 -371 2143 0
49 -371 2210 0
49 -371 2228 0
49 -371 2229 0
49 -371 2231 0
49 -372 1814 0
49 -372 1833 0
49 -372 2003 0
49 -373 374 0
49 -373 1914 0
49 -374 1692 0
49 -374 1693 0
49 -374 2352 0
49 -374 2353 0
49 -374 2357 0
49 -375 376 0
49 -375 1673 0
49 -375 1703 0
49 -375 1876 0
49 -376 1628 0
49 -376 1631 0
49 -376 1876 0
49 -376 2125 0
49 -377 385 0
49 -378 386 0
49 -379 387 0
49 -380 388 0
49 -381 389 0
49 -382 390 0
49 -383 391 0
49 -384 392 0
49 -393 394 0
49 -393 2066 0
49 -393 2118 0
49 -394 2066 0
49 -394 2067 0
49 -394 2092 0
49 -394 2118 0
49 -394 2119 0
49 -395 396 0
49 -396 1731 0
49 -396 -1733 1733 0
49 -396 2223 0
49 -397 400 0
49 -398 401 0
49 -399 402 0
49 -397 1817 0
49 -398 1817 0
49 -399 1817 0
49 -397 1859 0
49 -398 1859 0
49 -399 1859 0
49 -397 1929 0
49 -398 1930 0
49 -399 1931 0
49 -397 1936 0
49 -398 1936 0
49 -399 1936 0
49 -397 1937 0
49 -398 1937 0
49 -399 1937 0
49 -397 2082 0
49 -398 2082 0
49 -399 2082 0
49 -400 1858 0
49 -401 1858 0
49 -402 1858 0
49 -400 -1927 0
49 -401 -1928 0
49 -403 404 0
49 -403 1586 0
49 -403 1587 0
49 -403 1771 0
49 -403 1845 0
49 -404 1845 0
49 -404 2346 0
49 -405 406 0
49 -406 1860 0
49 -407 408 0
49 -407 1741 0
49 -407 1754 0
49 -407 1755 0
49 -407 2035 0
49 -408 1740 0
49 -408 1822 0
49 -409 410 0
49 -409 1665 0
49 -409 1668 0
49 -409 1720 0
49 -409 1809 0
49 -410 -1681 1681 0
49 -410 -1687 1687 0
49 -410 1826 0
49 -410 1844 0
49 -410 1845 0
49 -411 412 0
49 -413 414 0
49 -413 1596 0
49 -413 1597 0
49 -413 1617 0
49 -413 1625 0
49 -413 1643 0
49 -413 1718 0
49 -413 1829 0
49 -415 416 0
49 -415 1836 0
49 -415 1863 0
49 -415 2014 0
49 -416 1837 0
49 -417 421 0
49 -418 422 0
49 -419 423 0
49 -420 424 0
49 -417 1902 0
49 -418 1903 0
49 -419 1904 0
49 -420 -1903 0
49 -417 -1906 0
49 -418 -1907 0
49 -425 426 0
49 -426 -2219 2219 0
49 -427 428 0
49 -427 1757 0
49 -427 2086 0
49 -428 1757 0
49 -428 2086 0
49 -429 437 0
49 -430 438 0
49 -431 439 0
49 -432 440 0
49 -433 441 0
49 -434 442 0
49 -435 436 0
49 -429 1908 0
49 -430 1908 0
49 -431 1908 0
49 -432 1908 0
49 -433 1908 0
49 -434 1908 0
49 -443 444 0
49 -443 1775 0
49 -443 1828 0
49 -443 1829 0
49 -444 1719 0
49 -444 1909 0
49 -445 446 0
49 -447 450 0
49 -448 451 0
49 -449 452 0
49 -453 455 0
49 -454 456 0
49 -457 458 0
49 -457 1911 0
49 -457 2005 0
49 -457 2065 0
49 -457 2066 0
49 -457 2067 0
49 -457 2092 0
49 -457 2093 0
49 -457 2116 0
49 -457 2117 0
49 -457 2118 0
49 -457 2119 0
49 -458 2066 0
49 -458 2067 0
49 -458 2092 0
49 -458 2093 0
49 -458 2118 0
49 -458 2119 0
49 -459 460 0
49 -459 2208 0
49 -459 2338 0
49 -459 2342 0
49 -460 1925 0
49 -460 2208 0
49 -460 2209 0
49 -460 2338 0
49 -460 2339 0
49 -460 2342 0
49 -460 2343 0
49 -461 462 0
49 -461 1718 0
49 -461 1719 0
49 -461 1728 0
49 -461 1729 0
49 -461 1829 0
49 -462 1772 0
49 -462 1773 0
49 -463 464 0
49 -463 1834 0
49 -463 1835 0
49 -463 1874 0
49 -463 1875 0
49 -463 1898 0
49 -463 1899 0
49 -463 1936 0
49 -463 1937 0
49 -463 1943 0
49 -463 1948 0
49 -463 1949 0
49 -463 2068 0
49 -463 2069 0
49 -463 2080 0
49 -463 2081 0
49 -463 2158 0
49 -463 2159 0
49 -464 1834 0
49 -464 1835 0
49 -464 1874 0
49 -464 1875 0
49 -464 1937 0
49 -464 1948 0
49 -464 1949 0
49 -464 2069 0
49 -464 2080 0
49 -464 2081 0
49 -464 2158 0
49 -464 2159 0
49 -465 466 0
49 -465 1757 0
49 -465 2087 0
49 -467 468 0
49 -469 470 0
49 -469 1868 0
49 -469 1869 0
49 -469 1890 0
49 -469 1891 0
49 -469 1896 0
49 -469 1897 0
49 -469 2070 0
49 -469 2071 0
49 -469 2160 0
49 -469 2161 0
49 -469 2266 0
49 -469 2267 0
49 -469 2285 0
49 -469 2300 0
49 -469 2301 0
49 -470 1869 0
49 -470 1891 0
49 -470 1897 0
49 -470 2071 0
49 -470 2160 0
49 -470 2161 0
49 -470 2266 0
49 -470 2267 0
49 -470 2300 0
49 -470 2301 0
49 -470 2315 0
49 -471 472 0
49 -472 1840 0
49 -472 1841 0
49 -472 2268 0
49 -473 474 0
49 -473 1848 0
49 -473 1849 0
49 -473 1994 0
49 -473 1995 0
49 -473 2028 0
49 -473 2029 0
49 -473 2165 0
49 -473 2273 0
49 -473 2292 0
49 -473 2293 0
49 -473 2305 0
49 -473 2350 0
49 -473 2351 0
49 -474 1849 0
49 -474 1945 0
49 -474 1994 0
49 -474 1995 0
49 -474 2029 0
49 -474 2292 0
49 -474 2293 0
49 -475 476 0
49 -475 1728 0
49 -475 1973 0
49 -475 2030 0
49 -476 1729 0
49 -476 1916 0
49 -476 1970 0
49 -476 1971 0
49 -477 479 0
49 -478 480 0
49 -477 1696 0
49 -478 1696 0
49 -477 1844 0
49 -478 1844 0
49 -477 1845 0
49 -478 1845 0
49 -479 1697 0
49 -480 1697 0
49 -479 1840 0
49 -480 1840 0
49 -479 1923 0
49 -480 1923 0
49 -481 482 0
49 -481 1874 0
49 -481 1875 0
49 -482 1819 0
49 -482 1968 0
49 -482 1985 0
49 -483 484 0
49 -483 1704 0
49 -483 1724 0
49 -483 1725 0
49 -483 2050 0
49 -483 2053 0
49 -484 1739 0
49 -484 1842 0
49 -484 1953 0
49 -484 -2051 2051 0
49 -484 2053 0
49 -484 2325 0
49 -485 486 0
49 -485 1688 0
49 -485 1689 0
49 -485 1769 0
49 -486 1725 0
49 -487 488 0
49 -488 -1681 1681 0
49 -488 1826 0
49 -489 490 0
49 -490 1692 0
49 -491 492 0
49 -491 1912 0
49 -491 1913 0
49 -492 1775 0
49 -493 494 0
49 -493 1880 0
49 -493 1881 0
49 -493 1918 0
49 -494 1880 0
49 -495 501 0
49 -496 502 0
49 -497 503 0
49 -498 504 0
49 -499 505 0
49 -500 506 0
49 -501 1722 0
49 -502 1722 0
49 -503 1722 0
49 -504 1722 0
49 -505 1722 0
49 -506 1722 0
49 -501 1723 0
49 -502 1723 0
49 -503 1723 0
49 -504 1723 0
49 -505 1723 0
49 -506 1723 0
49 -501 1826 0
49 -502 1826 0
49 -503 1826 0
49 -504 1826 0
49 -505 1826 0
49 -506 1826 0
49 -507 508 0
49 -508 1768 0
49 -508 1769 0
49 -509 510 0
49 -509 1889 0
49 -509 2292 0
49 -509 2293 0
49 -510 1888 0
49 -510 2025 0
49 -511 512 0
49 -511 2352 0
49 -513 514 0
49 -513 1785 0
49 -513 1846 0
49 -513 1847 0
49 -513 1978 0
49 -513 1979 0
49 -513 1996 0
49 -513 1997 0
49 -513 2146 0
49 -513 2147 0
49 -513 2172 0
49 -513 2173 0
49 -513 2193 0
49 -513 2198 0
49 -513 2199 0
49 -513 2213 0
49 -514 1908 0
49 -514 1909 0
49 -514 1978 0
49 -514 1979 0
49 -514 1996 0
49 -514 1997 0
49 -514 2146 0
49 -514 2147 0
49 -514 2172 0
49 -514 2173 0
49 -514 2198 0
49 -514 2199 0
49 -515 516 0
49 -515 1923 0
49 -516 1841 0
49 -516 1914 0
49 -516 1915 0
49 -516 2117 0
49 -517 518 0
49 -518 2096 0
49 -518 2196 0
49 -518 2332 0
49 -519 520 0
49 -519 1857 0
49 -519 2109 0
49 -520 2106 0
49 -520 2242 0
49 -520 2243 0
49 -521 522 0
49 -521 2125 0
49 -521 2228 0
49 -521 2229 0
49 -522 2124 0
49 -522 2185 0
49 -523 530 0
49 -524 531 0
49 -525 532 0
49 -526 533 0
49 -527 534 0
49 -528 535 0
49 -529 536 0
49 -523 -2054 0
49 -524 -2054 0
49 -525 -2054 0
49 -526 -2054 0
49 -527 -2054 0
49 -528 -2055 0
49 -537 538 0
49 -537 1908 0
49 -539 540 0
49 -540 1810 0
49 -540 1811 0
49 -541 542 0
49 -541 1790 0
49 -542 1725 0
49 -542 1768 0
49 -543 544 0
49 -544 1914 0
49 -545 546 0
49 -545 2104 0
49 -545 2105 0
49 -545 2323 0
49 -546 2146 0
49 -546 2147 0
49 -546 2227 0
49 -547 548 0
49 -548 2030 0
49 -549 550 0
49 -551 554 0
49 -552 553 0
49 -553 2223 0
49 -554 2223 0
49 -555 556 0
49 -555 1941 0
49 -555 1990 0
49 -555 1991 0
49 -555 2088 0
49 -555 2089 0
49 -555 2166 0
49 -555 2167 0
49 -555 2186 0
49 -555 2187 0
49 -555 2236 0
49 -555 2237 0
49 -555 2296 0
49 -555 2297 0
49 -555 2307 0
49 -556 1991 0
49 -556 2089 0
49 -556 2166 0
49 -556 2167 0
49 -556 2187 0
49 -556 2236 0
49 -556 2237 0
49 -556 2296 0
49 -556 2297 0
49 -557 558 0
49 -557 1812 0
49 -557 1813 0
49 -557 1953 0
49 -557 2053 0
49 -558 1843 0
49 -558 2325 0
49 -559 560 0
49 -560 1822 0
49 -561 562 0
49 -561 1968 0
49 -561 2222 0
49 -561 2223 0
49 -563 564 0
49 -563 1798 0
49 -563 2038 0
49 -563 2039 0
49 -563 2104 0
49 -563 2226 0
49 -563 2227 0
49 -564 1787 0
49 -564 1792 0
49 -564 2105 0
49 -564 2172 0
49 -564 2173 0
49 -565 566 0
49 -566 1898 0
49 -566 1986 0
49 -566 2224 0
49 -567 568 0
49 -567 2130 0
49 -568 1872 0
49 -568 2130 0
49 -569 570 0
49 -569 1805 0
49 -569 1876 0
49 -569 1877 0
49 -569 1893 0
49 -569 1946 0
49 -569 1947 0
49 -569 1988 0
49 -569 1989 0
49 -569 1993 0
49 -569 2057 0
49 -569 2162 0
49 -569 2163 0
49 -570 1946 0
49 -570 1947 0
49 -570 1988 0
49 -570 1989 0
49 -570 2162 0
49 -570 2163 0
49 -571 572 0
49 -571 1846 0
49 -571 1847 0
49 -571 2020 0
49 -571 2021 0
49 -571 2152 0
49 -571 2153 0
49 -571 2232 0
49 -571 2233 0
49 -571 2276 0
49 -571 2277 0
49 -571 2318 0
49 -571 2319 0
49 -571 2334 0
49 -571 2335 0
49 -572 1846 0
49 -572 1847 0
49 -572 1978 0
49 -572 1979 0
49 -572 2021 0
49 -572 2153 0
49 -572 2233 0
49 -572 2277 0
49 -572 2319 0
49 -572 2334 0
49 -572 2335 0
49 -573 574 0
49 -573 2356 0
49 -573 2357 0
49 -574 2357 0
49 -575 576 0
49 -577 578 0
49 -577 1999 0
49 -577 2100 0
49 -577 2101 0
49 -577 2122 0
49 -577 2123 0
49 -577 2185 0
49 -577 2214 0
49 -577 2215 0
49 -577 2275 0
49 -577 2279 0
49 -577 2313 0
49 -577 2331 0
49 -578 2100 0
49 -578 2101 0
49 -578 2123 0
49 -578 2214 0
49 -578 2215 0
49 -578 2226 0
49 -578 2227 0
49 -579 580 0
49 -579 2216 0
49 -580 2090 0
49 -580 2216 0
49 -580 2217 0
49 -580 2238 0
49 -580 2292 0
49 -580 2293 0
49 -581 582 0
49 -582 2130 0
49 -582 2138 0
49 -582 2144 0
49 -582 2206 0
49 -582 2234 0
49 -582 2242 0
49 -583 584 0
49 -583 1819 0
49 -583 1896 0
49 -583 1897 0
49 -583 2291 0
49 -584 1819 0
49 -585 586 0
49 -586 2328 0
49 -587 588 0
49 -589 590 0
49 -589 1846 0
49 -589 1847 0
49 -589 1934 0
49 -589 2132 0
49 -591 592 0
49 -592 1920 0
49 -592 2042 0
49 -592 2182 0
49 -592 2308 0
49 -592 2316 0
49 -593 594 0
49 -593 1832 0
49 -593 1833 0
49 -594 1872 0
49 -594 1873 0
49 -595 596 0
49 -597 599 0
49 -598 600 0
49 -599 1970 0
49 -600 1970 0
49 -599 1971 0
49 -600 1971 0
49 -601 602 0
49 -601 1941 0
49 -602 2109 0
49 -602 2255 0
49 -603 604 0
49 -603 1978 0
49 -603 1979 0
49 -603 1996 0
49 -603 1997 0
49 -603 2090 0
49 -603 2091 0
49 -603 2146 0
49 -603 2147 0
49 -603 2172 0
49 -603 2173 0
49 -603 2193 0
49 -603 2198 0
49 -603 2199 0
49 -603 2213 0
49 -604 1978 0
49 -604 1979 0
49 -604 1983 0
49 -604 1996 0
49 -604 1997 0
49 -604 2146 0
49 -604 2147 0
49 -604 2172 0
49 -604 2173 0
49 -604 2198 0
49 -604 2199 0
49 -605 606 0
49 -605 1902 0
49 -605 2271 0
49 -606 1792 0
49 -606 1902 0
49 -607 608 0
49 -607 1968 0
49 -607 2298 0
49 -608 1984 0
49 -608 1985 0
49 -608 2299 0
49 -609 610 0
49 -610 2350 0
49 -611 617 0
49 -612 618 0
49 -613 619 0
49 -614 620 0
49 -615 621 0
49 -616 622 0
49 -617 2178 0
49 -618 2179 0
49 -619 -2179 2180 0
49 -620 -2180 2181 0
49 -621 -2181 0
49 -623 624 0
49 -623 1893 0
49 -623 1946 0
49 -623 1947 0
49 -623 1988 0
49 -623 1989 0
49 -623 1990 0
49 -623 1991 0
49 -623 1992 0
49 -623 1993 0
49 -623 2056 0
49 -623 2057 0
49 -623 2162 0
49 -623 2163 0
49 -624 1902 0
49 -624 1905 0
49 -624 1946 0
49 -624 1947 0
49 -624 1988 0
49 -624 1989 0
49 -624 1993 0
49 -624 2057 0
49 -624 2162 0
49 -624 2163 0
49 -625 626 0
49 -627 628 0
49 -627 1827 0
49 -629 630 0
49 -630 1900 0
49 -630 2098 0
49 -630 2204 0
49 -630 2280 0
49 -631 632 0
49 -631 1889 0
49 -631 2006 0
49 -631 2007 0
49 -631 2025 0
49 -631 -2221 2221 0
49 -631 2337 0
49 -632 -2219 2219 0
49 -632 2311 0
49 -633 634 0
49 -633 1832 0
49 -633 2210 0
49 -634 2137 0
49 -635 636 0
49 -635 1916 0
49 -635 1917 0
49 -635 1966 0
49 -635 1982 0
49 -636 1858 0
49 -637 638 0
49 -637 1957 0
49 -637 2079 0
49 -637 2291 0
49 -638 1971 0
49 -639 640 0
49 -640 1877 0
49 -641 643 0
49 -642 644 0
49 -645 646 0
49 -646 2226 0
49 -646 2227 0
49 -647 648 0
49 -648 2124 0
49 -648 2125 0
49 -649 650 0
49 -649 2049 0
49 -649 2148 0
49 -649 2149 0
49 -649 2276 0
49 -649 2277 0
49 -649 2285 0
49 -649 2329 0
49 -650 2149 0
49 -650 2328 0
49 -651 652 0
49 -653 654 0
49 -653 1844 0
49 -653 1874 0
49 -653 1948 0
49 -653 2080 0
49 -653 2158 0
49 -654 1874 0
49 -654 1875 0
49 -654 1937 0
49 -654 1948 0
49 -654 1949 0
49 -654 2080 0
49 -654 2081 0
49 -654 2158 0
49 -654 2159 0
49 -655 656 0
49 -657 658 0
49 -658 1880 0
49 -658 1888 0
49 -658 1889 0
49 -658 1919 0
49 -659 660 0
49 -660 2116 0
49 -661 662 0
49 -663 664 0
49 -664 2346 0
49 -665 666 0
49 -665 2334 0
49 -666 2334 0
49 -666 2335 0
49 -667 668 0
49 -667 1994 0
49 -667 1995 0
49 -667 2029 0
49 -667 2165 0
49 -667 2273 0
49 -667 2292 0
49 -667 2293 0
49 -667 2305 0
49 -668 1994 0
49 -668 1995 0
49 -668 2292 0
49 -668 2293 0
49 -668 2300 0
49 -668 2301 0
49 -669 671 0
49 -670 672 0
49 -669 2098 0
49 -670 2098 0
49 -669 2099 0
49 -670 2099 0
49 -669 2299 0
49 -670 2299 0
49 -671 1974 0
49 -672 1974 0
49 -671 1975 0
49 -672 1975 0
49 -671 2299 0
49 -672 2299 0
49 -673 674 0
49 -673 1919 0
49 -674 1880 0
49 -675 676 0
49 -675 1872 0
49 -675 1873 0
49 -675 2106 0
49 -675 2109 0
49 -676 2100 0
49 -676 2101 0
49 -676 2109 0
49 -676 2244 0
49 -676 2255 0
49 -677 678 0
49 -679 680 0
49 -679 2066 0
49 -681 682 0
49 -681 2044 0
49 -681 2121 0
49 -681 2214 0
49 -681 2215 0
49 -682 2171 0
49 -682 2349 0
49 -683 684 0
49 -683 1939 0
49 -683 2063 0
49 -683 2104 0
49 -683 2105 0
49 -683 2128 0
49 -683 2129 0
49 -683 2150 0
49 -683 2151 0
49 -683 2168 0
49 -683 2169 0
49 -683 2286 0
49 -683 2287 0
49 -683 2315 0
49 -684 2128 0
49 -684 2129 0
49 -684 2150 0
49 -684 2168 0
49 -684 2169 0
49 -684 2286 0
49 -685 686 0
49 -685 1898 0
49 -685 1899 0
49 -685 1987 0
49 -685 2202 0
49 -685 2203 0
49 -686 1987 0
49 -686 2202 0
49 -686 2203 0
49 -686 2327 0
49 -687 688 0
49 -687 1890 0
49 -687 1891 0
49 -687 1896 0
49 -687 1897 0
49 -687 2070 0
49 -687 2071 0
49 -687 2160 0
49 -687 2161 0
49 -687 2266 0
49 -687 2267 0
49 -687 2300 0
49 -687 2301 0
49 -688 1891 0
49 -688 1897 0
49 -688 2071 0
49 -688 2160 0
49 -688 2161 0
49 -688 2222 0
49 -688 2223 0
49 -688 2266 0
49 -688 2267 0
49 -688 2300 0
49 -688 2301 0
49 -689 690 0
49 -689 1945 0
49 -689 2047 0
49 -689 2090 0
49 -689 2091 0
49 -689 2134 0
49 -689 2135 0
49 -689 2216 0
49 -689 2217 0
49 -689 2231 0
49 -689 2238 0
49 -689 2239 0
49 -690 2090 0
49 -690 2091 0
49 -690 2123 0
49 -690 2135 0
49 -690 2216 0
49 -690 2217 0
49 -690 2238 0
49 -690 2239 0
49 -691 692 0
49 -692 2206 0
49 -693 694 0
49 -694 1948 0
49 -694 2080 0
49 -694 2158 0
49 -695 696 0
49 -696 2172 0
49 -697 698 0
49 -697 1957 0
49 -697 2096 0
49 -697 2097 0
49 -697 2196 0
49 -697 2197 0
49 -697 2283 0
49 -697 2332 0
49 -697 2333 0
49 -698 2096 0
49 -698 2196 0
49 -698 2197 0
49 -698 2332 0
49 -698 2333 0
49 -699 700 0
49 -701 702 0
49 -701 1948 0
49 -701 1949 0
49 -701 2006 0
49 -701 2136 0
49 -701 2345 0
49 -702 2289 0
49 -702 2345 0
49 -703 704 0
49 -703 1935 0
49 -703 1961 0
49 -703 2014 0
49 -703 2189 0
49 -703 2194 0
49 -704 2008 0
49 -704 2023 0
49 -704 2195 0
49 -705 706 0
49 -705 1895 0
49 -706 1916 0
49 -706 1917 0
49 -707 708 0
49 -707 2024 0
49 -708 2025 0
49 -708 -2219 2219 0
49 -709 710 0
49 -709 1897 0
49 -709 2071 0
49 -709 2116 0
49 -709 2117 0
49 -709 2160 0
49 -709 2161 0
49 -709 2266 0
49 -709 2267 0
49 -709 2300 0
49 -709 2301 0
49 -710 2160 0
49 -710 2161 0
49 -710 2266 0
49 -710 2267 0
49 -710 2300 0
49 -710 2301 0
49 -711 712 0
49 -711 1946 0
49 -711 1947 0
49 -711 1988 0
49 -711 1989 0
49 -711 1992 0
49 -711 1993 0
49 -711 2056 0
49 -711 2057 0
49 -711 2062 0
49 -711 2063 0
49 -711 2162 0
49 -711 2163 0
49 -712 1946 0
49 -712 1947 0
49 -712 1988 0
49 -712 1989 0
49 -712 1993 0
49 -712 2057 0
49 -712 2162 0
49 -712 2163 0
49 -713 714 0
49 -714 2118 0
49 -714 2119 0
49 -715 716 0
49 -715 2071 0
49 -715 2160 0
49 -715 2161 0
49 -715 2266 0
49 -715 2267 0
49 -715 2300 0
49 -715 2301 0
49 -716 2160 0
49 -716 2161 0
49 -716 2266 0
49 -716 2267 0
49 -716 2300 0
49 -716 2301 0
49 -717 718 0
49 -718 1986 0
49 -718 2224 0
49 -719 720 0
49 -719 2098 0
49 -719 2204 0
49 -720 2098 0
49 -720 2099 0
49 -720 2138 0
49 -720 2204 0
49 -720 2205 0
49 -720 2280 0
49 -721 724 0
49 -722 725 0
49 -723 726 0
49 -721 -2175 2176 0
49 -722 -2176 2177 0
49 -723 -2177 0
49 -727 728 0
49 -728 2224 0
49 -729 730 0
49 -729 2005 0
49 -729 2064 0
49 -729 2065 0
49 -729 2066 0
49 -729 2067 0
49 -729 2092 0
49 -729 2093 0
49 -729 2118 0
49 -729 2119 0
49 -730 2065 0
49 -730 2066 0
49 -730 2067 0
49 -730 2092 0
49 -730 2093 0
49 -730 2118 0
49 -730 2119 0
49 -731 732 0
49 -731 2074 0
49 -731 2076 0
49 -731 2077 0
49 -731 2290 0
49 -733 734 0
49 -735 736 0
49 -735 2006 0
49 -736 2031 0
49 -737 738 0
49 -739 740 0
49 -739 2042 0
49 -739 2308 0
49 -739 2316 0
49 -740 2042 0
49 -740 2043 0
49 -740 2182 0
49 -740 2308 0
49 -740 2309 0
49 -740 2316 0
49 -740 2317 0
49 -741 742 0
49 -741 2116 0
49 -742 2224 0
49 -742 2225 0
49 -743 744 0
49 -743 2073 0
49 -743 2077 0
49 -743 2095 0
49 -743 2208 0
49 -743 2209 0
49 -743 2303 0
49 -743 2338 0
49 -743 2339 0
49 -743 2342 0
49 -743 2343 0
49 -744 2080 0
49 -744 2208 0
49 -744 2209 0
49 -744 2338 0
49 -744 2339 0
49 -744 2342 0
49 -745 748 0
49 -746 749 0
49 -747 750 0
49 -745 1966 0
49 -746 1966 0
49 -747 1966 0
49 -751 752 0
49 -752 2049 0
49 -752 2285 0
49 -752 2286 0
49 -752 2287 0
49 -752 2328 0
49 -753 754 0
49 -754 2133 0
49 -754 2347 0
49 -755 756 0
49 -755 1941 0
49 -755 1943 0
49 -755 1948 0
49 -755 1949 0
49 -755 2069 0
49 -755 2080 0
49 -755 2081 0
49 -755 2158 0
49 -755 2159 0
49 -756 1948 0
49 -756 2080 0
49 -756 2158 0
49 -756 2159 0
49 -757 758 0
49 -757 2062 0
49 -757 2063 0
49 -757 2128 0
49 -757 2129 0
49 -757 2150 0
49 -757 2151 0
49 -757 2168 0
49 -757 2169 0
49 -757 2286 0
49 -757 2287 0
49 -757 2292 0
49 -757 2293 0
49 -757 2314 0
49 -757 2315 0
49 -758 2063 0
49 -758 2128 0
49 -758 2129 0
49 -758 2150 0
49 -758 2151 0
49 -758 2168 0
49 -758 2169 0
49 -758 2286 0
49 -758 2287 0
49 -758 2315 0
49 -759 760 0
49 -760 2288 0
49 -760 2289 0
49 -761 762 0
49 -761 1948 0
49 -761 1949 0
49 -761 2068 0
49 -761 2069 0
49 -761 2080 0
49 -761 2081 0
49 -761 2158 0
49 -761 2159 0
49 -762 1948 0
49 -762 1949 0
49 -762 2069 0
49 -762 2073 0
49 -762 2080 0
49 -762 2081 0
49 -762 2158 0
49 -762 2159 0
49 -763 764 0
49 -763 1958 0
49 -763 1959 0
49 -763 2047 0
49 -763 2090 0
49 -763 2091 0
49 -763 2134 0
49 -763 2135 0
49 -763 2216 0
49 -763 2217 0
49 -763 2238 0
49 -763 2239 0
49 -764 2090 0
49 -764 2091 0
49 -764 2135 0
49 -764 2144 0
49 -764 2145 0
49 -764 2216 0
49 -764 2217 0
49 -764 2238 0
49 -764 2239 0
49 -765 766 0
49 -766 1988 0
49 -766 2120 0
49 -766 2162 0
49 -767 768 0
49 -767 2158 0
49 -768 2080 0
49 -768 2158 0
49 -768 2159 0
49 -769 770 0
49 -769 2143 0
49 -770 2003 0
49 -770 2211 0
49 -771 772 0
49 -771 2050 0
49 -771 2324 0
49 -772 2325 0
49 -773 774 0
49 -773 2115 0
49 -773 2138 0
49 -773 2139 0
49 -773 2144 0
49 -773 2145 0
49 -773 2206 0
49 -773 2207 0
49 -773 2234 0
49 -773 2235 0
49 -773 2242 0
49 -773 2243 0
49 -773 2315 0
49 -774 2138 0
49 -774 2139 0
49 -774 2144 0
49 -774 2145 0
49 -774 2206 0
49 -774 2207 0
49 -774 2234 0
49 -774 2235 0
49 -774 2242 0
49 -774 2243 0
49 -775 776 0
49 -775 2096 0
49 -775 2097 0
49 -775 2196 0
49 -775 2197 0
49 -775 2234 0
49 -775 2235 0
49 -775 2282 0
49 -775 2283 0
49 -775 2332 0
49 -775 2333 0
49 -776 2096 0
49 -776 2097 0
49 -776 2196 0
49 -776 2197 0
49 -776 2268 0
49 -776 2269 0
49 -776 2283 0
49 -776 2332 0
49 -776 2333 0
49 -777 778 0
49 -778 1974 0
49 -779 780 0
49 -779 2037 0
49 -779 2189 0
49 -779 2191 0
49 -780 2022 0
49 -781 782 0
49 -781 2035 0
49 -782 2035 0
49 -783 784 0
49 -783 2224 0
49 -784 1986 0
49 -784 1987 0
49 -784 2077 0
49 -785 786 0
49 -785 2082 0
49 -786 1983 0
49 -786 2026 0
49 -786 2027 0
49 -787 788 0
49 -789 790 0
49 -790 1994 0
49 -791 792 0
49 -791 2113 0
49 -792 2102 0
49 -792 2106 0
49 -792 2109 0
49 -793 794 0
49 -795 796 0
49 -795 2079 0
49 -796 2291 0
49 -797 798 0
49 -797 1996 0
49 -797 2146 0
49 -798 1996 0
49 -798 1997 0
49 -798 2146 0
49 -798 2147 0
49 -798 2172 0
49 -798 2198 0
49 -799 800 0
49 -799 2075 0
49 -801 802 0
49 -802 2082 0
49 -802 2084 0
49 -802 2292 0
49 -802 2293 0
49 -803 804 0
49 -803 2226 0
49 -804 2202 0
49 -805 806 0
49 -806 2157 0
49 -806 2204 0
49 -806 2205 0
49 -807 808 0
49 -807 2156 0
49 -808 2162 0
49 -809 810 0
49 -809 2063 0
49 -809 2088 0
49 -809 2089 0
49 -809 2166 0
49 -809 2167 0
49 -809 2187 0
49 -809 2236 0
49 -809 2237 0
49 -809 2296 0
49 -809 2297 0
49 -809 2307 0
49 -810 2089 0
49 -810 2166 0
49 -810 2167 0
49 -810 2222 0
49 -810 2223 0
49 -810 2236 0
49 -810 2237 0
49 -810 2296 0
49 -810 2297 0
49 -811 812 0
49 -811 2056 0
49 -811 2057 0
49 -811 2158 0
49 -811 2159 0
49 -811 2162 0
49 -811 2163 0
49 -812 2057 0
49 -812 2162 0
49 -812 2163 0
49 -813 814 0
49 -813 2292 0
49 -814 2292 0
49 -814 2293 0
49 -815 816 0
49 -815 2146 0
49 -816 2146 0
49 -816 2147 0
49 -816 2172 0
49 -816 2198 0
49 -816 2204 0
49 -816 2205 0
49 -817 818 0
49 -817 2100 0
49 -817 2101 0
49 -817 2118 0
49 -817 2119 0
49 -817 2122 0
49 -817 2123 0
49 -817 2214 0
49 -817 2215 0
49 -817 2274 0
49 -817 2275 0
49 -817 2278 0
49 -817 2279 0
49 -817 2312 0
49 -817 2313 0
49 -817 2330 0
49 -817 2331 0
49 -818 2100 0
49 -818 2101 0
49 -818 2118 0
49 -818 2119 0
49 -818 2123 0
49 -818 2214 0
49 -818 2215 0
49 -818 2275 0
49 -818 2279 0
49 -818 2313 0
49 -818 2331 0
49 -819 820 0
49 -819 2140 0
49 -819 2141 0
49 -819 2191 0
49 -820 2141 0
49 -820 2242 0
49 -820 2243 0
49 -821 822 0
49 -821 2210 0
49 -822 2210 0
49 -822 2224 0
49 -823 824 0
49 -823 2028 0
49 -823 2029 0
49 -823 2064 0
49 -823 2065 0
49 -823 2066 0
49 -823 2067 0
49 -823 2092 0
49 -823 2093 0
49 -823 2118 0
49 -823 2119 0
49 -824 2065 0
49 -824 2066 0
49 -824 2067 0
49 -824 2092 0
49 -824 2093 0
49 -824 2118 0
49 -824 2119 0
49 -825 826 0
49 -827 833 0
49 -828 834 0
49 -829 835 0
49 -830 836 0
49 -831 837 0
49 -832 838 0
49 -839 840 0
49 -839 2152 0
49 -839 2153 0
49 -839 2232 0
49 -839 2233 0
49 -839 2276 0
49 -839 2277 0
49 -839 2318 0
49 -839 2319 0
49 -839 2334 0
49 -839 2335 0
49 -840 2153 0
49 -840 2233 0
49 -840 2277 0
49 -840 2292 0
49 -840 2293 0
49 -840 2319 0
49 -840 2334 0
49 -840 2335 0
49 -841 842 0
49 -843 844 0
49 -844 2310 0
49 -845 846 0
49 -845 -2219 2219 0
49 -845 2310 0
49 -846 -2221 2221 0
49 -847 848 0
49 -847 2165 0
49 -847 2273 0
49 -847 2292 0
49 -847 2293 0
49 -847 2305 0
49 -848 2292 0
49 -848 2293 0
49 -849 850 0
49 -851 852 0
49 -851 2098 0
49 -851 2099 0
49 -851 2155 0
49 -851 2201 0
49 -851 2204 0
49 -851 2205 0
49 -851 2206 0
49 -851 2207 0
49 -851 2228 0
49 -851 2229 0
49 -851 2280 0
49 -851 2281 0
49 -852 2098 0
49 -852 2099 0
49 -852 2204 0
49 -852 2205 0
49 -852 2229 0
49 -852 2238 0
49 -852 2239 0
49 -852 2280 0
49 -852 2281 0
49 -853 854 0
49 -854 2242 0
49 -854 2243 0
49 -855 856 0
49 -856 2189 0
49 -857 858 0
49 -857 2061 0
49 -857 2174 0
49 -858 2104 0
49 -858 2105 0
49 -858 2174 0
49 -859 860 0
49 -859 2226 0
49 -859 2227 0
49 -859 2255 0
49 -860 2106 0
49 -860 2158 0
49 -860 2159 0
49 -860 2241 0
49 -861 862 0
49 -861 2308 0
49 -861 2310 0
49 -861 2316 0
49 -862 2182 0
49 -862 2308 0
49 -862 2309 0
49 -862 2316 0
49 -862 2317 0
49 -863 864 0
49 -863 2341 0
49 -863 2349 0
49 -864 2196 0
49 -864 2197 0
49 -865 866 0
49 -865 2090 0
49 -865 2091 0
49 -865 2134 0
49 -865 2135 0
49 -865 2186 0
49 -865 2187 0
49 -865 2216 0
49 -865 2217 0
49 -865 2238 0
49 -865 2239 0
49 -866 2090 0
49 -866 2091 0
49 -866 2135 0
49 -866 2216 0
49 -866 2217 0
49 -866 2238 0
49 -866 2239 0
49 -867 868 0
49 -867 2122 0
49 -867 2123 0
49 -867 2285 0
49 -867 2295 0
49 -867 2328 0
49 -868 2182 0
49 -868 2183 0
49 -869 872 0
49 -870 873 0
49 -871 874 0
49 -869 2325 0
49 -875 876 0
49 -875 2162 0
49 -875 2163 0
49 -876 2162 0
49 -876 2163 0
49 -877 878 0
49 -877 2130 0
49 -878 2128 0
49 -878 2129 0
49 -879 880 0
49 -879 2104 0
49 -879 2160 0
49 -879 2161 0
49 -880 2104 0
49 -880 2178 0
49 -881 882 0
49 -881 2128 0
49 -881 2129 0
49 -881 2150 0
49 -881 2151 0
49 -881 2168 0
49 -881 2169 0
49 -881 2286 0
49 -881 2287 0
49 -881 2315 0
49 -881 2348 0
49 -881 2349 0
49 -882 2128 0
49 -882 2129 0
49 -882 2130 0
49 -882 2131 0
49 -882 2150 0
49 -882 2151 0
49 -882 2168 0
49 -882 2169 0
49 -882 2286 0
49 -882 2287 0
49 -883 884 0
49 -883 2066 0
49 -883 2067 0
49 -883 2092 0
49 -883 2093 0
49 -883 2118 0
49 -883 2119 0
49 -884 2066 0
49 -884 2067 0
49 -884 2092 0
49 -884 2093 0
49 -884 2118 0
49 -884 2119 0
49 -885 886 0
49 -885 2118 0
49 -886 2092 0
49 -886 2118 0
49 -886 2119 0
49 -887 888 0
49 -887 2080 0
49 -887 2081 0
49 -887 2082 0
49 -887 2084 0
49 -887 2158 0
49 -887 2159 0
49 -888 2080 0
49 -888 2081 0
49 -888 2158 0
49 -888 2159 0
49 -888 2316 0
49 -888 2317 0
49 -889 890 0
49 -889 2160 0
49 -889 2161 0
49 -889 2266 0
49 -889 2267 0
49 -889 2276 0
49 -889 2277 0
49 -889 2300 0
49 -889 2301 0
49 -890 2160 0
49 -890 2161 0
49 -890 2266 0
49 -890 2267 0
49 -890 2300 0
49 -890 2301 0
49 -891 892 0
49 -891 2077 0
49 -891 2095 0
49 -891 2208 0
49 -891 2209 0
49 -891 2303 0
49 -891 2338 0
49 -891 2339 0
49 -891 2342 0
49 -891 2343 0
49 -892 2092 0
49 -892 2093 0
49 -892 2208 0
49 -892 2209 0
49 -892 2338 0
49 -892 2339 0
49 -892 2342 0
49 -892 2343 0
49 -893 894 0
49 -893 2078 0
49 -894 2238 0
49 -894 2239 0
49 -895 896 0
49 -895 2079 0
49 -895 2095 0
49 -895 2208 0
49 -895 2209 0
49 -895 2303 0
49 -895 2338 0
49 -895 2339 0
49 -895 2342 0
49 -895 2343 0
49 -896 2208 0
49 -896 2209 0
49 -896 2338 0
49 -896 2339 0
49 -896 2340 0
49 -896 2341 0
49 -896 2342 0
49 -896 2343 0
49 -897 898 0
49 -897 2092 0
49 -897 2093 0
49 -898 2291 0
49 -898 2308 0
49 -898 2309 0
49 -899 900 0
49 -899 2158 0
49 -900 2158 0
49 -900 2159 0
49 -901 903 0
49 -902 904 0
49 -905 906 0
49 -906 2198 0
49 -907 908 0
49 -907 2166 0
49 -907 2167 0
49 -907 2187 0
49 -907 2236 0
49 -907 2237 0
49 -907 2296 0
49 -907 2297 0
49 -907 2307 0
49 -908 2166 0
49 -908 2167 0
49 -908 2236 0
49 -908 2237 0
49 -908 2296 0
49 -909 910 0
49 -909 2216 0
49 -910 2216 0
49 -910 2217 0
49 -910 2238 0
49 -911 912 0
49 -911 2118 0
49 -912 2118 0
49 -912 2119 0
49 -913 914 0
49 -913 2208 0
49 -913 2209 0
49 -913 2303 0
49 -913 2338 0
49 -913 2339 0
49 -913 2340 0
49 -913 2341 0
49 -913 2342 0
49 -913 2343 0
49 -914 2208 0
49 -914 2209 0
49 -914 2327 0
49 -914 2338 0
49 -914 2339 0
49 -914 2342 0
49 -914 2343 0
49 -915 916 0
49 -915 2196 0
49 -915 2332 0
49 -916 2196 0
49 -916 2197 0
49 -916 2332 0
49 -916 2333 0
49 -917 918 0
49 -917 2204 0
49 -918 2204 0
49 -918 2205 0
49 -918 2280 0
49 -919 920 0
49 -920 2206 0
49 -920 2214 0
49 -921 922 0
49 -923 924 0
49 -925 928 0
49 -926 929 0
49 -927 930 0
49 -928 2244 0
49 -929 2245 0
49 -930 2246 0
49 -931 932 0
49 -932 2141 0
49 -933 934 0
49 -933 2138 0
49 -933 2139 0
49 -933 2144 0
49 -933 2145 0
49 -933 2182 0
49 -933 2183 0
49 -933 2206 0
49 -933 2207 0
49 -933 2234 0
49 -933 2235 0
49 -933 2242 0
49 -933 2243 0
49 -934 2138 0
49 -934 2139 0
49 -934 2144 0
49 -934 2145 0
49 -934 2206 0
49 -934 2207 0
49 -934 2226 0
49 -934 2227 0
49 -934 2234 0
49 -934 2235 0
49 -934 2242 0
49 -934 2243 0
49 -935 936 0
49 -936 2160 0
49 -936 2161 0
49 -937 938 0
49 -938 2166 0
49 -939 940 0
49 -940 2341 0
49 -941 942 0
49 -941 2127 0
49 -941 2214 0
49 -941 2215 0
49 -941 2275 0
49 -941 2279 0
49 -941 2313 0
49 -941 2331 0
49 -942 2214 0
49 -942 2215 0
49 -943 944 0
49 -945 946 0
49 -945 2130 0
49 -946 2130 0
49 -947 948 0
49 -948 2150 0
49 -948 2168 0
49 -948 2286 0
49 -949 950 0
49 -950 2224 0
49 -951 952 0
49 -951 2174 0
49 -951 2178 0
49 -951 2346 0
49 -952 2357 0
49 -953 954 0
49 -953 2158 0
49 -953 2159 0
49 -953 2216 0
49 -953 2217 0
49 -953 2238 0
49 -953 2239 0
49 -954 2216 0
49 -954 2217 0
49 -954 2238 0
49 -954 2239 0
49 -955 956 0
49 -955 2289 0
49 -955 2323 0
49 -955 2345 0
49 -956 2226 0
49 -957 958 0
49 -957 2144 0
49 -957 2206 0
49 -957 2216 0
49 -957 2234 0
49 -957 2242 0
49 -958 2144 0
49 -958 2145 0
49 -958 2206 0
49 -958 2207 0
49 -958 2234 0
49 -958 2235 0
49 -958 2242 0
49 -958 2243 0
49 -959 960 0
49 -959 2191 0
49 -961 962 0
49 -961 2191 0
49 -963 964 0
49 -963 2206 0
49 -963 2234 0
49 -963 2242 0
49 -964 2206 0
49 -964 2207 0
49 -964 2234 0
49 -964 2235 0
49 -964 2242 0
49 -964 2243 0
49 -965 966 0
49 -966 2172 0
49 -966 2198 0
49 -967 968 0
49 -967 2285 0
49 -969 970 0
49 -969 2168 0
49 -970 2168 0
49 -970 2169 0
49 -970 2286 0
49 -971 972 0
49 -971 2232 0
49 -971 2233 0
49 -971 2276 0
49 -971 2277 0
49 -971 2318 0
49 -971 2319 0
49 -971 2334 0
49 -971 2335 0
49 -972 2233 0
49 -972 2277 0
49 -972 2319 0
49 -972 2334 0
49 -972 2335 0
49 -973 974 0
49 -973 2200 0
49 -973 2201 0
49 -973 2204 0
49 -973 2205 0
49 -973 2222 0
49 -973 2223 0
49 -973 2228 0
49 -973 2229 0
49 -973 2280 0
49 -973 2281 0
49 -974 2201 0
49 -974 2204 0
49 -974 2205 0
49 -974 2229 0
49 -974 2280 0
49 -974 2281 0
49 -975 976 0
49 -976 2224 0
49 -977 978 0
49 -977 2292 0
49 -978 2226 0
49 -978 2227 0
49 -979 980 0
49 -979 2266 0
49 -979 2300 0
49 -980 2266 0
49 -980 2267 0
49 -980 2300 0
49 -980 2301 0
49 -981 982 0
49 -983 984 0
49 -983 2272 0
49 -983 2273 0
49 -983 2292 0
49 -983 2293 0
49 -983 2305 0
49 -983 2337 0
49 -984 2273 0
49 -984 2292 0
49 -984 2293 0
49 -985 986 0
49 -985 2236 0
49 -986 2224 0
49 -986 2236 0
49 -986 2237 0
49 -986 2296 0
49 -987 988 0
49 -988 2286 0
49 -989 990 0
49 -989 2208 0
49 -989 2209 0
49 -989 2340 0
49 -989 2348 0
49 -991 992 0
49 -991 2196 0
49 -991 2198 0
49 -992 2198 0
49 -992 2199 0
49 -992 2206 0
49 -992 2207 0
49 -993 997 0
49 -994 998 0
49 -995 999 0
49 -996 1000 0
49 -1001 1002 0
49 -1001 2308 0
49 -1001 2316 0
49 -1002 2308 0
49 -1002 2309 0
49 -1002 2316 0
49 -1002 2317 0
49 -1003 1004 0
49 -1004 2288 0
49 -1004 2289 0
49 -1005 1006 0
49 -1005 2236 0
49 -1005 2237 0
49 -1005 2296 0
49 -1005 2297 0
49 -1005 2307 0
49 -1006 2236 0
49 -1006 2237 0
49 -1006 2296 0
49 -1006 2297 0
49 -1007 1008 0
49 -1008 2195 0
49 -1009 1010 0
49 -1010 2357 0
49 -1011 1012 0
49 -1011 2198 0
49 -1011 2199 0
49 -1011 2212 0
49 -1011 2213 0
49 -1012 2198 0
49 -1012 2199 0
49 -1012 2213 0
49 -1012 2332 0
49 -1012 2333 0
49 -1013 1014 0
49 -1015 1016 0
49 -1016 2332 0
49 -1017 1018 0
49 -1019 1020 0
49 -1019 2204 0
49 -1019 2205 0
49 -1019 2228 0
49 -1019 2229 0
49 -1019 2280 0
49 -1019 2281 0
49 -1020 2204 0
49 -1020 2205 0
49 -1020 2229 0
49 -1020 2280 0
49 -1020 2281 0
49 -1021 1022 0
49 -1023 1024 0
49 -1024 2280 0
49 -1025 1026 0
49 -1025 2234 0
49 -1025 2242 0
49 -1026 2234 0
49 -1026 2235 0
49 -1026 2242 0
49 -1026 2243 0
49 -1027 1028 0
49 -1027 2338 0
49 -1028 2328 0
49 -1028 2338 0
49 -1028 2339 0
49 -1028 2342 0
49 -1029 1030 0
49 -1029 2216 0
49 -1031 1032 0
49 -1032 2340 0
49 -1032 2341 0
49 -1033 1034 0
49 -1034 2340 0
49 -1034 2341 0
49 -1035 1036 0
49 -1036 2238 0
49 -1037 1039 0
49 -1038 1040 0
49 -1037 2311 0
49 -1037 2348 0
49 -1038 2348 0
49 -1037 2349 0
49 -1039 2337 0
49 -1039 2352 0
49 -1040 2352 0
49 -1039 2353 0
49 -1040 2353 0
49 -1041 1042 0
49 -1043 1044 0
49 -1043 2352 0
49 -1044 2334 0
49 -1044 2335 0
49 -1045 1046 0
49 -1046 2288 0
49 -1047 1048 0
49 -1047 2280 0
49 -1047 2281 0
49 -1048 2280 0
49 -1048 2281 0
49 -1049 1050 0
49 -1051 1052 0
49 -1051 2277 0
49 -1051 2319 0
49 -1051 2334 0
49 -1051 2335 0
49 -1052 2334 0
49 -1052 2335 0
49 -1053 1054 0
49 -1053 2236 0
49 -1054 2242 0
49 -1054 2352 0
49 -1054 2353 0
49 -1055 1056 0
49 -1056 2296 0
49 -1057 1058 0
49 -1059 1060 0
49 -1059 2255 0
49 -1061 1062 0
49 -1062 2350 0
49 -1063 1074 0
49 -1064 1075 0
49 -1065 1076 0
49 -1066 1077 0
49 -1067 1078 0
49 -1068 1079 0
49 -1069 1080 0
49 -1070 1081 0
49 -1071 1082 0
49 -1072 1083 0
49 -1073 1084 0
49 -1085 1086 0
49 -1086 2300 0
49 -1087 1088 0
49 -1087 2334 0
49 -1087 2340 0
49 -1088 2340 0
49 -1089 1090 0
49 -1089 2308 0
49 -1089 2309 0
49 -1089 2316 0
49 -1089 2317 0
49 -1089 2318 0
49 -1089 2319 0
49 -1089 2321 0
49 -1090 2308 0
49 -1090 2309 0
49 -1090 2316 0
49 -1090 2317 0
49 -1091 1092 0
49 -1091 2292 0
49 -1091 2293 0
49 -1091 2305 0
49 -1092 2292 0
49 -1092 2293 0
49 -1092 2325 0
49 -1093 1094 0
49 -1093 2278 0
49 -1093 2279 0
49 -1093 2296 0
49 -1093 2297 0
49 -1093 2313 0
49 -1093 2330 0
49 -1093 2331 0
49 -1094 2279 0
49 -1094 2331 0
49 -1095 1096 0
49 -1095 2319 0
49 -1095 2334 0
49 -1095 2335 0
49 -1096 2334 0
49 -1096 2335 0
49 -1097 1098 0
49 -1097 2285 0
49 -1097 2313 0
49 -1097 2330 0
49 -1097 2331 0
49 -1098 2331 0
49 -1099 1100 0
49 -1100 2340 0
49 -1100 2341 0
49 -1101 1102 0
49 -1101 2332 0
49 -1101 2333 0
49 -1101 2338 0
49 -1101 2339 0
49 -1102 2332 0
49 -1102 2333 0
49 -1103 1104 0
49 -1103 2294 0
49 -1103 2328 0
49 -1104 2328 0
49 -1105 1106 0
49 -1107 1108 0
49 -1109 1110 0
49 -1110 2296 0
49 -1110 2297 0
49 -1111 1112 0
49 -1113 1114 0
49 -1113 2307 0
49 -1113 2329 0
49 -1114 2328 0
49 -1114 2329 0
49 -1115 1116 0
49 -1117 1118 0
49 -1119 1120 0
49 -1120 2332 0
49 -1121 1122 0
49 -1121 2338 0
49 -1121 2339 0
49 -1121 2342 0
49 -1121 2343 0
49 -1121 2356 0
49 -1121 2357 0
49 -1122 2338 0
49 -1122 2339 0
49 -1122 2342 0
49 -1122 2343 0
49 -1123 1124 0
49 -1124 2352 0
49 -1124 2353 0
49 -1125 1126 0
49 -1126 2345 0
49 -1127 1128 0
49 -1127 2316 0
49 -1128 2316 0
49 -1128 2317 0
49 -1129 1130 0
49 -1131 1132 0
49 -1131 2330 0
49 -1131 2331 0
49 -1131 2348 0
49 -1131 2349 0
49 -1132 2331 0
49 -1133 1134 0
49 -1134 2328 0
49 -1134 2329 0
49 -1135 1136 0
49 -1136 2340 0
49 -1136 2341 0
49 -1137 1138 0
49 -1137 2334 0
49 -1137 2335 0
49 -1138 2334 0
49 -1138 2335 0
49 -1139 1140 0
49 -1140 2359 0
49 -1141 1142 0
49 -1141 2344 0
49 -1141 2345 0
49 -1143 1144 0
49 -1145 1146 0
49 -1146 2328 0
49 -1146 2329 0
49 -1147 1148 0
49 -1149 1150 0
49 -1150 2348 0
49 -1150 2349 0
49 -1151 1152 0
49 -1152 2348 0
49 -1153 1154 0
49 -1155 1156 0
49 -1156 2350 0
49 -1156 2351 0
49 -1157 1158 0
49 -1158 2342 0
49 -1158 2348 0
49 -1159 1160 0
49 -1161 1162 0
49 -1163 1164 0
49 -1164 2350 0
49 -1164 2351 0
49 -1165 1166 0
49 -1166 2352 0
49 -1166 2353 0
49 -1167 1168 0
49 -1168 2350 0
49 -1169 1170 0
49 -1171 1172 0
49 -1173 1174 0
49 -1173 2358 0
49 -1173 2359 0
49 -1174 2359 0
49 -1175 1176 0
49 -1177 1178 0
49 -1178 2360 0
49 -1178 2361 0
49 -1179 1180 0
49 -1 2368 0
49 -2 2381 0
49 -3 2406 0
49 -4 2395 0
49 -5 2368 0
49 -6 2381 0
49 -7 2373 0
49 -8 2386 0
49 -9 2409 0
49 -10 2398 0
49 -11 2369 0
49 -12 2382 0
49 -13 2371 0
49 -14 2384 0
49 -15 2368 0
49 -16 2400 0
49 -17 2401 0
49 -18 2402 0
49 -19 2403 0
49 -20 2404 0
49 -21 2405 0
49 -22 2406 0
49 -23 2407 0
49 -24 2408 0
49 -25 2409 0
49 -26 2381 0
49 -27 2388 0
49 -28 2389 0
49 -29 2390 0
49 -30 2391 0
49 -31 2393 0
49 -32 2394 0
49 -33 2395 0
49 -34 2396 0
49 -35 2397 0
49 -36 2398 0
49 -37 2405 0
49 -38 2406 0
49 -39 2407 0
49 -40 2408 0
49 -41 2394 0
49 -42 2395 0
49 -43 2396 0
49 -44 2397 0
49 -45 2408 0
49 -46 2397 0
49 -47 2404 0
49 -48 2393 0
49 -49 2400 0
49 -50 2388 0
49 -51 2408 0
49 -52 2397 0
49 -53 2405 0
49 -54 2394 0
49 -55 2403 0
49 -56 2391 0
49 -57 2372 0
49 -58 2385 0
49 -59 2362 0
49 -60 2375 0
49 -61 2376 0
49 -62 2377 0
49 -63 2378 0
49 -64 2379 0
49 -65 2380 0
49 -66 2381 0
49 -67 2382 0
49 -68 2383 0
49 -69 2384 0
49 -70 2385 0
49 -71 2362 0
49 -72 2363 0
49 -73 2364 0
49 -74 2365 0
49 -75 2366 0
49 -76 2367 0
49 -77 2368 0
49 -78 2369 0
49 -79 2370 0
49 -80 2371 0
49 -81 2372 0
49 -82 2375 0
49 -83 2399 0
49 -84 2387 0
49 -85 2409 0
49 -86 2398 0
49 -87 2409 0
49 -88 2398 0
49 -89 2405 0
49 -90 2394 0
49 -91 2400 0
49 -92 2388 0
49 -93 2407 0
49 -94 2396 0
49 -95 2362 0
49 -96 2375 0
49 -97 2371 0
49 -98 2384 0
49 -99 2365 0
49 -100 2378 0
49 -101 2362 0
49 -102 2375 0
49 -103 2373 0
49 -104 2386 0
49 -105 2409 0
49 -106 2398 0
49 -107 2370 0
49 -108 2383 0
49 -109 2402 0
49 -110 2390 0
49 -111 2374 0
49 -112 2392 0
49 -113 2371 0
49 -114 2384 0
49 -115 2362 0
49 -116 2375 0
49 -117 2409 0
49 -118 2398 0
49 -119 2362 0
49 -120 2375 0
49 -121 2362 0
49 -122 2363 0
49 -123 2364 0
49 -124 2365 0
49 -125 2366 0
49 -126 2375 0
49 -127 2376 0
49 -128 2377 0
49 -129 2378 0
49 -130 2379 0
49 -131 2406 0
49 -132 2395 0
49 -133 2367 0
49 -134 2380 0
49 -135 2363 0
49 -136 2364 0
49 -137 2365 0
49 -138 2366 0
49 -139 2376 0
49 -140 2377 0
49 -141 2378 0
49 -142 2379 0
49 -143 2404 0
49 -144 2393 0
49 -145 2362 0
49 -146 2375 0
49 -147 2406 0
49 -148 2395 0
49 -149 2362 0
49 -150 2375 0
49 -151 2404 0
49 -152 2393 0
49 -153 2369 0
49 -154 2370 0
49 -155 2371 0
49 -156 2382 0
49 -157 2383 0
49 -158 2384 0
49 -159 2372 0
49 -160 2385 0
49 -161 2403 0
49 -162 2404 0
49 -163 2405 0
49 -164 2406 0
49 -165 2407 0
49 -166 2408 0
49 -167 2409 0
49 -168 2391 0
49 -169 2393 0
49 -170 2394 0
49 -171 2395 0
49 -172 2396 0
49 -173 2397 0
49 -174 2398 0
49 -175 2362 0
49 -176 2375 0
49 -177 2374 0
49 -178 2392 0
49 -179 2399 0
49 -180 2387 0
49 -181 2364 0
49 -182 2377 0
49 -183 2401 0
49 -184 2389 0
49 -185 2362 0
49 -186 2375 0
49 -187 2365 0
49 -188 2378 0
49 -189 2367 0
49 -190 2380 0
49 -191 2366 0
49 -192 2379 0
49 -193 2409 0
49 -194 2398 0
49 -195 2362 0
49 -196 2375 0
49 -197 2369 0
49 -198 2382 0
49 -199 2362 0
49 -200 2375 0
49 -201 2371 0
49 -202 2384 0
49 -203 2409 0
49 -204 2398 0
49 -205 2399 0
49 -206 2387 0
49 -207 2367 0
49 -208 2368 0
49 -209 2380 0
49 -210 2381 0
49 -211 2408 0
49 -212 2397 0
49 -213 2403 0
49 -214 2391 0
49 -215 2362 0
49 -216 2375 0
49 -217 2362 0
49 -218 2363 0
49 -219 2364 0
49 -220 2365 0
49 -221 2366 0
49 -222 2375 0
49 -223 2376 0
49 -224 2377 0
49 -225 2378 0
49 -226 2379 0
49 -227 2405 0
49 -228 2394 0
49 -229 2368 0
49 -230 2381 0
49 -231 2406 0
49 -232 2395 0
49 -233 2374 0
49 -234 2392 0
49 -235 2400 0
49 -236 2388 0
49 -237 2371 0
49 -238 2384 0
49 -239 2402 0
49 -240 2390 0
49 -241 2362 0
49 -242 2375 0
49 -243 2399 0
49 -244 2387 0
49 -245 2368 0
49 -246 2381 0
49 -247 2399 0
49 -248 2387 0
49 -249 2407 0
49 -250 2396 0
49 -251 2366 0
49 -252 2379 0
49 -253 2363 0
49 -254 2364 0
49 -255 2365 0
49 -256 2366 0
49 -257 2367 0
49 -258 2368 0
49 -259 2369 0
49 -260 2376 0
49 -261 2377 0
49 -262 2378 0
49 -263 2379 0
49 -264 2380 0
49 -265 2381 0
49 -266 2382 0
49 -267 2409 0
49 -268 2398 0
49 -269 2409 0
49 -270 2398 0
49 -271 2402 0
49 -272 2390 0
49 -273 2402 0
49 -274 2390 0
49 -275 2372 0
49 -276 2385 0
49 -277 2372 0
49 -278 2385 0
49 -279 2400 0
49 -280 2388 0
49 -281 2403 0
49 -282 2391 0
49 -283 2402 0
49 -284 2390 0
49 -285 2373 0
49 -286 2386 0
49 -287 2409 0
49 -288 2398 0
49 -289 2402 0
49 -290 2390 0
49 -291 2367 0
49 -292 2380 0
49 -293 2370 0
49 -294 2371 0
49 -295 2383 0
49 -296 2384 0
49 -297 2374 0
49 -298 2392 0
49 -299 2366 0
49 -300 2379 0
49 -301 2365 0
49 -302 2378 0
49 -303 2363 0
49 -304 2376 0
49 -305 2409 0
49 -306 2398 0
49 -307 2401 0
49 -308 2389 0
49 -309 2407 0
49 -310 2396 0
49 -311 2374 0
49 -312 2392 0
49 -313 2367 0
49 -314 2380 0
49 -315 2364 0
49 -316 2377 0
49 -317 2409 0
49 -318 2398 0
49 -319 2405 0
49 -320 2394 0
49 -321 2372 0
49 -322 2385 0
49 -323 2369 0
49 -324 2382 0
49 -325 2362 0
49 -326 2363 0
49 -327 2375 0
49 -328 2376 0
49 -329 2373 0
49 -330 2386 0
49 -331 2362 0
49 -332 2375 0
49 -333 2409 0
49 -334 2398 0
49 -335 2362 0
49 -336 2375 0
49 -337 2373 0
49 -338 2386 0
49 -339 2400 0
49 -340 2388 0
49 -341 2405 0
49 -342 2394 0
49 -343 2362 0
49 -344 2375 0
49 -345 2368 0
49 -346 2381 0
49 -347 2376 0
49 -348 2377 0
49 -349 2378 0
49 -350 2379 0
49 -351 2380 0
49 -352 2381 0
49 -353 2382 0
49 -354 2383 0
49 -355 2384 0
49 -356 2385 0
49 -357 2404 0
49 -358 2363 0
49 -359 2364 0
49 -360 2365 0
49 -361 2366 0
49 -362 2367 0
49 -363 2368 0
49 -364 2369 0
49 -365 2370 0
49 -366 2371 0
49 -367 2372 0
49 -368 2393 0
49 -369 2409 0
49 -370 2398 0
49 -371 2370 0
49 -372 2383 0
49 -373 2400 0
49 -374 2388 0
49 -375 2374 0
49 -376 2392 0
49 -377 2401 0
49 -378 2402 0
49 -379 2403 0
49 -380 2404 0
49 -381 2405 0
49 -382 2406 0
49 -383 2407 0
49 -384 2408 0
49 -385 2389 0
49 -386 2390 0
49 -387 2391 0
49 -388 2393 0
49 -389 2394 0
49 -390 2395 0
49 -391 2396 0
49 -392 2397 0
49 -393 2403 0
49 -394 2391 0
49 -395 2362 0
49 -396 2375 0
49 -397 2369 0
49 -398 2370 0
49 -399 2371 0
49 -400 2382 0
49 -401 2383 0
49 -402 2384 0
49 -403 2369 0
49 -404 2382 0
49 -405 2401 0
49 -406 2389 0
49 -407 2363 0
49 -408 2376 0
49 -409 2371 0
49 -410 2384 0
49 -411 2409 0
49 -412 2398 0
49 -413 2367 0
49 -414 2380 0
49 -415 2373 0
49 -416 2386 0
49 -417 2403 0
49 -418 2404 0
49 -419 2405 0
49 -420 2409 0
49 -421 2391 0
49 -422 2393 0
49 -423 2394 0
49 -424 2398 0
49 -425 2409 0
49 -426 2398 0
49 -427 2363 0
49 -428 2376 0
49 -429 2393 0
49 -430 2394 0
49 -431 2395 0
49 -432 2396 0
49 -433 2397 0
49 -434 2398 0
49 -435 2409 0
49 -436 2398 0
49 -437 2404 0
49 -438 2405 0
49 -439 2406 0
49 -440 2407 0
49 -441 2408 0
49 -442 2409 0
49 -443 2368 0
49 -444 2381 0
49 -445 2409 0
49 -446 2398 0
49 -447 2407 0
49 -448 2408 0
49 -449 2409 0
49 -450 2396 0
49 -451 2397 0
49 -452 2398 0
49 -453 2402 0
49 -454 2403 0
49 -455 2390 0
49 -456 2391 0
49 -457 2373 0
49 -458 2386 0
49 -459 2400 0
49 -460 2388 0
49 -461 2362 0
49 -462 2375 0
49 -463 2365 0
49 -464 2378 0
49 -465 2372 0
49 -466 2385 0
49 -467 2409 0
49 -468 2398 0
49 -469 2364 0
49 -470 2377 0
49 -471 2408 0
49 -472 2397 0
49 -473 2365 0
49 -474 2378 0
49 -475 2368 0
49 -476 2381 0
49 -477 2362 0
49 -478 2363 0
49 -479 2375 0
49 -480 2376 0
49 -481 2365 0
49 -482 2378 0
49 -483 2364 0
49 -484 2377 0
49 -485 2372 0
49 -486 2385 0
49 -487 2403 0
49 -488 2391 0
49 -489 2409 0
49 -490 2398 0
49 -491 2362 0
49 -492 2375 0
49 -493 2374 0
49 -494 2392 0
49 -495 2363 0
49 -496 2364 0
49 -497 2365 0
49 -498 2366 0
49 -499 2367 0
49 -500 2400 0
49 -501 2376 0
49 -502 2377 0
49 -503 2378 0
49 -504 2379 0
49 -505 2380 0
49 -506 2388 0
49 -507 2399 0
49 -508 2387 0
49 -509 2369 0
49 -510 2382 0
49 -511 2402 0
49 -512 2390 0
49 -513 2373 0
49 -514 2386 0
49 -515 2364 0
49 -516 2377 0
49 -517 2409 0
49 -518 2398 0
49 -519 2373 0
49 -520 2386 0
49 -521 2368 0
49 -522 2381 0
49 -523 2403 0
49 -524 2404 0
49 -525 2405 0
49 -526 2406 0
49 -527 2407 0
49 -528 2408 0
49 -529 2409 0
49 -530 2391 0
49 -531 2393 0
49 -532 2394 0
49 -533 2395 0
49 -534 2396 0
49 -535 2397 0
49 -536 2398 0
49 -537 2373 0
49 -538 2386 0
49 -539 2402 0
49 -540 2390 0
49 -541 2403 0
49 -542 2391 0
49 -543 2409 0
49 -544 2398 0
49 -545 2365 0
49 -546 2378 0
49 -547 2409 0
49 -548 2398 0
49 -549 2405 0
49 -550 2394 0
49 -551 2370 0
49 -552 2384 0
49 -553 2371 0
49 -554 2383 0
49 -555 2364 0
49 -556 2377 0
49 -557 2367 0
49 -558 2380 0
49 -559 2409 0
49 -560 2398 0
49 -561 2372 0
49 -562 2385 0
49 -563 2362 0
49 -564 2375 0
49 -565 2409 0
49 -566 2398 0
49 -567 2400 0
49 -568 2388 0
49 -569 2369 0
49 -570 2382 0
49 -571 2362 0
49 -572 2375 0
49 -573 2370 0
49 -574 2383 0
49 -575 2364 0
49 -576 2377 0
49 -577 2373 0
49 -578 2386 0
49 -579 2404 0
49 -580 2393 0
49 -581 2409 0
49 -582 2398 0
49 -583 2370 0
49 -584 2383 0
49 -585 2409 0
49 -586 2398 0
49 -587 2406 0
49 -588 2395 0
49 -589 2362 0
49 -590 2375 0
49 -591 2409 0
49 -592 2398 0
49 -593 2363 0
49 -594 2376 0
49 -595 2400 0
49 -596 2388 0
49 -597 2371 0
49 -598 2373 0
49 -599 2384 0
49 -600 2386 0
49 -601 2372 0
49 -602 2385 0
49 -603 2371 0
49 -604 2384 0
49 -605 2373 0
49 -606 2386 0
49 -607 2362 0
49 -608 2375 0
49 -609 2409 0
49 -610 2398 0
49 -611 2404 0
49 -612 2405 0
49 -613 2406 0
49 -614 2407 0
49 -615 2408 0
49 -616 2409 0
49 -617 2393 0
49 -618 2394 0
49 -619 2395 0
49 -620 2396 0
49 -621 2397 0
49 -622 2398 0
49 -623 2364 0
49 -624 2377 0
49 -625 2368 0
49 -626 2381 0
49 -627 2362 0
49 -628 2375 0
49 -629 2409 0
49 -630 2398 0
49 -631 2374 0
49 -632 2392 0
49 -633 2403 0
49 -634 2391 0
49 -635 2362 0
49 -636 2375 0
49 -637 2374 0
49 -638 2392 0
49 -639 2364 0
49 -640 2377 0
49 -641 2403 0
49 -642 2404 0
49 -643 2391 0
49 -644 2393 0
49 -645 2401 0
49 -646 2389 0
49 -647 2408 0
49 -648 2397 0
49 -649 2370 0
49 -650 2383 0
49 -651 2409 0
49 -652 2398 0
49 -653 2400 0
49 -654 2388 0
49 -655 2409 0
49 -656 2398 0
49 -657 2362 0
49 -658 2375 0
49 -659 2409 0
49 -660 2398 0
49 -661 2409 0
49 -662 2398 0
49 -663 2404 0
49 -664 2393 0
49 -665 2407 0
49 -666 2396 0
49 -667 2370 0
49 -668 2383 0
49 -669 2362 0
49 -670 2363 0
49 -671 2375 0
49 -672 2376 0
49 -673 2372 0
49 -674 2385 0
49 -675 2370 0
49 -676 2383 0
49 -677 2409 0
49 -678 2398 0
49 -679 2399 0
49 -680 2387 0
49 -681 2362 0
49 -682 2375 0
49 -683 2374 0
49 -684 2392 0
49 -685 2362 0
49 -686 2375 0
49 -687 2365 0
49 -688 2378 0
49 -689 2369 0
49 -690 2382 0
49 -691 2407 0
49 -692 2396 0
49 -693 2409 0
49 -694 2398 0
49 -695 2403 0
49 -696 2391 0
49 -697 2374 0
49 -698 2392 0
49 -699 2400 0
49 -700 2388 0
49 -701 2362 0
49 -702 2375 0
49 -703 2364 0
49 -704 2377 0
49 -705 2362 0
49 -706 2375 0
49 -707 2404 0
49 -708 2393 0
49 -709 2372 0
49 -710 2385 0
49 -711 2363 0
49 -712 2376 0
49 -713 2363 0
49 -714 2376 0
49 -715 2371 0
49 -716 2384 0
49 -717 2407 0
49 -718 2396 0
49 -719 2402 0
49 -720 2390 0
49 -721 2406 0
49 -722 2407 0
49 -723 2408 0
49 -724 2395 0
49 -725 2396 0
49 -726 2397 0
49 -727 2401 0
49 -728 2389 0
49 -729 2367 0
49 -730 2380 0
49 -731 2365 0
49 -732 2378 0
49 -733 2403 0
49 -734 2391 0
49 -735 2401 0
49 -736 2389 0
49 -737 2401 0
49 -738 2389 0
49 -739 2402 0
49 -740 2390 0
49 -741 2369 0
49 -742 2382 0
49 -743 2374 0
49 -744 2392 0
49 -745 2363 0
49 -746 2364 0
49 -747 2365 0
49 -748 2376 0
49 -749 2377 0
49 -750 2378 0
49 -751 2362 0
49 -752 2375 0
49 -753 2363 0
49 -754 2376 0
49 -755 2374 0
49 -756 2392 0
49 -757 2364 0
49 -758 2377 0
49 -759 2363 0
49 -760 2376 0
49 -761 2362 0
49 -762 2375 0
49 -763 2366 0
49 -764 2379 0
49 -765 2409 0
49 -766 2398 0
49 -767 2402 0
49 -768 2390 0
49 -769 2362 0
49 -770 2375 0
49 -771 2368 0
49 -772 2381 0
49 -773 2366 0
49 -774 2379 0
49 -775 2362 0
49 -776 2375 0
49 -777 2372 0
49 -778 2385 0
49 -779 2368 0
49 -780 2381 0
49 -781 2362 0
49 -782 2375 0
49 -783 2365 0
49 -784 2378 0
49 -785 2367 0
49 -786 2380 0
49 -787 2409 0
49 -788 2398 0
49 -789 2406 0
49 -790 2395 0
49 -791 2366 0
49 -792 2379 0
49 -793 2408 0
49 -794 2397 0
49 -795 2362 0
49 -796 2375 0
49 -797 2404 0
49 -798 2393 0
49 -799 2372 0
49 -800 2385 0
49 -801 2372 0
49 -802 2385 0
49 -803 2408 0
49 -804 2397 0
49 -805 2400 0
49 -806 2388 0
49 -807 2401 0
49 -808 2389 0
49 -809 2371 0
49 -810 2384 0
49 -811 2366 0
49 -812 2379 0
49 -813 2403 0
49 -814 2391 0
49 -815 2405 0
49 -816 2394 0
49 -817 2362 0
49 -818 2375 0
49 -819 2370 0
49 -820 2383 0
49 -821 2404 0
49 -822 2393 0
49 -823 2362 0
49 -824 2375 0
49 -825 2406 0
49 -826 2395 0
49 -827 2404 0
49 -828 2405 0
49 -829 2406 0
49 -830 2407 0
49 -831 2408 0
49 -832 2409 0
49 -833 2393 0
49 -834 2394 0
49 -835 2395 0
49 -836 2396 0
49 -837 2397 0
49 -838 2398 0
49 -839 2363 0
49 -840 2376 0
49 -841 2402 0
49 -842 2390 0
49 -843 2408 0
49 -844 2397 0
49 -845 2400 0
49 -846 2388 0
49 -847 2369 0
49 -848 2382 0
49 -849 2408 0
49 -850 2397 0
49 -851 2368 0
49 -852 2381 0
49 -853 2368 0
49 -854 2381 0
49 -855 2362 0
49 -856 2375 0
49 -857 2374 0
49 -858 2392 0
49 -859 2362 0
49 -860 2375 0
49 -861 2404 0
49 -862 2393 0
49 -863 2363 0
49 -864 2376 0
49 -865 2362 0
49 -866 2375 0
49 -867 2364 0
49 -868 2377 0
49 -869 2371 0
49 -870 2401 0
49 -871 2402 0
49 -872 2384 0
49 -873 2389 0
49 -874 2390 0
49 -875 2367 0
49 -876 2380 0
49 -877 2373 0
49 -878 2386 0
49 -879 2369 0
49 -880 2382 0
49 -881 2370 0
49 -882 2383 0
49 -883 2368 0
49 -884 2381 0
49 -885 2404 0
49 -886 2393 0
49 -887 2369 0
49 -888 2382 0
49 -889 2370 0
49 -890 2383 0
49 -891 2373 0
49 -892 2386 0
49 -893 2367 0
49 -894 2380 0
49 -895 2371 0
49 -896 2384 0
49 -897 2368 0
49 -898 2381 0
49 -899 2401 0
49 -900 2389 0
49 -901 2399 0
49 -902 2409 0
49 -903 2387 0
49 -904 2398 0
49 -905 2408 0
49 -906 2397 0
49 -907 2374 0
49 -908 2392 0
49 -909 2401 0
49 -910 2389 0
49 -911 2400 0
49 -912 2388 0
49 -913 2363 0
49 -914 2376 0
49 -915 2400 0
49 -916 2388 0
49 -917 2404 0
49 -918 2393 0
49 -919 2409 0
49 -920 2398 0
49 -921 2403 0
49 -922 2391 0
49 -923 2409 0
49 -924 2398 0
49 -925 2407 0
49 -926 2408 0
49 -927 2409 0
49 -928 2396 0
49 -929 2397 0
49 -930 2398 0
49 -931 2362 0
49 -932 2375 0
49 -933 2364 0
49 -934 2377 0
49 -935 2399 0
49 -936 2387 0
49 -937 2409 0
49 -938 2398 0
49 -939 2400 0
49 -940 2388 0
49 -941 2374 0
49 -942 2392 0
49 -943 2409 0
49 -944 2398 0
49 -945 2368 0
49 -946 2381 0
49 -947 2409 0
49 -948 2398 0
49 -949 2401 0
49 -950 2389 0
49 -951 2372 0
49 -952 2385 0
49 -953 2370 0
49 -954 2383 0
49 -955 2374 0
49 -956 2392 0
49 -957 2399 0
49 -958 2387 0
49 -959 2373 0
49 -960 2386 0
49 -961 2366 0
49 -962 2379 0
49 -963 2400 0
49 -964 2388 0
49 -965 2409 0
49 -966 2398 0
49 -967 2372 0
49 -968 2385 0
49 -969 2403 0
49 -970 2391 0
49 -971 2367 0
49 -972 2380 0
49 -973 2362 0
49 -974 2375 0
49 -975 2402 0
49 -976 2390 0
49 -977 2407 0
49 -978 2396 0
49 -979 2405 0
49 -980 2394 0
49 -981 2399 0
49 -982 2387 0
49 -983 2363 0
49 -984 2376 0
49 -985 2407 0
49 -986 2396 0
49 -987 2405 0
49 -988 2394 0
49 -989 2371 0
49 -990 2384 0
49 -991 2400 0
49 -992 2388 0
49 -993 2405 0
49 -994 2406 0
49 -995 2407 0
49 -996 2408 0
49 -997 2394 0
49 -998 2395 0
49 -999 2396 0
49 -1000 2397 0
49 -1001 2399 0
49 -1002 2387 0
49 -1003 2370 0
49 -1004 2383 0
49 -1005 2365 0
49 -1006 2378 0
49 -1007 2370 0
49 -1008 2383 0
49 -1009 2362 0
49 -1010 2375 0
49 -1011 2362 0
49 -1012 2375 0
49 -1013 2371 0
49 -1014 2384 0
49 -1015 2408 0
49 -1016 2397 0
49 -1017 2403 0
49 -1018 2391 0
49 -1019 2366 0
49 -1020 2379 0
49 -1021 2401 0
49 -1022 2389 0
49 -1023 2407 0
49 -1024 2396 0
49 -1025 2401 0
49 -1026 2389 0
49 -1027 2408 0
49 -1028 2397 0
49 -1029 2406 0
49 -1030 2395 0
49 -1031 2365 0
49 -1032 2378 0
49 -1033 2406 0
49 -1034 2395 0
49 -1035 2409 0
49 -1036 2398 0
49 -1037 2376 0
49 -1038 2401 0
49 -1039 2363 0
49 -1040 2389 0
49 -1041 2401 0
49 -1042 2389 0
49 -1043 2399 0
49 -1044 2387 0
49 -1045 2409 0
49 -1046 2398 0
49 -1047 2371 0
49 -1048 2384 0
49 -1049 2365 0
49 -1050 2378 0
49 -1051 2374 0
49 -1052 2392 0
49 -1053 2407 0
49 -1054 2396 0
49 -1055 2409 0
49 -1056 2398 0
49 -1057 2400 0
49 -1058 2388 0
49 -1059 2364 0
49 -1060 2377 0
49 -1061 2404 0
49 -1062 2393 0
49 -1063 2399 0
49 -1064 2400 0
49 -1065 2401 0
49 -1066 2402 0
49 -1067 2403 0
49 -1068 2404 0
49 -1069 2405 0
49 -1070 2406 0
49 -1071 2407 0
49 -1072 2408 0
49 -1073 2409 0
49 -1074 2387 0
49 -1075 2388 0
49 -1076 2389 0
49 -1077 2390 0
49 -1078 2391 0
49 -1079 2393 0
49 -1080 2394 0
49 -1081 2395 0
49 -1082 2396 0
49 -1083 2397 0
49 -1084 2398 0
49 -1085 2409 0
49 -1086 2398 0
49 -1087 2407 0
49 -1088 2396 0
49 -1089 2364 0
49 -1090 2377 0
49 -1091 2364 0
49 -1092 2377 0
49 -1093 2366 0
49 -1094 2379 0
49 -1095 2373 0
49 -1096 2386 0
49 -1097 2367 0
49 -1098 2380 0
49 -1099 2401 0
49 -1100 2389 0
49 -1101 2373 0
49 -1102 2386 0
49 -1103 2363 0
49 -1104 2376 0
49 -1105 2402 0
49 -1106 2390 0
49 -1107 2408 0
49 -1108 2397 0
49 -1109 2371 0
49 -1110 2384 0
49 -1111 2409 0
49 -1112 2398 0
49 -1113 2367 0
49 -1114 2380 0
49 -1115 2401 0
49 -1116 2389 0
49 -1117 2371 0
49 -1118 2384 0
49 -1119 2408 0
49 -1120 2397 0
49 -1121 2362 0
49 -1122 2375 0
49 -1123 2362 0
49 -1124 2375 0
49 -1125 2363 0
49 -1126 2376 0
49 -1127 2405 0
49 -1128 2394 0
49 -1129 2406 0
49 -1130 2395 0
49 -1131 2363 0
49 -1132 2376 0
49 -1133 2365 0
49 -1134 2378 0
49 -1135 2406 0
49 -1136 2395 0
49 -1137 2371 0
49 -1138 2384 0
49 -1139 2362 0
49 -1140 2375 0
49 -1141 2366 0
49 -1142 2379 0
49 -1143 2373 0
49 -1144 2386 0
49 -1145 2373 0
49 -1146 2386 0
49 -1147 2406 0
49 -1148 2395 0
49 -1149 2369 0
49 -1150 2382 0
49 -1151 2407 0
49 -1152 2396 0
49 -1153 2409 0
49 -1154 2398 0
49 -1155 2362 0
49 -1156 2375 0
49 -1157 2409 0
49 -1158 2398 0
49 -1159 2408 0
49 -1160 2397 0
49 -1161 2402 0
49 -1162 2390 0
49 -1163 2371 0
49 -1164 2384 0
49 -1165 2401 0
49 -1166 2389 0
49 -1167 2406 0
49 -1168 2395 0
49 -1169 2401 0
49 -1170 2389 0
49 -1171 2408 0
49 -1172 2397 0
49 -1173 2362 0
49 -1174 2375 0
49 -1175 2374 0
49 -1176 2392 0
49 -1177 2364 0
49 -1178 2377 0
49 -1179 2403 0
49 -1180 2391 0
