c Dataset: scen04
c Encoding: DSE
c DecisionVars: 1960
c OrderVars: 0
c CardinalityAuxVars: 4180
c LabelVars: 48
c TotalVars: 6188
c OrderClauses: 0
c CardinalityClauses: 11082
c DistanceClauses: 3794
c LabelLinkClauses: 1960
c SoftClauses: 48
c HardClauses: 16836
c TotalClauses: 16884
p wcnf 6188 16884 49
1 -6141 0
1 -6142 0
1 -6143 0
1 -6144 0
1 -6145 0
1 -6146 0
1 -6147 0
1 -6148 0
1 -6149 0
1 -6150 0
1 -6151 0
1 -6152 0
1 -6153 0
1 -6154 0
1 -6155 0
1 -6156 0
1 -6157 0
1 -6158 0
1 -6159 0
1 -6160 0
1 -6161 0
1 -6162 0
1 -6163 0
1 -6164 0
1 -6165 0
1 -6166 0
1 -6167 0
1 -6168 0
1 -6169 0
1 -6170 0
1 -6171 0
1 -6172 0
1 -6173 0
1 -6174 0
1 -6175 0
1 -6176 0
1 -6177 0
1 -6178 0
1 -6179 0
1 -6180 0
1 -6181 0
1 -6182 0
1 -6183 0
1 -6184 0
1 -6185 0
1 -6186 0
1 -6187 0
1 -6188 0
49 1 0
49 2 0
49 3 4 5 6 0
49 -1967 1961 0
49 -1968 1962 0
49 -1965 1961 0
49 -1966 1962 0
49 -1965 -1967 1962 0
49 -1965 -1968 1963 0
49 -1966 -1967 1963 0
49 -1966 -1968 1964 0
49 -6 1967 0
49 -5 1967 0
49 -5 -6 1968 0
49 -4 1965 0
49 -3 1965 0
49 -3 -4 1966 0
49 -1962 0
49 7 8 9 10 0
49 -1975 1969 0
49 -1976 1970 0
49 -1973 1969 0
49 -1974 1970 0
49 -1973 -1975 1970 0
49 -1973 -1976 1971 0
49 -1974 -1975 1971 0
49 -1974 -1976 1972 0
49 -10 1975 0
49 -9 1975 0
49 -9 -10 1976 0
49 -8 1973 0
49 -7 1973 0
49 -7 -8 1974 0
49 -1970 0
49 11 0
49 12 0
49 13 0
49 14 0
49 15 0
49 16 0
49 17 18 19 20 21 22 0
49 -1986 1977 0
49 -1987 1978 0
49 -1988 1979 0
49 -1983 1977 0
49 -1984 1978 0
49 -1985 1979 0
49 -1983 -1986 1978 0
49 -1983 -1987 1979 0
49 -1983 -1988 1980 0
49 -1984 -1986 1979 0
49 -1984 -1987 1980 0
49 -1984 -1988 1981 0
49 -1985 -1986 1980 0
49 -1985 -1987 1981 0
49 -1985 -1988 1982 0
49 -22 1986 0
49 -1989 1986 0
49 -1990 1987 0
49 -1989 -22 1987 0
49 -1990 -22 1988 0
49 -21 1989 0
49 -20 1989 0
49 -20 -21 1990 0
49 -19 1983 0
49 -1991 1983 0
49 -1992 1984 0
49 -1991 -19 1984 0
49 -1992 -19 1985 0
49 -18 1991 0
49 -17 1991 0
49 -17 -18 1992 0
49 -1978 0
49 23 24 25 26 27 28 0
49 -2002 1993 0
49 -2003 1994 0
49 -2004 1995 0
49 -1999 1993 0
49 -2000 1994 0
49 -2001 1995 0
49 -1999 -2002 1994 0
49 -1999 -2003 1995 0
49 -1999 -2004 1996 0
49 -2000 -2002 1995 0
49 -2000 -2003 1996 0
49 -2000 -2004 1997 0
49 -2001 -2002 1996 0
49 -2001 -2003 1997 0
49 -2001 -2004 1998 0
49 -28 2002 0
49 -2005 2002 0
49 -2006 2003 0
49 -2005 -28 2003 0
49 -2006 -28 2004 0
49 -27 2005 0
49 -26 2005 0
49 -26 -27 2006 0
49 -25 1999 0
49 -2007 1999 0
49 -2008 2000 0
49 -2007 -25 2000 0
49 -2008 -25 2001 0
49 -24 2007 0
49 -23 2007 0
49 -23 -24 2008 0
49 -1994 0
49 29 0
49 30 0
49 31 0
49 32 0
49 33 34 35 36 37 38 39 40 41 42 43 0
49 -2026 2009 0
49 -2027 2010 0
49 -2028 2011 0
49 -2029 2012 0
49 -2030 2013 0
49 -2020 2009 0
49 -2021 2010 0
49 -2022 2011 0
49 -2023 2012 0
49 -2024 2013 0
49 -2025 2014 0
49 -2020 -2026 2010 0
49 -2020 -2027 2011 0
49 -2020 -2028 2012 0
49 -2020 -2029 2013 0
49 -2020 -2030 2014 0
49 -2021 -2026 2011 0
49 -2021 -2027 2012 0
49 -2021 -2028 2013 0
49 -2021 -2029 2014 0
49 -2021 -2030 2015 0
49 -2022 -2026 2012 0
49 -2022 -2027 2013 0
49 -2022 -2028 2014 0
49 -2022 -2029 2015 0
49 -2022 -2030 2016 0
49 -2023 -2026 2013 0
49 -2023 -2027 2014 0
49 -2023 -2028 2015 0
49 -2023 -2029 2016 0
49 -2023 -2030 2017 0
49 -2024 -2026 2014 0
49 -2024 -2027 2015 0
49 -2024 -2028 2016 0
49 -2024 -2029 2017 0
49 -2024 -2030 2018 0
49 -2025 -2026 2015 0
49 -2025 -2027 2016 0
49 -2025 -2028 2017 0
49 -2025 -2029 2018 0
49 -2025 -2030 2019 0
49 -2034 2026 0
49 -2035 2027 0
49 -2031 2026 0
49 -2032 2027 0
49 -2033 2028 0
49 -2031 -2034 2027 0
49 -2031 -2035 2028 0
49 -2032 -2034 2028 0
49 -2032 -2035 2029 0
49 -2033 -2034 2029 0
49 -2033 -2035 2030 0
49 -43 2034 0
49 -42 2034 0
49 -42 -43 2035 0
49 -41 2031 0
49 -2036 2031 0
49 -2037 2032 0
49 -2036 -41 2032 0
49 -2037 -41 2033 0
49 -40 2036 0
49 -39 2036 0
49 -39 -40 2037 0
49 -2041 2020 0
49 -2042 2021 0
49 -2043 2022 0
49 -2038 2020 0
49 -2039 2021 0
49 -2040 2022 0
49 -2038 -2041 2021 0
49 -2038 -2042 2022 0
49 -2038 -2043 2023 0
49 -2039 -2041 2022 0
49 -2039 -2042 2023 0
49 -2039 -2043 2024 0
49 -2040 -2041 2023 0
49 -2040 -2042 2024 0
49 -2040 -2043 2025 0
49 -38 2041 0
49 -2044 2041 0
49 -2045 2042 0
49 -2044 -38 2042 0
49 -2045 -38 2043 0
49 -37 2044 0
49 -36 2044 0
49 -36 -37 2045 0
49 -35 2038 0
49 -2046 2038 0
49 -2047 2039 0
49 -2046 -35 2039 0
49 -2047 -35 2040 0
49 -34 2046 0
49 -33 2046 0
49 -33 -34 2047 0
49 -2010 0
49 44 45 46 47 48 49 50 51 52 53 54 0
49 -2065 2048 0
49 -2066 2049 0
49 -2067 2050 0
49 -2068 2051 0
49 -2069 2052 0
49 -2059 2048 0
49 -2060 2049 0
49 -2061 2050 0
49 -2062 2051 0
49 -2063 2052 0
49 -2064 2053 0
49 -2059 -2065 2049 0
49 -2059 -2066 2050 0
49 -2059 -2067 2051 0
49 -2059 -2068 2052 0
49 -2059 -2069 2053 0
49 -2060 -2065 2050 0
49 -2060 -2066 2051 0
49 -2060 -2067 2052 0
49 -2060 -2068 2053 0
49 -2060 -2069 2054 0
49 -2061 -2065 2051 0
49 -2061 -2066 2052 0
49 -2061 -2067 2053 0
49 -2061 -2068 2054 0
49 -2061 -2069 2055 0
49 -2062 -2065 2052 0
49 -2062 -2066 2053 0
49 -2062 -2067 2054 0
49 -2062 -2068 2055 0
49 -2062 -2069 2056 0
49 -2063 -2065 2053 0
49 -2063 -2066 2054 0
49 -2063 -2067 2055 0
49 -2063 -2068 2056 0
49 -2063 -2069 2057 0
49 -2064 -2065 2054 0
49 -2064 -2066 2055 0
49 -2064 -2067 2056 0
49 -2064 -2068 2057 0
49 -2064 -2069 2058 0
49 -2073 2065 0
49 -2074 2066 0
49 -2070 2065 0
49 -2071 2066 0
49 -2072 2067 0
49 -2070 -2073 2066 0
49 -2070 -2074 2067 0
49 -2071 -2073 2067 0
49 -2071 -2074 2068 0
49 -2072 -2073 2068 0
49 -2072 -2074 2069 0
49 -54 2073 0
49 -53 2073 0
49 -53 -54 2074 0
49 -52 2070 0
49 -2075 2070 0
49 -2076 2071 0
49 -2075 -52 2071 0
49 -2076 -52 2072 0
49 -51 2075 0
49 -50 2075 0
49 -50 -51 2076 0
49 -2080 2059 0
49 -2081 2060 0
49 -2082 2061 0
49 -2077 2059 0
49 -2078 2060 0
49 -2079 2061 0
49 -2077 -2080 2060 0
49 -2077 -2081 2061 0
49 -2077 -2082 2062 0
49 -2078 -2080 2061 0
49 -2078 -2081 2062 0
49 -2078 -2082 2063 0
49 -2079 -2080 2062 0
49 -2079 -2081 2063 0
49 -2079 -2082 2064 0
49 -49 2080 0
49 -2083 2080 0
49 -2084 2081 0
49 -2083 -49 2081 0
49 -2084 -49 2082 0
49 -48 2083 0
49 -47 2083 0
49 -47 -48 2084 0
49 -46 2077 0
49 -2085 2077 0
49 -2086 2078 0
49 -2085 -46 2078 0
49 -2086 -46 2079 0
49 -45 2085 0
49 -44 2085 0
49 -44 -45 2086 0
49 -2049 0
49 55 56 57 0
49 -57 2087 0
49 -2090 2087 0
49 -2091 2088 0
49 -2090 -57 2088 0
49 -2091 -57 2089 0
49 -56 2090 0
49 -55 2090 0
49 -55 -56 2091 0
49 -2088 0
49 58 59 60 0
49 -60 2092 0
49 -2095 2092 0
49 -2096 2093 0
49 -2095 -60 2093 0
49 -2096 -60 2094 0
49 -59 2095 0
49 -58 2095 0
49 -58 -59 2096 0
49 -2093 0
49 61 0
49 62 0
49 63 64 65 0
49 -65 2097 0
49 -2100 2097 0
49 -2101 2098 0
49 -2100 -65 2098 0
49 -2101 -65 2099 0
49 -64 2100 0
49 -63 2100 0
49 -63 -64 2101 0
49 -2098 0
49 66 67 68 0
49 -68 2102 0
49 -2105 2102 0
49 -2106 2103 0
49 -2105 -68 2103 0
49 -2106 -68 2104 0
49 -67 2105 0
49 -66 2105 0
49 -66 -67 2106 0
49 -2103 0
49 69 0
49 70 0
49 71 0
49 72 0
49 73 0
49 74 0
49 75 0
49 76 0
49 77 78 79 80 81 82 83 84 85 86 0
49 -2122 2107 0
49 -2123 2108 0
49 -2124 2109 0
49 -2125 2110 0
49 -2126 2111 0
49 -2117 2107 0
49 -2118 2108 0
49 -2119 2109 0
49 -2120 2110 0
49 -2121 2111 0
49 -2117 -2122 2108 0
49 -2117 -2123 2109 0
49 -2117 -2124 2110 0
49 -2117 -2125 2111 0
49 -2117 -2126 2112 0
49 -2118 -2122 2109 0
49 -2118 -2123 2110 0
49 -2118 -2124 2111 0
49 -2118 -2125 2112 0
49 -2118 -2126 2113 0
49 -2119 -2122 2110 0
49 -2119 -2123 2111 0
49 -2119 -2124 2112 0
49 -2119 -2125 2113 0
49 -2119 -2126 2114 0
49 -2120 -2122 2111 0
49 -2120 -2123 2112 0
49 -2120 -2124 2113 0
49 -2120 -2125 2114 0
49 -2120 -2126 2115 0
49 -2121 -2122 2112 0
49 -2121 -2123 2113 0
49 -2121 -2124 2114 0
49 -2121 -2125 2115 0
49 -2121 -2126 2116 0
49 -2130 2122 0
49 -2131 2123 0
49 -2127 2122 0
49 -2128 2123 0
49 -2129 2124 0
49 -2127 -2130 2123 0
49 -2127 -2131 2124 0
49 -2128 -2130 2124 0
49 -2128 -2131 2125 0
49 -2129 -2130 2125 0
49 -2129 -2131 2126 0
49 -86 2130 0
49 -85 2130 0
49 -85 -86 2131 0
49 -84 2127 0
49 -2132 2127 0
49 -2133 2128 0
49 -2132 -84 2128 0
49 -2133 -84 2129 0
49 -83 2132 0
49 -82 2132 0
49 -82 -83 2133 0
49 -2137 2117 0
49 -2138 2118 0
49 -2134 2117 0
49 -2135 2118 0
49 -2136 2119 0
49 -2134 -2137 2118 0
49 -2134 -2138 2119 0
49 -2135 -2137 2119 0
49 -2135 -2138 2120 0
49 -2136 -2137 2120 0
49 -2136 -2138 2121 0
49 -81 2137 0
49 -80 2137 0
49 -80 -81 2138 0
49 -79 2134 0
49 -2139 2134 0
49 -2140 2135 0
49 -2139 -79 2135 0
49 -2140 -79 2136 0
49 -78 2139 0
49 -77 2139 0
49 -77 -78 2140 0
49 -2108 0
49 87 88 89 90 91 92 93 94 95 96 0
49 -2156 2141 0
49 -2157 2142 0
49 -2158 2143 0
49 -2159 2144 0
49 -2160 2145 0
49 -2151 2141 0
49 -2152 2142 0
49 -2153 2143 0
49 -2154 2144 0
49 -2155 2145 0
49 -2151 -2156 2142 0
49 -2151 -2157 2143 0
49 -2151 -2158 2144 0
49 -2151 -2159 2145 0
49 -2151 -2160 2146 0
49 -2152 -2156 2143 0
49 -2152 -2157 2144 0
49 -2152 -2158 2145 0
49 -2152 -2159 2146 0
49 -2152 -2160 2147 0
49 -2153 -2156 2144 0
49 -2153 -2157 2145 0
49 -2153 -2158 2146 0
49 -2153 -2159 2147 0
49 -2153 -2160 2148 0
49 -2154 -2156 2145 0
49 -2154 -2157 2146 0
49 -2154 -2158 2147 0
49 -2154 -2159 2148 0
49 -2154 -2160 2149 0
49 -2155 -2156 2146 0
49 -2155 -2157 2147 0
49 -2155 -2158 2148 0
49 -2155 -2159 2149 0
49 -2155 -2160 2150 0
49 -2164 2156 0
49 -2165 2157 0
49 -2161 2156 0
49 -2162 2157 0
49 -2163 2158 0
49 -2161 -2164 2157 0
49 -2161 -2165 2158 0
49 -2162 -2164 2158 0
49 -2162 -2165 2159 0
49 -2163 -2164 2159 0
49 -2163 -2165 2160 0
49 -96 2164 0
49 -95 2164 0
49 -95 -96 2165 0
49 -94 2161 0
49 -2166 2161 0
49 -2167 2162 0
49 -2166 -94 2162 0
49 -2167 -94 2163 0
49 -93 2166 0
49 -92 2166 0
49 -92 -93 2167 0
49 -2171 2151 0
49 -2172 2152 0
49 -2168 2151 0
49 -2169 2152 0
49 -2170 2153 0
49 -2168 -2171 2152 0
49 -2168 -2172 2153 0
49 -2169 -2171 2153 0
49 -2169 -2172 2154 0
49 -2170 -2171 2154 0
49 -2170 -2172 2155 0
49 -91 2171 0
49 -90 2171 0
49 -90 -91 2172 0
49 -89 2168 0
49 -2173 2168 0
49 -2174 2169 0
49 -2173 -89 2169 0
49 -2174 -89 2170 0
49 -88 2173 0
49 -87 2173 0
49 -87 -88 2174 0
49 -2142 0
49 97 0
49 98 0
49 99 100 0
49 -99 -100 0
49 101 102 0
49 -101 -102 0
49 103 0
49 104 0
49 105 0
49 106 0
49 107 108 0
49 -107 -108 0
49 109 110 0
49 -109 -110 0
49 111 0
49 112 0
49 113 114 0
49 -113 -114 0
49 115 116 0
49 -115 -116 0
49 117 118 119 120 0
49 -2181 2175 0
49 -2182 2176 0
49 -2179 2175 0
49 -2180 2176 0
49 -2179 -2181 2176 0
49 -2179 -2182 2177 0
49 -2180 -2181 2177 0
49 -2180 -2182 2178 0
49 -120 2181 0
49 -119 2181 0
49 -119 -120 2182 0
49 -118 2179 0
49 -117 2179 0
49 -117 -118 2180 0
49 -2176 0
49 121 122 123 124 0
49 -2189 2183 0
49 -2190 2184 0
49 -2187 2183 0
49 -2188 2184 0
49 -2187 -2189 2184 0
49 -2187 -2190 2185 0
49 -2188 -2189 2185 0
49 -2188 -2190 2186 0
49 -124 2189 0
49 -123 2189 0
49 -123 -124 2190 0
49 -122 2187 0
49 -121 2187 0
49 -121 -122 2188 0
49 -2184 0
49 125 0
49 126 0
49 127 0
49 128 0
49 129 0
49 130 0
49 131 0
49 132 0
49 133 134 0
49 -133 -134 0
49 135 136 0
49 -135 -136 0
49 137 0
49 138 0
49 139 0
49 140 0
49 141 0
49 142 0
49 143 0
49 144 0
49 145 0
49 146 0
49 147 0
49 148 0
49 149 0
49 150 0
49 151 0
49 152 0
49 153 0
49 154 0
49 155 0
49 156 0
49 157 0
49 158 0
49 159 0
49 160 0
49 161 0
49 162 0
49 163 0
49 164 0
49 165 166 167 168 169 0
49 -2199 2191 0
49 -2200 2192 0
49 -2196 2191 0
49 -2197 2192 0
49 -2198 2193 0
49 -2196 -2199 2192 0
49 -2196 -2200 2193 0
49 -2197 -2199 2193 0
49 -2197 -2200 2194 0
49 -2198 -2199 2194 0
49 -2198 -2200 2195 0
49 -169 2199 0
49 -168 2199 0
49 -168 -169 2200 0
49 -167 2196 0
49 -2201 2196 0
49 -2202 2197 0
49 -2201 -167 2197 0
49 -2202 -167 2198 0
49 -166 2201 0
49 -165 2201 0
49 -165 -166 2202 0
49 -2192 0
49 170 171 172 173 174 0
49 -2211 2203 0
49 -2212 2204 0
49 -2208 2203 0
49 -2209 2204 0
49 -2210 2205 0
49 -2208 -2211 2204 0
49 -2208 -2212 2205 0
49 -2209 -2211 2205 0
49 -2209 -2212 2206 0
49 -2210 -2211 2206 0
49 -2210 -2212 2207 0
49 -174 2211 0
49 -173 2211 0
49 -173 -174 2212 0
49 -172 2208 0
49 -2213 2208 0
49 -2214 2209 0
49 -2213 -172 2209 0
49 -2214 -172 2210 0
49 -171 2213 0
49 -170 2213 0
49 -170 -171 2214 0
49 -2204 0
49 175 0
49 176 0
49 177 0
49 178 0
49 179 0
49 180 0
49 181 0
49 182 0
49 183 184 185 186 187 0
49 -2223 2215 0
49 -2224 2216 0
49 -2220 2215 0
49 -2221 2216 0
49 -2222 2217 0
49 -2220 -2223 2216 0
49 -2220 -2224 2217 0
49 -2221 -2223 2217 0
49 -2221 -2224 2218 0
49 -2222 -2223 2218 0
49 -2222 -2224 2219 0
49 -187 2223 0
49 -186 2223 0
49 -186 -187 2224 0
49 -185 2220 0
49 -2225 2220 0
49 -2226 2221 0
49 -2225 -185 2221 0
49 -2226 -185 2222 0
49 -184 2225 0
49 -183 2225 0
49 -183 -184 2226 0
49 -2216 0
49 188 189 190 191 192 0
49 -2235 2227 0
49 -2236 2228 0
49 -2232 2227 0
49 -2233 2228 0
49 -2234 2229 0
49 -2232 -2235 2228 0
49 -2232 -2236 2229 0
49 -2233 -2235 2229 0
49 -2233 -2236 2230 0
49 -2234 -2235 2230 0
49 -2234 -2236 2231 0
49 -192 2235 0
49 -191 2235 0
49 -191 -192 2236 0
49 -190 2232 0
49 -2237 2232 0
49 -2238 2233 0
49 -2237 -190 2233 0
49 -2238 -190 2234 0
49 -189 2237 0
49 -188 2237 0
49 -188 -189 2238 0
49 -2228 0
49 193 194 0
49 -193 -194 0
49 195 196 0
49 -195 -196 0
49 197 0
49 198 0
49 199 200 201 0
49 -201 2239 0
49 -2242 2239 0
49 -2243 2240 0
49 -2242 -201 2240 0
49 -2243 -201 2241 0
49 -200 2242 0
49 -199 2242 0
49 -199 -200 2243 0
49 -2240 0
49 202 203 204 0
49 -204 2244 0
49 -2247 2244 0
49 -2248 2245 0
49 -2247 -204 2245 0
49 -2248 -204 2246 0
49 -203 2247 0
49 -202 2247 0
49 -202 -203 2248 0
49 -2245 0
49 205 0
49 206 0
49 207 0
49 208 0
49 209 0
49 210 0
49 211 0
49 212 0
49 213 214 215 216 217 218 219 220 221 0
49 -2263 2249 0
49 -2264 2250 0
49 -2265 2251 0
49 -2266 2252 0
49 -2258 2249 0
49 -2259 2250 0
49 -2260 2251 0
49 -2261 2252 0
49 -2262 2253 0
49 -2258 -2263 2250 0
49 -2258 -2264 2251 0
49 -2258 -2265 2252 0
49 -2258 -2266 2253 0
49 -2259 -2263 2251 0
49 -2259 -2264 2252 0
49 -2259 -2265 2253 0
49 -2259 -2266 2254 0
49 -2260 -2263 2252 0
49 -2260 -2264 2253 0
49 -2260 -2265 2254 0
49 -2260 -2266 2255 0
49 -2261 -2263 2253 0
49 -2261 -2264 2254 0
49 -2261 -2265 2255 0
49 -2261 -2266 2256 0
49 -2262 -2263 2254 0
49 -2262 -2264 2255 0
49 -2262 -2265 2256 0
49 -2262 -2266 2257 0
49 -2269 2263 0
49 -2270 2264 0
49 -2267 2263 0
49 -2268 2264 0
49 -2267 -2269 2264 0
49 -2267 -2270 2265 0
49 -2268 -2269 2265 0
49 -2268 -2270 2266 0
49 -221 2269 0
49 -220 2269 0
49 -220 -221 2270 0
49 -219 2267 0
49 -218 2267 0
49 -218 -219 2268 0
49 -2274 2258 0
49 -2275 2259 0
49 -2271 2258 0
49 -2272 2259 0
49 -2273 2260 0
49 -2271 -2274 2259 0
49 -2271 -2275 2260 0
49 -2272 -2274 2260 0
49 -2272 -2275 2261 0
49 -2273 -2274 2261 0
49 -2273 -2275 2262 0
49 -217 2274 0
49 -216 2274 0
49 -216 -217 2275 0
49 -215 2271 0
49 -2276 2271 0
49 -2277 2272 0
49 -2276 -215 2272 0
49 -2277 -215 2273 0
49 -214 2276 0
49 -213 2276 0
49 -213 -214 2277 0
49 -2250 0
49 222 223 224 225 226 227 228 229 230 0
49 -2292 2278 0
49 -2293 2279 0
49 -2294 2280 0
49 -2295 2281 0
49 -2287 2278 0
49 -2288 2279 0
49 -2289 2280 0
49 -2290 2281 0
49 -2291 2282 0
49 -2287 -2292 2279 0
49 -2287 -2293 2280 0
49 -2287 -2294 2281 0
49 -2287 -2295 2282 0
49 -2288 -2292 2280 0
49 -2288 -2293 2281 0
49 -2288 -2294 2282 0
49 -2288 -2295 2283 0
49 -2289 -2292 2281 0
49 -2289 -2293 2282 0
49 -2289 -2294 2283 0
49 -2289 -2295 2284 0
49 -2290 -2292 2282 0
49 -2290 -2293 2283 0
49 -2290 -2294 2284 0
49 -2290 -2295 2285 0
49 -2291 -2292 2283 0
49 -2291 -2293 2284 0
49 -2291 -2294 2285 0
49 -2291 -2295 2286 0
49 -2298 2292 0
49 -2299 2293 0
49 -2296 2292 0
49 -2297 2293 0
49 -2296 -2298 2293 0
49 -2296 -2299 2294 0
49 -2297 -2298 2294 0
49 -2297 -2299 2295 0
49 -230 2298 0
49 -229 2298 0
49 -229 -230 2299 0
49 -228 2296 0
49 -227 2296 0
49 -227 -228 2297 0
49 -2303 2287 0
49 -2304 2288 0
49 -2300 2287 0
49 -2301 2288 0
49 -2302 2289 0
49 -2300 -2303 2288 0
49 -2300 -2304 2289 0
49 -2301 -2303 2289 0
49 -2301 -2304 2290 0
49 -2302 -2303 2290 0
49 -2302 -2304 2291 0
49 -226 2303 0
49 -225 2303 0
49 -225 -226 2304 0
49 -224 2300 0
49 -2305 2300 0
49 -2306 2301 0
49 -2305 -224 2301 0
49 -2306 -224 2302 0
49 -223 2305 0
49 -222 2305 0
49 -222 -223 2306 0
49 -2279 0
49 231 0
49 232 0
49 233 0
49 234 0
49 235 0
49 236 0
49 237 238 239 240 241 242 243 244 0
49 -2319 2307 0
49 -2320 2308 0
49 -2321 2309 0
49 -2322 2310 0
49 -2315 2307 0
49 -2316 2308 0
49 -2317 2309 0
49 -2318 2310 0
49 -2315 -2319 2308 0
49 -2315 -2320 2309 0
49 -2315 -2321 2310 0
49 -2315 -2322 2311 0
49 -2316 -2319 2309 0
49 -2316 -2320 2310 0
49 -2316 -2321 2311 0
49 -2316 -2322 2312 0
49 -2317 -2319 2310 0
49 -2317 -2320 2311 0
49 -2317 -2321 2312 0
49 -2317 -2322 2313 0
49 -2318 -2319 2311 0
49 -2318 -2320 2312 0
49 -2318 -2321 2313 0
49 -2318 -2322 2314 0
49 -2325 2319 0
49 -2326 2320 0
49 -2323 2319 0
49 -2324 2320 0
49 -2323 -2325 2320 0
49 -2323 -2326 2321 0
49 -2324 -2325 2321 0
49 -2324 -2326 2322 0
49 -244 2325 0
49 -243 2325 0
49 -243 -244 2326 0
49 -242 2323 0
49 -241 2323 0
49 -241 -242 2324 0
49 -2329 2315 0
49 -2330 2316 0
49 -2327 2315 0
49 -2328 2316 0
49 -2327 -2329 2316 0
49 -2327 -2330 2317 0
49 -2328 -2329 2317 0
49 -2328 -2330 2318 0
49 -240 2329 0
49 -239 2329 0
49 -239 -240 2330 0
49 -238 2327 0
49 -237 2327 0
49 -237 -238 2328 0
49 -2308 0
49 245 246 247 248 249 250 251 252 0
49 -2343 2331 0
49 -2344 2332 0
49 -2345 2333 0
49 -2346 2334 0
49 -2339 2331 0
49 -2340 2332 0
49 -2341 2333 0
49 -2342 2334 0
49 -2339 -2343 2332 0
49 -2339 -2344 2333 0
49 -2339 -2345 2334 0
49 -2339 -2346 2335 0
49 -2340 -2343 2333 0
49 -2340 -2344 2334 0
49 -2340 -2345 2335 0
49 -2340 -2346 2336 0
49 -2341 -2343 2334 0
49 -2341 -2344 2335 0
49 -2341 -2345 2336 0
49 -2341 -2346 2337 0
49 -2342 -2343 2335 0
49 -2342 -2344 2336 0
49 -2342 -2345 2337 0
49 -2342 -2346 2338 0
49 -2349 2343 0
49 -2350 2344 0
49 -2347 2343 0
49 -2348 2344 0
49 -2347 -2349 2344 0
49 -2347 -2350 2345 0
49 -2348 -2349 2345 0
49 -2348 -2350 2346 0
49 -252 2349 0
49 -251 2349 0
49 -251 -252 2350 0
49 -250 2347 0
49 -249 2347 0
49 -249 -250 2348 0
49 -2353 2339 0
49 -2354 2340 0
49 -2351 2339 0
49 -2352 2340 0
49 -2351 -2353 2340 0
49 -2351 -2354 2341 0
49 -2352 -2353 2341 0
49 -2352 -2354 2342 0
49 -248 2353 0
49 -247 2353 0
49 -247 -248 2354 0
49 -246 2351 0
49 -245 2351 0
49 -245 -246 2352 0
49 -2332 0
49 253 0
49 254 0
49 255 256 257 258 259 260 261 262 0
49 -2367 2355 0
49 -2368 2356 0
49 -2369 2357 0
49 -2370 2358 0
49 -2363 2355 0
49 -2364 2356 0
49 -2365 2357 0
49 -2366 2358 0
49 -2363 -2367 2356 0
49 -2363 -2368 2357 0
49 -2363 -2369 2358 0
49 -2363 -2370 2359 0
49 -2364 -2367 2357 0
49 -2364 -2368 2358 0
49 -2364 -2369 2359 0
49 -2364 -2370 2360 0
49 -2365 -2367 2358 0
49 -2365 -2368 2359 0
49 -2365 -2369 2360 0
49 -2365 -2370 2361 0
49 -2366 -2367 2359 0
49 -2366 -2368 2360 0
49 -2366 -2369 2361 0
49 -2366 -2370 2362 0
49 -2373 2367 0
49 -2374 2368 0
49 -2371 2367 0
49 -2372 2368 0
49 -2371 -2373 2368 0
49 -2371 -2374 2369 0
49 -2372 -2373 2369 0
49 -2372 -2374 2370 0
49 -262 2373 0
49 -261 2373 0
49 -261 -262 2374 0
49 -260 2371 0
49 -259 2371 0
49 -259 -260 2372 0
49 -2377 2363 0
49 -2378 2364 0
49 -2375 2363 0
49 -2376 2364 0
49 -2375 -2377 2364 0
49 -2375 -2378 2365 0
49 -2376 -2377 2365 0
49 -2376 -2378 2366 0
49 -258 2377 0
49 -257 2377 0
49 -257 -258 2378 0
49 -256 2375 0
49 -255 2375 0
49 -255 -256 2376 0
49 -2356 0
49 263 264 265 266 267 268 269 270 0
49 -2391 2379 0
49 -2392 2380 0
49 -2393 2381 0
49 -2394 2382 0
49 -2387 2379 0
49 -2388 2380 0
49 -2389 2381 0
49 -2390 2382 0
49 -2387 -2391 2380 0
49 -2387 -2392 2381 0
49 -2387 -2393 2382 0
49 -2387 -2394 2383 0
49 -2388 -2391 2381 0
49 -2388 -2392 2382 0
49 -2388 -2393 2383 0
49 -2388 -2394 2384 0
49 -2389 -2391 2382 0
49 -2389 -2392 2383 0
49 -2389 -2393 2384 0
49 -2389 -2394 2385 0
49 -2390 -2391 2383 0
49 -2390 -2392 2384 0
49 -2390 -2393 2385 0
49 -2390 -2394 2386 0
49 -2397 2391 0
49 -2398 2392 0
49 -2395 2391 0
49 -2396 2392 0
49 -2395 -2397 2392 0
49 -2395 -2398 2393 0
49 -2396 -2397 2393 0
49 -2396 -2398 2394 0
49 -270 2397 0
49 -269 2397 0
49 -269 -270 2398 0
49 -268 2395 0
49 -267 2395 0
49 -267 -268 2396 0
49 -2401 2387 0
49 -2402 2388 0
49 -2399 2387 0
49 -2400 2388 0
49 -2399 -2401 2388 0
49 -2399 -2402 2389 0
49 -2400 -2401 2389 0
49 -2400 -2402 2390 0
49 -266 2401 0
49 -265 2401 0
49 -265 -266 2402 0
49 -264 2399 0
49 -263 2399 0
49 -263 -264 2400 0
49 -2380 0
49 271 272 0
49 -271 -272 0
49 273 274 0
49 -273 -274 0
49 275 0
49 276 0
49 277 0
49 278 0
49 279 280 281 0
49 -281 2403 0
49 -2406 2403 0
49 -2407 2404 0
49 -2406 -281 2404 0
49 -2407 -281 2405 0
49 -280 2406 0
49 -279 2406 0
49 -279 -280 2407 0
49 -2404 0
49 282 283 284 0
49 -284 2408 0
49 -2411 2408 0
49 -2412 2409 0
49 -2411 -284 2409 0
49 -2412 -284 2410 0
49 -283 2411 0
49 -282 2411 0
49 -282 -283 2412 0
49 -2409 0
49 285 0
49 286 0
49 287 288 0
49 -287 -288 0
49 289 290 0
49 -289 -290 0
49 291 0
49 292 0
49 293 0
49 294 0
49 295 0
49 296 0
49 297 0
49 298 0
49 299 0
49 300 0
49 301 0
49 302 0
49 303 0
49 304 0
49 305 306 307 0
49 -307 2413 0
49 -2416 2413 0
49 -2417 2414 0
49 -2416 -307 2414 0
49 -2417 -307 2415 0
49 -306 2416 0
49 -305 2416 0
49 -305 -306 2417 0
49 -2414 0
49 308 309 310 0
49 -310 2418 0
49 -2421 2418 0
49 -2422 2419 0
49 -2421 -310 2419 0
49 -2422 -310 2420 0
49 -309 2421 0
49 -308 2421 0
49 -308 -309 2422 0
49 -2419 0
49 311 0
49 312 0
49 313 0
49 314 0
49 315 0
49 316 0
49 317 0
49 318 0
49 319 0
49 320 0
49 321 0
49 322 0
49 323 0
49 324 0
49 325 0
49 326 0
49 327 0
49 328 0
49 329 0
49 330 0
49 331 0
49 332 0
49 333 334 0
49 -333 -334 0
49 335 336 0
49 -335 -336 0
49 337 338 0
49 -337 -338 0
49 339 340 0
49 -339 -340 0
49 341 342 343 344 345 0
49 -2431 2423 0
49 -2432 2424 0
49 -2428 2423 0
49 -2429 2424 0
49 -2430 2425 0
49 -2428 -2431 2424 0
49 -2428 -2432 2425 0
49 -2429 -2431 2425 0
49 -2429 -2432 2426 0
49 -2430 -2431 2426 0
49 -2430 -2432 2427 0
49 -345 2431 0
49 -344 2431 0
49 -344 -345 2432 0
49 -343 2428 0
49 -2433 2428 0
49 -2434 2429 0
49 -2433 -343 2429 0
49 -2434 -343 2430 0
49 -342 2433 0
49 -341 2433 0
49 -341 -342 2434 0
49 -2424 0
49 346 347 348 349 350 0
49 -2443 2435 0
49 -2444 2436 0
49 -2440 2435 0
49 -2441 2436 0
49 -2442 2437 0
49 -2440 -2443 2436 0
49 -2440 -2444 2437 0
49 -2441 -2443 2437 0
49 -2441 -2444 2438 0
49 -2442 -2443 2438 0
49 -2442 -2444 2439 0
49 -350 2443 0
49 -349 2443 0
49 -349 -350 2444 0
49 -348 2440 0
49 -2445 2440 0
49 -2446 2441 0
49 -2445 -348 2441 0
49 -2446 -348 2442 0
49 -347 2445 0
49 -346 2445 0
49 -346 -347 2446 0
49 -2436 0
49 351 0
49 352 0
49 353 0
49 354 0
49 355 0
49 356 0
49 357 0
49 358 0
49 359 0
49 360 0
49 361 362 0
49 -361 -362 0
49 363 364 0
49 -363 -364 0
49 365 0
49 366 0
49 367 0
49 368 0
49 369 0
49 370 0
49 371 372 373 0
49 -373 2447 0
49 -2450 2447 0
49 -2451 2448 0
49 -2450 -373 2448 0
49 -2451 -373 2449 0
49 -372 2450 0
49 -371 2450 0
49 -371 -372 2451 0
49 -2448 0
49 374 375 376 0
49 -376 2452 0
49 -2455 2452 0
49 -2456 2453 0
49 -2455 -376 2453 0
49 -2456 -376 2454 0
49 -375 2455 0
49 -374 2455 0
49 -374 -375 2456 0
49 -2453 0
49 377 378 0
49 -377 -378 0
49 379 380 0
49 -379 -380 0
49 381 0
49 382 0
49 383 0
49 384 0
49 385 386 387 388 0
49 -2463 2457 0
49 -2464 2458 0
49 -2461 2457 0
49 -2462 2458 0
49 -2461 -2463 2458 0
49 -2461 -2464 2459 0
49 -2462 -2463 2459 0
49 -2462 -2464 2460 0
49 -388 2463 0
49 -387 2463 0
49 -387 -388 2464 0
49 -386 2461 0
49 -385 2461 0
49 -385 -386 2462 0
49 -2458 0
49 389 390 391 392 0
49 -2471 2465 0
49 -2472 2466 0
49 -2469 2465 0
49 -2470 2466 0
49 -2469 -2471 2466 0
49 -2469 -2472 2467 0
49 -2470 -2471 2467 0
49 -2470 -2472 2468 0
49 -392 2471 0
49 -391 2471 0
49 -391 -392 2472 0
49 -390 2469 0
49 -389 2469 0
49 -389 -390 2470 0
49 -2466 0
49 393 0
49 394 0
49 395 396 397 398 0
49 -2479 2473 0
49 -2480 2474 0
49 -2477 2473 0
49 -2478 2474 0
49 -2477 -2479 2474 0
49 -2477 -2480 2475 0
49 -2478 -2479 2475 0
49 -2478 -2480 2476 0
49 -398 2479 0
49 -397 2479 0
49 -397 -398 2480 0
49 -396 2477 0
49 -395 2477 0
49 -395 -396 2478 0
49 -2474 0
49 399 400 401 402 0
49 -2487 2481 0
49 -2488 2482 0
49 -2485 2481 0
49 -2486 2482 0
49 -2485 -2487 2482 0
49 -2485 -2488 2483 0
49 -2486 -2487 2483 0
49 -2486 -2488 2484 0
49 -402 2487 0
49 -401 2487 0
49 -401 -402 2488 0
49 -400 2485 0
49 -399 2485 0
49 -399 -400 2486 0
49 -2482 0
49 403 404 0
49 -403 -404 0
49 405 406 0
49 -405 -406 0
49 407 0
49 408 0
49 409 410 411 412 413 414 415 416 417 418 0
49 -2504 2489 0
49 -2505 2490 0
49 -2506 2491 0
49 -2507 2492 0
49 -2508 2493 0
49 -2499 2489 0
49 -2500 2490 0
49 -2501 2491 0
49 -2502 2492 0
49 -2503 2493 0
49 -2499 -2504 2490 0
49 -2499 -2505 2491 0
49 -2499 -2506 2492 0
49 -2499 -2507 2493 0
49 -2499 -2508 2494 0
49 -2500 -2504 2491 0
49 -2500 -2505 2492 0
49 -2500 -2506 2493 0
49 -2500 -2507 2494 0
49 -2500 -2508 2495 0
49 -2501 -2504 2492 0
49 -2501 -2505 2493 0
49 -2501 -2506 2494 0
49 -2501 -2507 2495 0
49 -2501 -2508 2496 0
49 -2502 -2504 2493 0
49 -2502 -2505 2494 0
49 -2502 -2506 2495 0
49 -2502 -2507 2496 0
49 -2502 -2508 2497 0
49 -2503 -2504 2494 0
49 -2503 -2505 2495 0
49 -2503 -2506 2496 0
49 -2503 -2507 2497 0
49 -2503 -2508 2498 0
49 -2512 2504 0
49 -2513 2505 0
49 -2509 2504 0
49 -2510 2505 0
49 -2511 2506 0
49 -2509 -2512 2505 0
49 -2509 -2513 2506 0
49 -2510 -2512 2506 0
49 -2510 -2513 2507 0
49 -2511 -2512 2507 0
49 -2511 -2513 2508 0
49 -418 2512 0
49 -417 2512 0
49 -417 -418 2513 0
49 -416 2509 0
49 -2514 2509 0
49 -2515 2510 0
49 -2514 -416 2510 0
49 -2515 -416 2511 0
49 -415 2514 0
49 -414 2514 0
49 -414 -415 2515 0
49 -2519 2499 0
49 -2520 2500 0
49 -2516 2499 0
49 -2517 2500 0
49 -2518 2501 0
49 -2516 -2519 2500 0
49 -2516 -2520 2501 0
49 -2517 -2519 2501 0
49 -2517 -2520 2502 0
49 -2518 -2519 2502 0
49 -2518 -2520 2503 0
49 -413 2519 0
49 -412 2519 0
49 -412 -413 2520 0
49 -411 2516 0
49 -2521 2516 0
49 -2522 2517 0
49 -2521 -411 2517 0
49 -2522 -411 2518 0
49 -410 2521 0
49 -409 2521 0
49 -409 -410 2522 0
49 -2490 0
49 419 420 421 422 423 424 425 426 427 428 0
49 -2538 2523 0
49 -2539 2524 0
49 -2540 2525 0
49 -2541 2526 0
49 -2542 2527 0
49 -2533 2523 0
49 -2534 2524 0
49 -2535 2525 0
49 -2536 2526 0
49 -2537 2527 0
49 -2533 -2538 2524 0
49 -2533 -2539 2525 0
49 -2533 -2540 2526 0
49 -2533 -2541 2527 0
49 -2533 -2542 2528 0
49 -2534 -2538 2525 0
49 -2534 -2539 2526 0
49 -2534 -2540 2527 0
49 -2534 -2541 2528 0
49 -2534 -2542 2529 0
49 -2535 -2538 2526 0
49 -2535 -2539 2527 0
49 -2535 -2540 2528 0
49 -2535 -2541 2529 0
49 -2535 -2542 2530 0
49 -2536 -2538 2527 0
49 -2536 -2539 2528 0
49 -2536 -2540 2529 0
49 -2536 -2541 2530 0
49 -2536 -2542 2531 0
49 -2537 -2538 2528 0
49 -2537 -2539 2529 0
49 -2537 -2540 2530 0
49 -2537 -2541 2531 0
49 -2537 -2542 2532 0
49 -2546 2538 0
49 -2547 2539 0
49 -2543 2538 0
49 -2544 2539 0
49 -2545 2540 0
49 -2543 -2546 2539 0
49 -2543 -2547 2540 0
49 -2544 -2546 2540 0
49 -2544 -2547 2541 0
49 -2545 -2546 2541 0
49 -2545 -2547 2542 0
49 -428 2546 0
49 -427 2546 0
49 -427 -428 2547 0
49 -426 2543 0
49 -2548 2543 0
49 -2549 2544 0
49 -2548 -426 2544 0
49 -2549 -426 2545 0
49 -425 2548 0
49 -424 2548 0
49 -424 -425 2549 0
49 -2553 2533 0
49 -2554 2534 0
49 -2550 2533 0
49 -2551 2534 0
49 -2552 2535 0
49 -2550 -2553 2534 0
49 -2550 -2554 2535 0
49 -2551 -2553 2535 0
49 -2551 -2554 2536 0
49 -2552 -2553 2536 0
49 -2552 -2554 2537 0
49 -423 2553 0
49 -422 2553 0
49 -422 -423 2554 0
49 -421 2550 0
49 -2555 2550 0
49 -2556 2551 0
49 -2555 -421 2551 0
49 -2556 -421 2552 0
49 -420 2555 0
49 -419 2555 0
49 -419 -420 2556 0
49 -2524 0
49 429 0
49 430 0
49 431 432 433 434 435 436 437 438 439 0
49 -2571 2557 0
49 -2572 2558 0
49 -2573 2559 0
49 -2574 2560 0
49 -2566 2557 0
49 -2567 2558 0
49 -2568 2559 0
49 -2569 2560 0
49 -2570 2561 0
49 -2566 -2571 2558 0
49 -2566 -2572 2559 0
49 -2566 -2573 2560 0
49 -2566 -2574 2561 0
49 -2567 -2571 2559 0
49 -2567 -2572 2560 0
49 -2567 -2573 2561 0
49 -2567 -2574 2562 0
49 -2568 -2571 2560 0
49 -2568 -2572 2561 0
49 -2568 -2573 2562 0
49 -2568 -2574 2563 0
49 -2569 -2571 2561 0
49 -2569 -2572 2562 0
49 -2569 -2573 2563 0
49 -2569 -2574 2564 0
49 -2570 -2571 2562 0
49 -2570 -2572 2563 0
49 -2570 -2573 2564 0
49 -2570 -2574 2565 0
49 -2577 2571 0
49 -2578 2572 0
49 -2575 2571 0
49 -2576 2572 0
49 -2575 -2577 2572 0
49 -2575 -2578 2573 0
49 -2576 -2577 2573 0
49 -2576 -2578 2574 0
49 -439 2577 0
49 -438 2577 0
49 -438 -439 2578 0
49 -437 2575 0
49 -436 2575 0
49 -436 -437 2576 0
49 -2582 2566 0
49 -2583 2567 0
49 -2579 2566 0
49 -2580 2567 0
49 -2581 2568 0
49 -2579 -2582 2567 0
49 -2579 -2583 2568 0
49 -2580 -2582 2568 0
49 -2580 -2583 2569 0
49 -2581 -2582 2569 0
49 -2581 -2583 2570 0
49 -435 2582 0
49 -434 2582 0
49 -434 -435 2583 0
49 -433 2579 0
49 -2584 2579 0
49 -2585 2580 0
49 -2584 -433 2580 0
49 -2585 -433 2581 0
49 -432 2584 0
49 -431 2584 0
49 -431 -432 2585 0
49 -2558 0
49 440 441 442 443 444 445 446 447 448 0
49 -2600 2586 0
49 -2601 2587 0
49 -2602 2588 0
49 -2603 2589 0
49 -2595 2586 0
49 -2596 2587 0
49 -2597 2588 0
49 -2598 2589 0
49 -2599 2590 0
49 -2595 -2600 2587 0
49 -2595 -2601 2588 0
49 -2595 -2602 2589 0
49 -2595 -2603 2590 0
49 -2596 -2600 2588 0
49 -2596 -2601 2589 0
49 -2596 -2602 2590 0
49 -2596 -2603 2591 0
49 -2597 -2600 2589 0
49 -2597 -2601 2590 0
49 -2597 -2602 2591 0
49 -2597 -2603 2592 0
49 -2598 -2600 2590 0
49 -2598 -2601 2591 0
49 -2598 -2602 2592 0
49 -2598 -2603 2593 0
49 -2599 -2600 2591 0
49 -2599 -2601 2592 0
49 -2599 -2602 2593 0
49 -2599 -2603 2594 0
49 -2606 2600 0
49 -2607 2601 0
49 -2604 2600 0
49 -2605 2601 0
49 -2604 -2606 2601 0
49 -2604 -2607 2602 0
49 -2605 -2606 2602 0
49 -2605 -2607 2603 0
49 -448 2606 0
49 -447 2606 0
49 -447 -448 2607 0
49 -446 2604 0
49 -445 2604 0
49 -445 -446 2605 0
49 -2611 2595 0
49 -2612 2596 0
49 -2608 2595 0
49 -2609 2596 0
49 -2610 2597 0
49 -2608 -2611 2596 0
49 -2608 -2612 2597 0
49 -2609 -2611 2597 0
49 -2609 -2612 2598 0
49 -2610 -2611 2598 0
49 -2610 -2612 2599 0
49 -444 2611 0
49 -443 2611 0
49 -443 -444 2612 0
49 -442 2608 0
49 -2613 2608 0
49 -2614 2609 0
49 -2613 -442 2609 0
49 -2614 -442 2610 0
49 -441 2613 0
49 -440 2613 0
49 -440 -441 2614 0
49 -2587 0
49 449 0
49 450 0
49 451 0
49 452 0
49 453 0
49 454 0
49 455 0
49 456 0
49 457 0
49 458 0
49 459 0
49 460 0
49 461 462 0
49 -461 -462 0
49 463 464 0
49 -463 -464 0
49 465 0
49 466 0
49 467 0
49 468 0
49 469 470 0
49 -469 -470 0
49 471 472 0
49 -471 -472 0
49 473 474 0
49 -473 -474 0
49 475 476 0
49 -475 -476 0
49 477 0
49 478 0
49 479 0
49 480 0
49 481 482 483 484 0
49 -2621 2615 0
49 -2622 2616 0
49 -2619 2615 0
49 -2620 2616 0
49 -2619 -2621 2616 0
49 -2619 -2622 2617 0
49 -2620 -2621 2617 0
49 -2620 -2622 2618 0
49 -484 2621 0
49 -483 2621 0
49 -483 -484 2622 0
49 -482 2619 0
49 -481 2619 0
49 -481 -482 2620 0
49 -2616 0
49 485 486 487 488 0
49 -2629 2623 0
49 -2630 2624 0
49 -2627 2623 0
49 -2628 2624 0
49 -2627 -2629 2624 0
49 -2627 -2630 2625 0
49 -2628 -2629 2625 0
49 -2628 -2630 2626 0
49 -488 2629 0
49 -487 2629 0
49 -487 -488 2630 0
49 -486 2627 0
49 -485 2627 0
49 -485 -486 2628 0
49 -2624 0
49 489 0
49 490 0
49 491 0
49 492 0
49 493 0
49 494 0
49 495 0
49 496 0
49 497 498 0
49 -497 -498 0
49 499 500 0
49 -499 -500 0
49 501 0
49 502 0
49 503 0
49 504 0
49 505 0
49 506 0
49 507 508 509 510 511 512 513 514 515 0
49 -2645 2631 0
49 -2646 2632 0
49 -2647 2633 0
49 -2648 2634 0
49 -2640 2631 0
49 -2641 2632 0
49 -2642 2633 0
49 -2643 2634 0
49 -2644 2635 0
49 -2640 -2645 2632 0
49 -2640 -2646 2633 0
49 -2640 -2647 2634 0
49 -2640 -2648 2635 0
49 -2641 -2645 2633 0
49 -2641 -2646 2634 0
49 -2641 -2647 2635 0
49 -2641 -2648 2636 0
49 -2642 -2645 2634 0
49 -2642 -2646 2635 0
49 -2642 -2647 2636 0
49 -2642 -2648 2637 0
49 -2643 -2645 2635 0
49 -2643 -2646 2636 0
49 -2643 -2647 2637 0
49 -2643 -2648 2638 0
49 -2644 -2645 2636 0
49 -2644 -2646 2637 0
49 -2644 -2647 2638 0
49 -2644 -2648 2639 0
49 -2651 2645 0
49 -2652 2646 0
49 -2649 2645 0
49 -2650 2646 0
49 -2649 -2651 2646 0
49 -2649 -2652 2647 0
49 -2650 -2651 2647 0
49 -2650 -2652 2648 0
49 -515 2651 0
49 -514 2651 0
49 -514 -515 2652 0
49 -513 2649 0
49 -512 2649 0
49 -512 -513 2650 0
49 -2656 2640 0
49 -2657 2641 0
49 -2653 2640 0
49 -2654 2641 0
49 -2655 2642 0
49 -2653 -2656 2641 0
49 -2653 -2657 2642 0
49 -2654 -2656 2642 0
49 -2654 -2657 2643 0
49 -2655 -2656 2643 0
49 -2655 -2657 2644 0
49 -511 2656 0
49 -510 2656 0
49 -510 -511 2657 0
49 -509 2653 0
49 -2658 2653 0
49 -2659 2654 0
49 -2658 -509 2654 0
49 -2659 -509 2655 0
49 -508 2658 0
49 -507 2658 0
49 -507 -508 2659 0
49 -2632 0
49 516 517 518 519 520 521 522 523 524 0
49 -2674 2660 0
49 -2675 2661 0
49 -2676 2662 0
49 -2677 2663 0
49 -2669 2660 0
49 -2670 2661 0
49 -2671 2662 0
49 -2672 2663 0
49 -2673 2664 0
49 -2669 -2674 2661 0
49 -2669 -2675 2662 0
49 -2669 -2676 2663 0
49 -2669 -2677 2664 0
49 -2670 -2674 2662 0
49 -2670 -2675 2663 0
49 -2670 -2676 2664 0
49 -2670 -2677 2665 0
49 -2671 -2674 2663 0
49 -2671 -2675 2664 0
49 -2671 -2676 2665 0
49 -2671 -2677 2666 0
49 -2672 -2674 2664 0
49 -2672 -2675 2665 0
49 -2672 -2676 2666 0
49 -2672 -2677 2667 0
49 -2673 -2674 2665 0
49 -2673 -2675 2666 0
49 -2673 -2676 2667 0
49 -2673 -2677 2668 0
49 -2680 2674 0
49 -2681 2675 0
49 -2678 2674 0
49 -2679 2675 0
49 -2678 -2680 2675 0
49 -2678 -2681 2676 0
49 -2679 -2680 2676 0
49 -2679 -2681 2677 0
49 -524 2680 0
49 -523 2680 0
49 -523 -524 2681 0
49 -522 2678 0
49 -521 2678 0
49 -521 -522 2679 0
49 -2685 2669 0
49 -2686 2670 0
49 -2682 2669 0
49 -2683 2670 0
49 -2684 2671 0
49 -2682 -2685 2670 0
49 -2682 -2686 2671 0
49 -2683 -2685 2671 0
49 -2683 -2686 2672 0
49 -2684 -2685 2672 0
49 -2684 -2686 2673 0
49 -520 2685 0
49 -519 2685 0
49 -519 -520 2686 0
49 -518 2682 0
49 -2687 2682 0
49 -2688 2683 0
49 -2687 -518 2683 0
49 -2688 -518 2684 0
49 -517 2687 0
49 -516 2687 0
49 -516 -517 2688 0
49 -2661 0
49 525 526 527 528 529 530 0
49 -2698 2689 0
49 -2699 2690 0
49 -2700 2691 0
49 -2695 2689 0
49 -2696 2690 0
49 -2697 2691 0
49 -2695 -2698 2690 0
49 -2695 -2699 2691 0
49 -2695 -2700 2692 0
49 -2696 -2698 2691 0
49 -2696 -2699 2692 0
49 -2696 -2700 2693 0
49 -2697 -2698 2692 0
49 -2697 -2699 2693 0
49 -2697 -2700 2694 0
49 -530 2698 0
49 -2701 2698 0
49 -2702 2699 0
49 -2701 -530 2699 0
49 -2702 -530 2700 0
49 -529 2701 0
49 -528 2701 0
49 -528 -529 2702 0
49 -527 2695 0
49 -2703 2695 0
49 -2704 2696 0
49 -2703 -527 2696 0
49 -2704 -527 2697 0
49 -526 2703 0
49 -525 2703 0
49 -525 -526 2704 0
49 -2690 0
49 531 532 533 534 535 536 0
49 -2714 2705 0
49 -2715 2706 0
49 -2716 2707 0
49 -2711 2705 0
49 -2712 2706 0
49 -2713 2707 0
49 -2711 -2714 2706 0
49 -2711 -2715 2707 0
49 -2711 -2716 2708 0
49 -2712 -2714 2707 0
49 -2712 -2715 2708 0
49 -2712 -2716 2709 0
49 -2713 -2714 2708 0
49 -2713 -2715 2709 0
49 -2713 -2716 2710 0
49 -536 2714 0
49 -2717 2714 0
49 -2718 2715 0
49 -2717 -536 2715 0
49 -2718 -536 2716 0
49 -535 2717 0
49 -534 2717 0
49 -534 -535 2718 0
49 -533 2711 0
49 -2719 2711 0
49 -2720 2712 0
49 -2719 -533 2712 0
49 -2720 -533 2713 0
49 -532 2719 0
49 -531 2719 0
49 -531 -532 2720 0
49 -2706 0
49 537 538 539 0
49 -539 2721 0
49 -2724 2721 0
49 -2725 2722 0
49 -2724 -539 2722 0
49 -2725 -539 2723 0
49 -538 2724 0
49 -537 2724 0
49 -537 -538 2725 0
49 -2722 0
49 540 541 542 0
49 -542 2726 0
49 -2729 2726 0
49 -2730 2727 0
49 -2729 -542 2727 0
49 -2730 -542 2728 0
49 -541 2729 0
49 -540 2729 0
49 -540 -541 2730 0
49 -2727 0
49 543 544 545 546 547 548 549 550 0
49 -2743 2731 0
49 -2744 2732 0
49 -2745 2733 0
49 -2746 2734 0
49 -2739 2731 0
49 -2740 2732 0
49 -2741 2733 0
49 -2742 2734 0
49 -2739 -2743 2732 0
49 -2739 -2744 2733 0
49 -2739 -2745 2734 0
49 -2739 -2746 2735 0
49 -2740 -2743 2733 0
49 -2740 -2744 2734 0
49 -2740 -2745 2735 0
49 -2740 -2746 2736 0
49 -2741 -2743 2734 0
49 -2741 -2744 2735 0
49 -2741 -2745 2736 0
49 -2741 -2746 2737 0
49 -2742 -2743 2735 0
49 -2742 -2744 2736 0
49 -2742 -2745 2737 0
49 -2742 -2746 2738 0
49 -2749 2743 0
49 -2750 2744 0
49 -2747 2743 0
49 -2748 2744 0
49 -2747 -2749 2744 0
49 -2747 -2750 2745 0
49 -2748 -2749 2745 0
49 -2748 -2750 2746 0
49 -550 2749 0
49 -549 2749 0
49 -549 -550 2750 0
49 -548 2747 0
49 -547 2747 0
49 -547 -548 2748 0
49 -2753 2739 0
49 -2754 2740 0
49 -2751 2739 0
49 -2752 2740 0
49 -2751 -2753 2740 0
49 -2751 -2754 2741 0
49 -2752 -2753 2741 0
49 -2752 -2754 2742 0
49 -546 2753 0
49 -545 2753 0
49 -545 -546 2754 0
49 -544 2751 0
49 -543 2751 0
49 -543 -544 2752 0
49 -2732 0
49 551 552 553 554 555 556 557 558 0
49 -2767 2755 0
49 -2768 2756 0
49 -2769 2757 0
49 -2770 2758 0
49 -2763 2755 0
49 -2764 2756 0
49 -2765 2757 0
49 -2766 2758 0
49 -2763 -2767 2756 0
49 -2763 -2768 2757 0
49 -2763 -2769 2758 0
49 -2763 -2770 2759 0
49 -2764 -2767 2757 0
49 -2764 -2768 2758 0
49 -2764 -2769 2759 0
49 -2764 -2770 2760 0
49 -2765 -2767 2758 0
49 -2765 -2768 2759 0
49 -2765 -2769 2760 0
49 -2765 -2770 2761 0
49 -2766 -2767 2759 0
49 -2766 -2768 2760 0
49 -2766 -2769 2761 0
49 -2766 -2770 2762 0
49 -2773 2767 0
49 -2774 2768 0
49 -2771 2767 0
49 -2772 2768 0
49 -2771 -2773 2768 0
49 -2771 -2774 2769 0
49 -2772 -2773 2769 0
49 -2772 -2774 2770 0
49 -558 2773 0
49 -557 2773 0
49 -557 -558 2774 0
49 -556 2771 0
49 -555 2771 0
49 -555 -556 2772 0
49 -2777 2763 0
49 -2778 2764 0
49 -2775 2763 0
49 -2776 2764 0
49 -2775 -2777 2764 0
49 -2775 -2778 2765 0
49 -2776 -2777 2765 0
49 -2776 -2778 2766 0
49 -554 2777 0
49 -553 2777 0
49 -553 -554 2778 0
49 -552 2775 0
49 -551 2775 0
49 -551 -552 2776 0
49 -2756 0
49 559 0
49 560 0
49 561 0
49 562 0
49 563 0
49 564 0
49 565 0
49 566 0
49 567 0
49 568 0
49 569 0
49 570 0
49 571 0
49 572 0
49 573 0
49 574 0
49 575 0
49 576 0
49 577 578 579 580 581 582 583 584 0
49 -2791 2779 0
49 -2792 2780 0
49 -2793 2781 0
49 -2794 2782 0
49 -2787 2779 0
49 -2788 2780 0
49 -2789 2781 0
49 -2790 2782 0
49 -2787 -2791 2780 0
49 -2787 -2792 2781 0
49 -2787 -2793 2782 0
49 -2787 -2794 2783 0
49 -2788 -2791 2781 0
49 -2788 -2792 2782 0
49 -2788 -2793 2783 0
49 -2788 -2794 2784 0
49 -2789 -2791 2782 0
49 -2789 -2792 2783 0
49 -2789 -2793 2784 0
49 -2789 -2794 2785 0
49 -2790 -2791 2783 0
49 -2790 -2792 2784 0
49 -2790 -2793 2785 0
49 -2790 -2794 2786 0
49 -2797 2791 0
49 -2798 2792 0
49 -2795 2791 0
49 -2796 2792 0
49 -2795 -2797 2792 0
49 -2795 -2798 2793 0
49 -2796 -2797 2793 0
49 -2796 -2798 2794 0
49 -584 2797 0
49 -583 2797 0
49 -583 -584 2798 0
49 -582 2795 0
49 -581 2795 0
49 -581 -582 2796 0
49 -2801 2787 0
49 -2802 2788 0
49 -2799 2787 0
49 -2800 2788 0
49 -2799 -2801 2788 0
49 -2799 -2802 2789 0
49 -2800 -2801 2789 0
49 -2800 -2802 2790 0
49 -580 2801 0
49 -579 2801 0
49 -579 -580 2802 0
49 -578 2799 0
49 -577 2799 0
49 -577 -578 2800 0
49 -2780 0
49 585 586 587 588 589 590 591 592 0
49 -2815 2803 0
49 -2816 2804 0
49 -2817 2805 0
49 -2818 2806 0
49 -2811 2803 0
49 -2812 2804 0
49 -2813 2805 0
49 -2814 2806 0
49 -2811 -2815 2804 0
49 -2811 -2816 2805 0
49 -2811 -2817 2806 0
49 -2811 -2818 2807 0
49 -2812 -2815 2805 0
49 -2812 -2816 2806 0
49 -2812 -2817 2807 0
49 -2812 -2818 2808 0
49 -2813 -2815 2806 0
49 -2813 -2816 2807 0
49 -2813 -2817 2808 0
49 -2813 -2818 2809 0
49 -2814 -2815 2807 0
49 -2814 -2816 2808 0
49 -2814 -2817 2809 0
49 -2814 -2818 2810 0
49 -2821 2815 0
49 -2822 2816 0
49 -2819 2815 0
49 -2820 2816 0
49 -2819 -2821 2816 0
49 -2819 -2822 2817 0
49 -2820 -2821 2817 0
49 -2820 -2822 2818 0
49 -592 2821 0
49 -591 2821 0
49 -591 -592 2822 0
49 -590 2819 0
49 -589 2819 0
49 -589 -590 2820 0
49 -2825 2811 0
49 -2826 2812 0
49 -2823 2811 0
49 -2824 2812 0
49 -2823 -2825 2812 0
49 -2823 -2826 2813 0
49 -2824 -2825 2813 0
49 -2824 -2826 2814 0
49 -588 2825 0
49 -587 2825 0
49 -587 -588 2826 0
49 -586 2823 0
49 -585 2823 0
49 -585 -586 2824 0
49 -2804 0
49 593 0
49 594 0
49 595 0
49 596 0
49 597 598 599 600 0
49 -2833 2827 0
49 -2834 2828 0
49 -2831 2827 0
49 -2832 2828 0
49 -2831 -2833 2828 0
49 -2831 -2834 2829 0
49 -2832 -2833 2829 0
49 -2832 -2834 2830 0
49 -600 2833 0
49 -599 2833 0
49 -599 -600 2834 0
49 -598 2831 0
49 -597 2831 0
49 -597 -598 2832 0
49 -2828 0
49 601 602 603 604 0
49 -2841 2835 0
49 -2842 2836 0
49 -2839 2835 0
49 -2840 2836 0
49 -2839 -2841 2836 0
49 -2839 -2842 2837 0
49 -2840 -2841 2837 0
49 -2840 -2842 2838 0
49 -604 2841 0
49 -603 2841 0
49 -603 -604 2842 0
49 -602 2839 0
49 -601 2839 0
49 -601 -602 2840 0
49 -2836 0
49 605 606 0
49 -605 -606 0
49 607 608 0
49 -607 -608 0
49 609 610 0
49 -609 -610 0
49 611 612 0
49 -611 -612 0
49 613 614 615 616 0
49 -2849 2843 0
49 -2850 2844 0
49 -2847 2843 0
49 -2848 2844 0
49 -2847 -2849 2844 0
49 -2847 -2850 2845 0
49 -2848 -2849 2845 0
49 -2848 -2850 2846 0
49 -616 2849 0
49 -615 2849 0
49 -615 -616 2850 0
49 -614 2847 0
49 -613 2847 0
49 -613 -614 2848 0
49 -2844 0
49 617 618 619 620 0
49 -2857 2851 0
49 -2858 2852 0
49 -2855 2851 0
49 -2856 2852 0
49 -2855 -2857 2852 0
49 -2855 -2858 2853 0
49 -2856 -2857 2853 0
49 -2856 -2858 2854 0
49 -620 2857 0
49 -619 2857 0
49 -619 -620 2858 0
49 -618 2855 0
49 -617 2855 0
49 -617 -618 2856 0
49 -2852 0
49 621 622 623 624 625 0
49 -2867 2859 0
49 -2868 2860 0
49 -2864 2859 0
49 -2865 2860 0
49 -2866 2861 0
49 -2864 -2867 2860 0
49 -2864 -2868 2861 0
49 -2865 -2867 2861 0
49 -2865 -2868 2862 0
49 -2866 -2867 2862 0
49 -2866 -2868 2863 0
49 -625 2867 0
49 -624 2867 0
49 -624 -625 2868 0
49 -623 2864 0
49 -2869 2864 0
49 -2870 2865 0
49 -2869 -623 2865 0
49 -2870 -623 2866 0
49 -622 2869 0
49 -621 2869 0
49 -621 -622 2870 0
49 -2860 0
49 626 627 628 629 630 0
49 -2879 2871 0
49 -2880 2872 0
49 -2876 2871 0
49 -2877 2872 0
49 -2878 2873 0
49 -2876 -2879 2872 0
49 -2876 -2880 2873 0
49 -2877 -2879 2873 0
49 -2877 -2880 2874 0
49 -2878 -2879 2874 0
49 -2878 -2880 2875 0
49 -630 2879 0
49 -629 2879 0
49 -629 -630 2880 0
49 -628 2876 0
49 -2881 2876 0
49 -2882 2877 0
49 -2881 -628 2877 0
49 -2882 -628 2878 0
49 -627 2881 0
49 -626 2881 0
49 -626 -627 2882 0
49 -2872 0
49 631 0
49 632 0
49 633 0
49 634 0
49 635 0
49 636 0
49 637 0
49 638 0
49 639 0
49 640 0
49 641 642 643 644 645 646 647 648 649 0
49 -2897 2883 0
49 -2898 2884 0
49 -2899 2885 0
49 -2900 2886 0
49 -2892 2883 0
49 -2893 2884 0
49 -2894 2885 0
49 -2895 2886 0
49 -2896 2887 0
49 -2892 -2897 2884 0
49 -2892 -2898 2885 0
49 -2892 -2899 2886 0
49 -2892 -2900 2887 0
49 -2893 -2897 2885 0
49 -2893 -2898 2886 0
49 -2893 -2899 2887 0
49 -2893 -2900 2888 0
49 -2894 -2897 2886 0
49 -2894 -2898 2887 0
49 -2894 -2899 2888 0
49 -2894 -2900 2889 0
49 -2895 -2897 2887 0
49 -2895 -2898 2888 0
49 -2895 -2899 2889 0
49 -2895 -2900 2890 0
49 -2896 -2897 2888 0
49 -2896 -2898 2889 0
49 -2896 -2899 2890 0
49 -2896 -2900 2891 0
49 -2903 2897 0
49 -2904 2898 0
49 -2901 2897 0
49 -2902 2898 0
49 -2901 -2903 2898 0
49 -2901 -2904 2899 0
49 -2902 -2903 2899 0
49 -2902 -2904 2900 0
49 -649 2903 0
49 -648 2903 0
49 -648 -649 2904 0
49 -647 2901 0
49 -646 2901 0
49 -646 -647 2902 0
49 -2908 2892 0
49 -2909 2893 0
49 -2905 2892 0
49 -2906 2893 0
49 -2907 2894 0
49 -2905 -2908 2893 0
49 -2905 -2909 2894 0
49 -2906 -2908 2894 0
49 -2906 -2909 2895 0
49 -2907 -2908 2895 0
49 -2907 -2909 2896 0
49 -645 2908 0
49 -644 2908 0
49 -644 -645 2909 0
49 -643 2905 0
49 -2910 2905 0
49 -2911 2906 0
49 -2910 -643 2906 0
49 -2911 -643 2907 0
49 -642 2910 0
49 -641 2910 0
49 -641 -642 2911 0
49 -2884 0
49 650 651 652 653 654 655 656 657 658 0
49 -2926 2912 0
49 -2927 2913 0
49 -2928 2914 0
49 -2929 2915 0
49 -2921 2912 0
49 -2922 2913 0
49 -2923 2914 0
49 -2924 2915 0
49 -2925 2916 0
49 -2921 -2926 2913 0
49 -2921 -2927 2914 0
49 -2921 -2928 2915 0
49 -2921 -2929 2916 0
49 -2922 -2926 2914 0
49 -2922 -2927 2915 0
49 -2922 -2928 2916 0
49 -2922 -2929 2917 0
49 -2923 -2926 2915 0
49 -2923 -2927 2916 0
49 -2923 -2928 2917 0
49 -2923 -2929 2918 0
49 -2924 -2926 2916 0
49 -2924 -2927 2917 0
49 -2924 -2928 2918 0
49 -2924 -2929 2919 0
49 -2925 -2926 2917 0
49 -2925 -2927 2918 0
49 -2925 -2928 2919 0
49 -2925 -2929 2920 0
49 -2932 2926 0
49 -2933 2927 0
49 -2930 2926 0
49 -2931 2927 0
49 -2930 -2932 2927 0
49 -2930 -2933 2928 0
49 -2931 -2932 2928 0
49 -2931 -2933 2929 0
49 -658 2932 0
49 -657 2932 0
49 -657 -658 2933 0
49 -656 2930 0
49 -655 2930 0
49 -655 -656 2931 0
49 -2937 2921 0
49 -2938 2922 0
49 -2934 2921 0
49 -2935 2922 0
49 -2936 2923 0
49 -2934 -2937 2922 0
49 -2934 -2938 2923 0
49 -2935 -2937 2923 0
49 -2935 -2938 2924 0
49 -2936 -2937 2924 0
49 -2936 -2938 2925 0
49 -654 2937 0
49 -653 2937 0
49 -653 -654 2938 0
49 -652 2934 0
49 -2939 2934 0
49 -2940 2935 0
49 -2939 -652 2935 0
49 -2940 -652 2936 0
49 -651 2939 0
49 -650 2939 0
49 -650 -651 2940 0
49 -2913 0
49 659 660 661 0
49 -661 2941 0
49 -2944 2941 0
49 -2945 2942 0
49 -2944 -661 2942 0
49 -2945 -661 2943 0
49 -660 2944 0
49 -659 2944 0
49 -659 -660 2945 0
49 -2942 0
49 662 663 664 0
49 -664 2946 0
49 -2949 2946 0
49 -2950 2947 0
49 -2949 -664 2947 0
49 -2950 -664 2948 0
49 -663 2949 0
49 -662 2949 0
49 -662 -663 2950 0
49 -2947 0
49 665 0
49 666 0
49 667 668 0
49 -667 -668 0
49 669 670 0
49 -669 -670 0
49 671 672 673 674 675 0
49 -2959 2951 0
49 -2960 2952 0
49 -2956 2951 0
49 -2957 2952 0
49 -2958 2953 0
49 -2956 -2959 2952 0
49 -2956 -2960 2953 0
49 -2957 -2959 2953 0
49 -2957 -2960 2954 0
49 -2958 -2959 2954 0
49 -2958 -2960 2955 0
49 -675 2959 0
49 -674 2959 0
49 -674 -675 2960 0
49 -673 2956 0
49 -2961 2956 0
49 -2962 2957 0
49 -2961 -673 2957 0
49 -2962 -673 2958 0
49 -672 2961 0
49 -671 2961 0
49 -671 -672 2962 0
49 -2952 0
49 676 677 678 679 680 0
49 -2971 2963 0
49 -2972 2964 0
49 -2968 2963 0
49 -2969 2964 0
49 -2970 2965 0
49 -2968 -2971 2964 0
49 -2968 -2972 2965 0
49 -2969 -2971 2965 0
49 -2969 -2972 2966 0
49 -2970 -2971 2966 0
49 -2970 -2972 2967 0
49 -680 2971 0
49 -679 2971 0
49 -679 -680 2972 0
49 -678 2968 0
49 -2973 2968 0
49 -2974 2969 0
49 -2973 -678 2969 0
49 -2974 -678 2970 0
49 -677 2973 0
49 -676 2973 0
49 -676 -677 2974 0
49 -2964 0
49 681 0
49 682 0
49 683 0
49 684 0
49 685 686 687 688 689 690 691 692 693 0
49 -2989 2975 0
49 -2990 2976 0
49 -2991 2977 0
49 -2992 2978 0
49 -2984 2975 0
49 -2985 2976 0
49 -2986 2977 0
49 -2987 2978 0
49 -2988 2979 0
49 -2984 -2989 2976 0
49 -2984 -2990 2977 0
49 -2984 -2991 2978 0
49 -2984 -2992 2979 0
49 -2985 -2989 2977 0
49 -2985 -2990 2978 0
49 -2985 -2991 2979 0
49 -2985 -2992 2980 0
49 -2986 -2989 2978 0
49 -2986 -2990 2979 0
49 -2986 -2991 2980 0
49 -2986 -2992 2981 0
49 -2987 -2989 2979 0
49 -2987 -2990 2980 0
49 -2987 -2991 2981 0
49 -2987 -2992 2982 0
49 -2988 -2989 2980 0
49 -2988 -2990 2981 0
49 -2988 -2991 2982 0
49 -2988 -2992 2983 0
49 -2995 2989 0
49 -2996 2990 0
49 -2993 2989 0
49 -2994 2990 0
49 -2993 -2995 2990 0
49 -2993 -2996 2991 0
49 -2994 -2995 2991 0
49 -2994 -2996 2992 0
49 -693 2995 0
49 -692 2995 0
49 -692 -693 2996 0
49 -691 2993 0
49 -690 2993 0
49 -690 -691 2994 0
49 -3000 2984 0
49 -3001 2985 0
49 -2997 2984 0
49 -2998 2985 0
49 -2999 2986 0
49 -2997 -3000 2985 0
49 -2997 -3001 2986 0
49 -2998 -3000 2986 0
49 -2998 -3001 2987 0
49 -2999 -3000 2987 0
49 -2999 -3001 2988 0
49 -689 3000 0
49 -688 3000 0
49 -688 -689 3001 0
49 -687 2997 0
49 -3002 2997 0
49 -3003 2998 0
49 -3002 -687 2998 0
49 -3003 -687 2999 0
49 -686 3002 0
49 -685 3002 0
49 -685 -686 3003 0
49 -2976 0
49 694 695 696 697 698 699 700 701 702 0
49 -3018 3004 0
49 -3019 3005 0
49 -3020 3006 0
49 -3021 3007 0
49 -3013 3004 0
49 -3014 3005 0
49 -3015 3006 0
49 -3016 3007 0
49 -3017 3008 0
49 -3013 -3018 3005 0
49 -3013 -3019 3006 0
49 -3013 -3020 3007 0
49 -3013 -3021 3008 0
49 -3014 -3018 3006 0
49 -3014 -3019 3007 0
49 -3014 -3020 3008 0
49 -3014 -3021 3009 0
49 -3015 -3018 3007 0
49 -3015 -3019 3008 0
49 -3015 -3020 3009 0
49 -3015 -3021 3010 0
49 -3016 -3018 3008 0
49 -3016 -3019 3009 0
49 -3016 -3020 3010 0
49 -3016 -3021 3011 0
49 -3017 -3018 3009 0
49 -3017 -3019 3010 0
49 -3017 -3020 3011 0
49 -3017 -3021 3012 0
49 -3024 3018 0
49 -3025 3019 0
49 -3022 3018 0
49 -3023 3019 0
49 -3022 -3024 3019 0
49 -3022 -3025 3020 0
49 -3023 -3024 3020 0
49 -3023 -3025 3021 0
49 -702 3024 0
49 -701 3024 0
49 -701 -702 3025 0
49 -700 3022 0
49 -699 3022 0
49 -699 -700 3023 0
49 -3029 3013 0
49 -3030 3014 0
49 -3026 3013 0
49 -3027 3014 0
49 -3028 3015 0
49 -3026 -3029 3014 0
49 -3026 -3030 3015 0
49 -3027 -3029 3015 0
49 -3027 -3030 3016 0
49 -3028 -3029 3016 0
49 -3028 -3030 3017 0
49 -698 3029 0
49 -697 3029 0
49 -697 -698 3030 0
49 -696 3026 0
49 -3031 3026 0
49 -3032 3027 0
49 -3031 -696 3027 0
49 -3032 -696 3028 0
49 -695 3031 0
49 -694 3031 0
49 -694 -695 3032 0
49 -3005 0
49 703 704 705 0
49 -705 3033 0
49 -3036 3033 0
49 -3037 3034 0
49 -3036 -705 3034 0
49 -3037 -705 3035 0
49 -704 3036 0
49 -703 3036 0
49 -703 -704 3037 0
49 -3034 0
49 706 707 708 0
49 -708 3038 0
49 -3041 3038 0
49 -3042 3039 0
49 -3041 -708 3039 0
49 -3042 -708 3040 0
49 -707 3041 0
49 -706 3041 0
49 -706 -707 3042 0
49 -3039 0
49 709 0
49 710 0
49 711 0
49 712 0
49 713 0
49 714 0
49 715 716 717 718 719 720 721 722 723 724 0
49 -3058 3043 0
49 -3059 3044 0
49 -3060 3045 0
49 -3061 3046 0
49 -3062 3047 0
49 -3053 3043 0
49 -3054 3044 0
49 -3055 3045 0
49 -3056 3046 0
49 -3057 3047 0
49 -3053 -3058 3044 0
49 -3053 -3059 3045 0
49 -3053 -3060 3046 0
49 -3053 -3061 3047 0
49 -3053 -3062 3048 0
49 -3054 -3058 3045 0
49 -3054 -3059 3046 0
49 -3054 -3060 3047 0
49 -3054 -3061 3048 0
49 -3054 -3062 3049 0
49 -3055 -3058 3046 0
49 -3055 -3059 3047 0
49 -3055 -3060 3048 0
49 -3055 -3061 3049 0
49 -3055 -3062 3050 0
49 -3056 -3058 3047 0
49 -3056 -3059 3048 0
49 -3056 -3060 3049 0
49 -3056 -3061 3050 0
49 -3056 -3062 3051 0
49 -3057 -3058 3048 0
49 -3057 -3059 3049 0
49 -3057 -3060 3050 0
49 -3057 -3061 3051 0
49 -3057 -3062 3052 0
49 -3066 3058 0
49 -3067 3059 0
49 -3063 3058 0
49 -3064 3059 0
49 -3065 3060 0
49 -3063 -3066 3059 0
49 -3063 -3067 3060 0
49 -3064 -3066 3060 0
49 -3064 -3067 3061 0
49 -3065 -3066 3061 0
49 -3065 -3067 3062 0
49 -724 3066 0
49 -723 3066 0
49 -723 -724 3067 0
49 -722 3063 0
49 -3068 3063 0
49 -3069 3064 0
49 -3068 -722 3064 0
49 -3069 -722 3065 0
49 -721 3068 0
49 -720 3068 0
49 -720 -721 3069 0
49 -3073 3053 0
49 -3074 3054 0
49 -3070 3053 0
49 -3071 3054 0
49 -3072 3055 0
49 -3070 -3073 3054 0
49 -3070 -3074 3055 0
49 -3071 -3073 3055 0
49 -3071 -3074 3056 0
49 -3072 -3073 3056 0
49 -3072 -3074 3057 0
49 -719 3073 0
49 -718 3073 0
49 -718 -719 3074 0
49 -717 3070 0
49 -3075 3070 0
49 -3076 3071 0
49 -3075 -717 3071 0
49 -3076 -717 3072 0
49 -716 3075 0
49 -715 3075 0
49 -715 -716 3076 0
49 -3044 0
49 725 726 727 728 729 730 731 732 733 734 0
49 -3092 3077 0
49 -3093 3078 0
49 -3094 3079 0
49 -3095 3080 0
49 -3096 3081 0
49 -3087 3077 0
49 -3088 3078 0
49 -3089 3079 0
49 -3090 3080 0
49 -3091 3081 0
49 -3087 -3092 3078 0
49 -3087 -3093 3079 0
49 -3087 -3094 3080 0
49 -3087 -3095 3081 0
49 -3087 -3096 3082 0
49 -3088 -3092 3079 0
49 -3088 -3093 3080 0
49 -3088 -3094 3081 0
49 -3088 -3095 3082 0
49 -3088 -3096 3083 0
49 -3089 -3092 3080 0
49 -3089 -3093 3081 0
49 -3089 -3094 3082 0
49 -3089 -3095 3083 0
49 -3089 -3096 3084 0
49 -3090 -3092 3081 0
49 -3090 -3093 3082 0
49 -3090 -3094 3083 0
49 -3090 -3095 3084 0
49 -3090 -3096 3085 0
49 -3091 -3092 3082 0
49 -3091 -3093 3083 0
49 -3091 -3094 3084 0
49 -3091 -3095 3085 0
49 -3091 -3096 3086 0
49 -3100 3092 0
49 -3101 3093 0
49 -3097 3092 0
49 -3098 3093 0
49 -3099 3094 0
49 -3097 -3100 3093 0
49 -3097 -3101 3094 0
49 -3098 -3100 3094 0
49 -3098 -3101 3095 0
49 -3099 -3100 3095 0
49 -3099 -3101 3096 0
49 -734 3100 0
49 -733 3100 0
49 -733 -734 3101 0
49 -732 3097 0
49 -3102 3097 0
49 -3103 3098 0
49 -3102 -732 3098 0
49 -3103 -732 3099 0
49 -731 3102 0
49 -730 3102 0
49 -730 -731 3103 0
49 -3107 3087 0
49 -3108 3088 0
49 -3104 3087 0
49 -3105 3088 0
49 -3106 3089 0
49 -3104 -3107 3088 0
49 -3104 -3108 3089 0
49 -3105 -3107 3089 0
49 -3105 -3108 3090 0
49 -3106 -3107 3090 0
49 -3106 -3108 3091 0
49 -729 3107 0
49 -728 3107 0
49 -728 -729 3108 0
49 -727 3104 0
49 -3109 3104 0
49 -3110 3105 0
49 -3109 -727 3105 0
49 -3110 -727 3106 0
49 -726 3109 0
49 -725 3109 0
49 -725 -726 3110 0
49 -3078 0
49 735 736 737 738 739 740 741 742 0
49 -3123 3111 0
49 -3124 3112 0
49 -3125 3113 0
49 -3126 3114 0
49 -3119 3111 0
49 -3120 3112 0
49 -3121 3113 0
49 -3122 3114 0
49 -3119 -3123 3112 0
49 -3119 -3124 3113 0
49 -3119 -3125 3114 0
49 -3119 -3126 3115 0
49 -3120 -3123 3113 0
49 -3120 -3124 3114 0
49 -3120 -3125 3115 0
49 -3120 -3126 3116 0
49 -3121 -3123 3114 0
49 -3121 -3124 3115 0
49 -3121 -3125 3116 0
49 -3121 -3126 3117 0
49 -3122 -3123 3115 0
49 -3122 -3124 3116 0
49 -3122 -3125 3117 0
49 -3122 -3126 3118 0
49 -3129 3123 0
49 -3130 3124 0
49 -3127 3123 0
49 -3128 3124 0
49 -3127 -3129 3124 0
49 -3127 -3130 3125 0
49 -3128 -3129 3125 0
49 -3128 -3130 3126 0
49 -742 3129 0
49 -741 3129 0
49 -741 -742 3130 0
49 -740 3127 0
49 -739 3127 0
49 -739 -740 3128 0
49 -3133 3119 0
49 -3134 3120 0
49 -3131 3119 0
49 -3132 3120 0
49 -3131 -3133 3120 0
49 -3131 -3134 3121 0
49 -3132 -3133 3121 0
49 -3132 -3134 3122 0
49 -738 3133 0
49 -737 3133 0
49 -737 -738 3134 0
49 -736 3131 0
49 -735 3131 0
49 -735 -736 3132 0
49 -3112 0
49 743 744 745 746 747 748 749 750 0
49 -3147 3135 0
49 -3148 3136 0
49 -3149 3137 0
49 -3150 3138 0
49 -3143 3135 0
49 -3144 3136 0
49 -3145 3137 0
49 -3146 3138 0
49 -3143 -3147 3136 0
49 -3143 -3148 3137 0
49 -3143 -3149 3138 0
49 -3143 -3150 3139 0
49 -3144 -3147 3137 0
49 -3144 -3148 3138 0
49 -3144 -3149 3139 0
49 -3144 -3150 3140 0
49 -3145 -3147 3138 0
49 -3145 -3148 3139 0
49 -3145 -3149 3140 0
49 -3145 -3150 3141 0
49 -3146 -3147 3139 0
49 -3146 -3148 3140 0
49 -3146 -3149 3141 0
49 -3146 -3150 3142 0
49 -3153 3147 0
49 -3154 3148 0
49 -3151 3147 0
49 -3152 3148 0
49 -3151 -3153 3148 0
49 -3151 -3154 3149 0
49 -3152 -3153 3149 0
49 -3152 -3154 3150 0
49 -750 3153 0
49 -749 3153 0
49 -749 -750 3154 0
49 -748 3151 0
49 -747 3151 0
49 -747 -748 3152 0
49 -3157 3143 0
49 -3158 3144 0
49 -3155 3143 0
49 -3156 3144 0
49 -3155 -3157 3144 0
49 -3155 -3158 3145 0
49 -3156 -3157 3145 0
49 -3156 -3158 3146 0
49 -746 3157 0
49 -745 3157 0
49 -745 -746 3158 0
49 -744 3155 0
49 -743 3155 0
49 -743 -744 3156 0
49 -3136 0
49 751 0
49 752 0
49 753 754 0
49 -753 -754 0
49 755 756 0
49 -755 -756 0
49 757 0
49 758 0
49 759 0
49 760 0
49 761 0
49 762 0
49 763 0
49 764 0
49 765 766 767 768 0
49 -3165 3159 0
49 -3166 3160 0
49 -3163 3159 0
49 -3164 3160 0
49 -3163 -3165 3160 0
49 -3163 -3166 3161 0
49 -3164 -3165 3161 0
49 -3164 -3166 3162 0
49 -768 3165 0
49 -767 3165 0
49 -767 -768 3166 0
49 -766 3163 0
49 -765 3163 0
49 -765 -766 3164 0
49 -3160 0
49 769 770 771 772 0
49 -3173 3167 0
49 -3174 3168 0
49 -3171 3167 0
49 -3172 3168 0
49 -3171 -3173 3168 0
49 -3171 -3174 3169 0
49 -3172 -3173 3169 0
49 -3172 -3174 3170 0
49 -772 3173 0
49 -771 3173 0
49 -771 -772 3174 0
49 -770 3171 0
49 -769 3171 0
49 -769 -770 3172 0
49 -3168 0
49 773 0
49 774 0
49 775 0
49 776 0
49 777 0
49 778 0
49 779 0
49 780 0
49 781 782 783 0
49 -783 3175 0
49 -3178 3175 0
49 -3179 3176 0
49 -3178 -783 3176 0
49 -3179 -783 3177 0
49 -782 3178 0
49 -781 3178 0
49 -781 -782 3179 0
49 -3176 0
49 784 785 786 0
49 -786 3180 0
49 -3183 3180 0
49 -3184 3181 0
49 -3183 -786 3181 0
49 -3184 -786 3182 0
49 -785 3183 0
49 -784 3183 0
49 -784 -785 3184 0
49 -3181 0
49 787 0
49 788 0
49 789 0
49 790 0
49 791 0
49 792 0
49 793 0
49 794 0
49 795 796 797 0
49 -797 3185 0
49 -3188 3185 0
49 -3189 3186 0
49 -3188 -797 3186 0
49 -3189 -797 3187 0
49 -796 3188 0
49 -795 3188 0
49 -795 -796 3189 0
49 -3186 0
49 798 799 800 0
49 -800 3190 0
49 -3193 3190 0
49 -3194 3191 0
49 -3193 -800 3191 0
49 -3194 -800 3192 0
49 -799 3193 0
49 -798 3193 0
49 -798 -799 3194 0
49 -3191 0
49 801 802 0
49 -801 -802 0
49 803 804 0
49 -803 -804 0
49 805 0
49 806 0
49 807 0
49 808 0
49 809 0
49 810 0
49 811 812 0
49 -811 -812 0
49 813 814 0
49 -813 -814 0
49 815 0
49 816 0
49 817 818 0
49 -817 -818 0
49 819 820 0
49 -819 -820 0
49 821 0
49 822 0
49 823 0
49 824 0
49 825 826 827 828 829 830 831 832 833 834 835 0
49 -3212 3195 0
49 -3213 3196 0
49 -3214 3197 0
49 -3215 3198 0
49 -3216 3199 0
49 -3206 3195 0
49 -3207 3196 0
49 -3208 3197 0
49 -3209 3198 0
49 -3210 3199 0
49 -3211 3200 0
49 -3206 -3212 3196 0
49 -3206 -3213 3197 0
49 -3206 -3214 3198 0
49 -3206 -3215 3199 0
49 -3206 -3216 3200 0
49 -3207 -3212 3197 0
49 -3207 -3213 3198 0
49 -3207 -3214 3199 0
49 -3207 -3215 3200 0
49 -3207 -3216 3201 0
49 -3208 -3212 3198 0
49 -3208 -3213 3199 0
49 -3208 -3214 3200 0
49 -3208 -3215 3201 0
49 -3208 -3216 3202 0
49 -3209 -3212 3199 0
49 -3209 -3213 3200 0
49 -3209 -3214 3201 0
49 -3209 -3215 3202 0
49 -3209 -3216 3203 0
49 -3210 -3212 3200 0
49 -3210 -3213 3201 0
49 -3210 -3214 3202 0
49 -3210 -3215 3203 0
49 -3210 -3216 3204 0
49 -3211 -3212 3201 0
49 -3211 -3213 3202 0
49 -3211 -3214 3203 0
49 -3211 -3215 3204 0
49 -3211 -3216 3205 0
49 -3220 3212 0
49 -3221 3213 0
49 -3217 3212 0
49 -3218 3213 0
49 -3219 3214 0
49 -3217 -3220 3213 0
49 -3217 -3221 3214 0
49 -3218 -3220 3214 0
49 -3218 -3221 3215 0
49 -3219 -3220 3215 0
49 -3219 -3221 3216 0
49 -835 3220 0
49 -834 3220 0
49 -834 -835 3221 0
49 -833 3217 0
49 -3222 3217 0
49 -3223 3218 0
49 -3222 -833 3218 0
49 -3223 -833 3219 0
49 -832 3222 0
49 -831 3222 0
49 -831 -832 3223 0
49 -3227 3206 0
49 -3228 3207 0
49 -3229 3208 0
49 -3224 3206 0
49 -3225 3207 0
49 -3226 3208 0
49 -3224 -3227 3207 0
49 -3224 -3228 3208 0
49 -3224 -3229 3209 0
49 -3225 -3227 3208 0
49 -3225 -3228 3209 0
49 -3225 -3229 3210 0
49 -3226 -3227 3209 0
49 -3226 -3228 3210 0
49 -3226 -3229 3211 0
49 -830 3227 0
49 -3230 3227 0
49 -3231 3228 0
49 -3230 -830 3228 0
49 -3231 -830 3229 0
49 -829 3230 0
49 -828 3230 0
49 -828 -829 3231 0
49 -827 3224 0
49 -3232 3224 0
49 -3233 3225 0
49 -3232 -827 3225 0
49 -3233 -827 3226 0
49 -826 3232 0
49 -825 3232 0
49 -825 -826 3233 0
49 -3196 0
49 836 837 838 839 840 841 842 843 844 845 846 0
49 -3251 3234 0
49 -3252 3235 0
49 -3253 3236 0
49 -3254 3237 0
49 -3255 3238 0
49 -3245 3234 0
49 -3246 3235 0
49 -3247 3236 0
49 -3248 3237 0
49 -3249 3238 0
49 -3250 3239 0
49 -3245 -3251 3235 0
49 -3245 -3252 3236 0
49 -3245 -3253 3237 0
49 -3245 -3254 3238 0
49 -3245 -3255 3239 0
49 -3246 -3251 3236 0
49 -3246 -3252 3237 0
49 -3246 -3253 3238 0
49 -3246 -3254 3239 0
49 -3246 -3255 3240 0
49 -3247 -3251 3237 0
49 -3247 -3252 3238 0
49 -3247 -3253 3239 0
49 -3247 -3254 3240 0
49 -3247 -3255 3241 0
49 -3248 -3251 3238 0
49 -3248 -3252 3239 0
49 -3248 -3253 3240 0
49 -3248 -3254 3241 0
49 -3248 -3255 3242 0
49 -3249 -3251 3239 0
49 -3249 -3252 3240 0
49 -3249 -3253 3241 0
49 -3249 -3254 3242 0
49 -3249 -3255 3243 0
49 -3250 -3251 3240 0
49 -3250 -3252 3241 0
49 -3250 -3253 3242 0
49 -3250 -3254 3243 0
49 -3250 -3255 3244 0
49 -3259 3251 0
49 -3260 3252 0
49 -3256 3251 0
49 -3257 3252 0
49 -3258 3253 0
49 -3256 -3259 3252 0
49 -3256 -3260 3253 0
49 -3257 -3259 3253 0
49 -3257 -3260 3254 0
49 -3258 -3259 3254 0
49 -3258 -3260 3255 0
49 -846 3259 0
49 -845 3259 0
49 -845 -846 3260 0
49 -844 3256 0
49 -3261 3256 0
49 -3262 3257 0
49 -3261 -844 3257 0
49 -3262 -844 3258 0
49 -843 3261 0
49 -842 3261 0
49 -842 -843 3262 0
49 -3266 3245 0
49 -3267 3246 0
49 -3268 3247 0
49 -3263 3245 0
49 -3264 3246 0
49 -3265 3247 0
49 -3263 -3266 3246 0
49 -3263 -3267 3247 0
49 -3263 -3268 3248 0
49 -3264 -3266 3247 0
49 -3264 -3267 3248 0
49 -3264 -3268 3249 0
49 -3265 -3266 3248 0
49 -3265 -3267 3249 0
49 -3265 -3268 3250 0
49 -841 3266 0
49 -3269 3266 0
49 -3270 3267 0
49 -3269 -841 3267 0
49 -3270 -841 3268 0
49 -840 3269 0
49 -839 3269 0
49 -839 -840 3270 0
49 -838 3263 0
49 -3271 3263 0
49 -3272 3264 0
49 -3271 -838 3264 0
49 -3272 -838 3265 0
49 -837 3271 0
49 -836 3271 0
49 -836 -837 3272 0
49 -3235 0
49 847 0
49 848 0
49 849 0
49 850 0
49 851 852 853 0
49 -853 3273 0
49 -3276 3273 0
49 -3277 3274 0
49 -3276 -853 3274 0
49 -3277 -853 3275 0
49 -852 3276 0
49 -851 3276 0
49 -851 -852 3277 0
49 -3274 0
49 854 855 856 0
49 -856 3278 0
49 -3281 3278 0
49 -3282 3279 0
49 -3281 -856 3279 0
49 -3282 -856 3280 0
49 -855 3281 0
49 -854 3281 0
49 -854 -855 3282 0
49 -3279 0
49 857 858 0
49 -857 -858 0
49 859 860 0
49 -859 -860 0
49 861 0
49 862 0
49 863 0
49 864 0
49 865 0
49 866 0
49 867 0
49 868 0
49 869 870 0
49 -869 -870 0
49 871 872 0
49 -871 -872 0
49 873 874 875 876 877 878 879 0
49 -3294 3283 0
49 -3295 3284 0
49 -3296 3285 0
49 -3290 3283 0
49 -3291 3284 0
49 -3292 3285 0
49 -3293 3286 0
49 -3290 -3294 3284 0
49 -3290 -3295 3285 0
49 -3290 -3296 3286 0
49 -3291 -3294 3285 0
49 -3291 -3295 3286 0
49 -3291 -3296 3287 0
49 -3292 -3294 3286 0
49 -3292 -3295 3287 0
49 -3292 -3296 3288 0
49 -3293 -3294 3287 0
49 -3293 -3295 3288 0
49 -3293 -3296 3289 0
49 -879 3294 0
49 -3297 3294 0
49 -3298 3295 0
49 -3297 -879 3295 0
49 -3298 -879 3296 0
49 -878 3297 0
49 -877 3297 0
49 -877 -878 3298 0
49 -3301 3290 0
49 -3302 3291 0
49 -3299 3290 0
49 -3300 3291 0
49 -3299 -3301 3291 0
49 -3299 -3302 3292 0
49 -3300 -3301 3292 0
49 -3300 -3302 3293 0
49 -876 3301 0
49 -875 3301 0
49 -875 -876 3302 0
49 -874 3299 0
49 -873 3299 0
49 -873 -874 3300 0
49 -3284 0
49 880 881 882 883 884 885 886 0
49 -3314 3303 0
49 -3315 3304 0
49 -3316 3305 0
49 -3310 3303 0
49 -3311 3304 0
49 -3312 3305 0
49 -3313 3306 0
49 -3310 -3314 3304 0
49 -3310 -3315 3305 0
49 -3310 -3316 3306 0
49 -3311 -3314 3305 0
49 -3311 -3315 3306 0
49 -3311 -3316 3307 0
49 -3312 -3314 3306 0
49 -3312 -3315 3307 0
49 -3312 -3316 3308 0
49 -3313 -3314 3307 0
49 -3313 -3315 3308 0
49 -3313 -3316 3309 0
49 -886 3314 0
49 -3317 3314 0
49 -3318 3315 0
49 -3317 -886 3315 0
49 -3318 -886 3316 0
49 -885 3317 0
49 -884 3317 0
49 -884 -885 3318 0
49 -3321 3310 0
49 -3322 3311 0
49 -3319 3310 0
49 -3320 3311 0
49 -3319 -3321 3311 0
49 -3319 -3322 3312 0
49 -3320 -3321 3312 0
49 -3320 -3322 3313 0
49 -883 3321 0
49 -882 3321 0
49 -882 -883 3322 0
49 -881 3319 0
49 -880 3319 0
49 -880 -881 3320 0
49 -3304 0
49 887 888 0
49 -887 -888 0
49 889 890 0
49 -889 -890 0
49 891 0
49 892 0
49 893 894 0
49 -893 -894 0
49 895 896 0
49 -895 -896 0
49 897 0
49 898 0
49 899 0
49 900 0
49 901 0
49 902 0
49 903 904 905 906 0
49 -3329 3323 0
49 -3330 3324 0
49 -3327 3323 0
49 -3328 3324 0
49 -3327 -3329 3324 0
49 -3327 -3330 3325 0
49 -3328 -3329 3325 0
49 -3328 -3330 3326 0
49 -906 3329 0
49 -905 3329 0
49 -905 -906 3330 0
49 -904 3327 0
49 -903 3327 0
49 -903 -904 3328 0
49 -3324 0
49 907 908 909 910 0
49 -3337 3331 0
49 -3338 3332 0
49 -3335 3331 0
49 -3336 3332 0
49 -3335 -3337 3332 0
49 -3335 -3338 3333 0
49 -3336 -3337 3333 0
49 -3336 -3338 3334 0
49 -910 3337 0
49 -909 3337 0
49 -909 -910 3338 0
49 -908 3335 0
49 -907 3335 0
49 -907 -908 3336 0
49 -3332 0
49 911 0
49 912 0
49 913 0
49 914 0
49 915 0
49 916 0
49 917 918 0
49 -917 -918 0
49 919 920 0
49 -919 -920 0
49 921 0
49 922 0
49 923 0
49 924 0
49 925 0
49 926 0
49 927 928 929 930 0
49 -3345 3339 0
49 -3346 3340 0
49 -3343 3339 0
49 -3344 3340 0
49 -3343 -3345 3340 0
49 -3343 -3346 3341 0
49 -3344 -3345 3341 0
49 -3344 -3346 3342 0
49 -930 3345 0
49 -929 3345 0
49 -929 -930 3346 0
49 -928 3343 0
49 -927 3343 0
49 -927 -928 3344 0
49 -3340 0
49 931 932 933 934 0
49 -3353 3347 0
49 -3354 3348 0
49 -3351 3347 0
49 -3352 3348 0
49 -3351 -3353 3348 0
49 -3351 -3354 3349 0
49 -3352 -3353 3349 0
49 -3352 -3354 3350 0
49 -934 3353 0
49 -933 3353 0
49 -933 -934 3354 0
49 -932 3351 0
49 -931 3351 0
49 -931 -932 3352 0
49 -3348 0
49 935 0
49 936 0
49 937 0
49 938 0
49 939 940 941 942 943 944 945 946 0
49 -3367 3355 0
49 -3368 3356 0
49 -3369 3357 0
49 -3370 3358 0
49 -3363 3355 0
49 -3364 3356 0
49 -3365 3357 0
49 -3366 3358 0
49 -3363 -3367 3356 0
49 -3363 -3368 3357 0
49 -3363 -3369 3358 0
49 -3363 -3370 3359 0
49 -3364 -3367 3357 0
49 -3364 -3368 3358 0
49 -3364 -3369 3359 0
49 -3364 -3370 3360 0
49 -3365 -3367 3358 0
49 -3365 -3368 3359 0
49 -3365 -3369 3360 0
49 -3365 -3370 3361 0
49 -3366 -3367 3359 0
49 -3366 -3368 3360 0
49 -3366 -3369 3361 0
49 -3366 -3370 3362 0
49 -3373 3367 0
49 -3374 3368 0
49 -3371 3367 0
49 -3372 3368 0
49 -3371 -3373 3368 0
49 -3371 -3374 3369 0
49 -3372 -3373 3369 0
49 -3372 -3374 3370 0
49 -946 3373 0
49 -945 3373 0
49 -945 -946 3374 0
49 -944 3371 0
49 -943 3371 0
49 -943 -944 3372 0
49 -3377 3363 0
49 -3378 3364 0
49 -3375 3363 0
49 -3376 3364 0
49 -3375 -3377 3364 0
49 -3375 -3378 3365 0
49 -3376 -3377 3365 0
49 -3376 -3378 3366 0
49 -942 3377 0
49 -941 3377 0
49 -941 -942 3378 0
49 -940 3375 0
49 -939 3375 0
49 -939 -940 3376 0
49 -3356 0
49 947 948 949 950 951 952 953 954 0
49 -3391 3379 0
49 -3392 3380 0
49 -3393 3381 0
49 -3394 3382 0
49 -3387 3379 0
49 -3388 3380 0
49 -3389 3381 0
49 -3390 3382 0
49 -3387 -3391 3380 0
49 -3387 -3392 3381 0
49 -3387 -3393 3382 0
49 -3387 -3394 3383 0
49 -3388 -3391 3381 0
49 -3388 -3392 3382 0
49 -3388 -3393 3383 0
49 -3388 -3394 3384 0
49 -3389 -3391 3382 0
49 -3389 -3392 3383 0
49 -3389 -3393 3384 0
49 -3389 -3394 3385 0
49 -3390 -3391 3383 0
49 -3390 -3392 3384 0
49 -3390 -3393 3385 0
49 -3390 -3394 3386 0
49 -3397 3391 0
49 -3398 3392 0
49 -3395 3391 0
49 -3396 3392 0
49 -3395 -3397 3392 0
49 -3395 -3398 3393 0
49 -3396 -3397 3393 0
49 -3396 -3398 3394 0
49 -954 3397 0
49 -953 3397 0
49 -953 -954 3398 0
49 -952 3395 0
49 -951 3395 0
49 -951 -952 3396 0
49 -3401 3387 0
49 -3402 3388 0
49 -3399 3387 0
49 -3400 3388 0
49 -3399 -3401 3388 0
49 -3399 -3402 3389 0
49 -3400 -3401 3389 0
49 -3400 -3402 3390 0
49 -950 3401 0
49 -949 3401 0
49 -949 -950 3402 0
49 -948 3399 0
49 -947 3399 0
49 -947 -948 3400 0
49 -3380 0
49 955 956 957 958 0
49 -3409 3403 0
49 -3410 3404 0
49 -3407 3403 0
49 -3408 3404 0
49 -3407 -3409 3404 0
49 -3407 -3410 3405 0
49 -3408 -3409 3405 0
49 -3408 -3410 3406 0
49 -958 3409 0
49 -957 3409 0
49 -957 -958 3410 0
49 -956 3407 0
49 -955 3407 0
49 -955 -956 3408 0
49 -3404 0
49 959 960 961 962 0
49 -3417 3411 0
49 -3418 3412 0
49 -3415 3411 0
49 -3416 3412 0
49 -3415 -3417 3412 0
49 -3415 -3418 3413 0
49 -3416 -3417 3413 0
49 -3416 -3418 3414 0
49 -962 3417 0
49 -961 3417 0
49 -961 -962 3418 0
49 -960 3415 0
49 -959 3415 0
49 -959 -960 3416 0
49 -3412 0
49 963 964 965 0
49 -965 3419 0
49 -3422 3419 0
49 -3423 3420 0
49 -3422 -965 3420 0
49 -3423 -965 3421 0
49 -964 3422 0
49 -963 3422 0
49 -963 -964 3423 0
49 -3420 0
49 966 967 968 0
49 -968 3424 0
49 -3427 3424 0
49 -3428 3425 0
49 -3427 -968 3425 0
49 -3428 -968 3426 0
49 -967 3427 0
49 -966 3427 0
49 -966 -967 3428 0
49 -3425 0
49 969 970 971 972 973 974 975 976 977 978 979 980 981 982 983 984 985 986 987 988 989 990 991 992 993 994 995 996 997 998 999 1000 1001 0
49 -3479 3429 0
49 -3480 3430 0
49 -3481 3431 0
49 -3482 3432 0
49 -3483 3433 0
49 -3484 3434 0
49 -3485 3435 0
49 -3486 3436 0
49 -3487 3437 0
49 -3488 3438 0
49 -3489 3439 0
49 -3490 3440 0
49 -3491 3441 0
49 -3492 3442 0
49 -3493 3443 0
49 -3494 3444 0
49 -3462 3429 0
49 -3463 3430 0
49 -3464 3431 0
49 -3465 3432 0
49 -3466 3433 0
49 -3467 3434 0
49 -3468 3435 0
49 -3469 3436 0
49 -3470 3437 0
49 -3471 3438 0
49 -3472 3439 0
49 -3473 3440 0
49 -3474 3441 0
49 -3475 3442 0
49 -3476 3443 0
49 -3477 3444 0
49 -3478 3445 0
49 -3462 -3479 3430 0
49 -3462 -3480 3431 0
49 -3462 -3481 3432 0
49 -3462 -3482 3433 0
49 -3462 -3483 3434 0
49 -3462 -3484 3435 0
49 -3462 -3485 3436 0
49 -3462 -3486 3437 0
49 -3462 -3487 3438 0
49 -3462 -3488 3439 0
49 -3462 -3489 3440 0
49 -3462 -3490 3441 0
49 -3462 -3491 3442 0
49 -3462 -3492 3443 0
49 -3462 -3493 3444 0
49 -3462 -3494 3445 0
49 -3463 -3479 3431 0
49 -3463 -3480 3432 0
49 -3463 -3481 3433 0
49 -3463 -3482 3434 0
49 -3463 -3483 3435 0
49 -3463 -3484 3436 0
49 -3463 -3485 3437 0
49 -3463 -3486 3438 0
49 -3463 -3487 3439 0
49 -3463 -3488 3440 0
49 -3463 -3489 3441 0
49 -3463 -3490 3442 0
49 -3463 -3491 3443 0
49 -3463 -3492 3444 0
49 -3463 -3493 3445 0
49 -3463 -3494 3446 0
49 -3464 -3479 3432 0
49 -3464 -3480 3433 0
49 -3464 -3481 3434 0
49 -3464 -3482 3435 0
49 -3464 -3483 3436 0
49 -3464 -3484 3437 0
49 -3464 -3485 3438 0
49 -3464 -3486 3439 0
49 -3464 -3487 3440 0
49 -3464 -3488 3441 0
49 -3464 -3489 3442 0
49 -3464 -3490 3443 0
49 -3464 -3491 3444 0
49 -3464 -3492 3445 0
49 -3464 -3493 3446 0
49 -3464 -3494 3447 0
49 -3465 -3479 3433 0
49 -3465 -3480 3434 0
49 -3465 -3481 3435 0
49 -3465 -3482 3436 0
49 -3465 -3483 3437 0
49 -3465 -3484 3438 0
49 -3465 -3485 3439 0
49 -3465 -3486 3440 0
49 -3465 -3487 3441 0
49 -3465 -3488 3442 0
49 -3465 -3489 3443 0
49 -3465 -3490 3444 0
49 -3465 -3491 3445 0
49 -3465 -3492 3446 0
49 -3465 -3493 3447 0
49 -3465 -3494 3448 0
49 -3466 -3479 3434 0
49 -3466 -3480 3435 0
49 -3466 -3481 3436 0
49 -3466 -3482 3437 0
49 -3466 -3483 3438 0
49 -3466 -3484 3439 0
49 -3466 -3485 3440 0
49 -3466 -3486 3441 0
49 -3466 -3487 3442 0
49 -3466 -3488 3443 0
49 -3466 -3489 3444 0
49 -3466 -3490 3445 0
49 -3466 -3491 3446 0
49 -3466 -3492 3447 0
49 -3466 -3493 3448 0
49 -3466 -3494 3449 0
49 -3467 -3479 3435 0
49 -3467 -3480 3436 0
49 -3467 -3481 3437 0
49 -3467 -3482 3438 0
49 -3467 -3483 3439 0
49 -3467 -3484 3440 0
49 -3467 -3485 3441 0
49 -3467 -3486 3442 0
49 -3467 -3487 3443 0
49 -3467 -3488 3444 0
49 -3467 -3489 3445 0
49 -3467 -3490 3446 0
49 -3467 -3491 3447 0
49 -3467 -3492 3448 0
49 -3467 -3493 3449 0
49 -3467 -3494 3450 0
49 -3468 -3479 3436 0
49 -3468 -3480 3437 0
49 -3468 -3481 3438 0
49 -3468 -3482 3439 0
49 -3468 -3483 3440 0
49 -3468 -3484 3441 0
49 -3468 -3485 3442 0
49 -3468 -3486 3443 0
49 -3468 -3487 3444 0
49 -3468 -3488 3445 0
49 -3468 -3489 3446 0
49 -3468 -3490 3447 0
49 -3468 -3491 3448 0
49 -3468 -3492 3449 0
49 -3468 -3493 3450 0
49 -3468 -3494 3451 0
49 -3469 -3479 3437 0
49 -3469 -3480 3438 0
49 -3469 -3481 3439 0
49 -3469 -3482 3440 0
49 -3469 -3483 3441 0
49 -3469 -3484 3442 0
49 -3469 -3485 3443 0
49 -3469 -3486 3444 0
49 -3469 -3487 3445 0
49 -3469 -3488 3446 0
49 -3469 -3489 3447 0
49 -3469 -3490 3448 0
49 -3469 -3491 3449 0
49 -3469 -3492 3450 0
49 -3469 -3493 3451 0
49 -3469 -3494 3452 0
49 -3470 -3479 3438 0
49 -3470 -3480 3439 0
49 -3470 -3481 3440 0
49 -3470 -3482 3441 0
49 -3470 -3483 3442 0
49 -3470 -3484 3443 0
49 -3470 -3485 3444 0
49 -3470 -3486 3445 0
49 -3470 -3487 3446 0
49 -3470 -3488 3447 0
49 -3470 -3489 3448 0
49 -3470 -3490 3449 0
49 -3470 -3491 3450 0
49 -3470 -3492 3451 0
49 -3470 -3493 3452 0
49 -3470 -3494 3453 0
49 -3471 -3479 3439 0
49 -3471 -3480 3440 0
49 -3471 -3481 3441 0
49 -3471 -3482 3442 0
49 -3471 -3483 3443 0
49 -3471 -3484 3444 0
49 -3471 -3485 3445 0
49 -3471 -3486 3446 0
49 -3471 -3487 3447 0
49 -3471 -3488 3448 0
49 -3471 -3489 3449 0
49 -3471 -3490 3450 0
49 -3471 -3491 3451 0
49 -3471 -3492 3452 0
49 -3471 -3493 3453 0
49 -3471 -3494 3454 0
49 -3472 -3479 3440 0
49 -3472 -3480 3441 0
49 -3472 -3481 3442 0
49 -3472 -3482 3443 0
49 -3472 -3483 3444 0
49 -3472 -3484 3445 0
49 -3472 -3485 3446 0
49 -3472 -3486 3447 0
49 -3472 -3487 3448 0
49 -3472 -3488 3449 0
49 -3472 -3489 3450 0
49 -3472 -3490 3451 0
49 -3472 -3491 3452 0
49 -3472 -3492 3453 0
49 -3472 -3493 3454 0
49 -3472 -3494 3455 0
49 -3473 -3479 3441 0
49 -3473 -3480 3442 0
49 -3473 -3481 3443 0
49 -3473 -3482 3444 0
49 -3473 -3483 3445 0
49 -3473 -3484 3446 0
49 -3473 -3485 3447 0
49 -3473 -3486 3448 0
49 -3473 -3487 3449 0
49 -3473 -3488 3450 0
49 -3473 -3489 3451 0
49 -3473 -3490 3452 0
49 -3473 -3491 3453 0
49 -3473 -3492 3454 0
49 -3473 -3493 3455 0
49 -3473 -3494 3456 0
49 -3474 -3479 3442 0
49 -3474 -3480 3443 0
49 -3474 -3481 3444 0
49 -3474 -3482 3445 0
49 -3474 -3483 3446 0
49 -3474 -3484 3447 0
49 -3474 -3485 3448 0
49 -3474 -3486 3449 0
49 -3474 -3487 3450 0
49 -3474 -3488 3451 0
49 -3474 -3489 3452 0
49 -3474 -3490 3453 0
49 -3474 -3491 3454 0
49 -3474 -3492 3455 0
49 -3474 -3493 3456 0
49 -3474 -3494 3457 0
49 -3475 -3479 3443 0
49 -3475 -3480 3444 0
49 -3475 -3481 3445 0
49 -3475 -3482 3446 0
49 -3475 -3483 3447 0
49 -3475 -3484 3448 0
49 -3475 -3485 3449 0
49 -3475 -3486 3450 0
49 -3475 -3487 3451 0
49 -3475 -3488 3452 0
49 -3475 -3489 3453 0
49 -3475 -3490 3454 0
49 -3475 -3491 3455 0
49 -3475 -3492 3456 0
49 -3475 -3493 3457 0
49 -3475 -3494 3458 0
49 -3476 -3479 3444 0
49 -3476 -3480 3445 0
49 -3476 -3481 3446 0
49 -3476 -3482 3447 0
49 -3476 -3483 3448 0
49 -3476 -3484 3449 0
49 -3476 -3485 3450 0
49 -3476 -3486 3451 0
49 -3476 -3487 3452 0
49 -3476 -3488 3453 0
49 -3476 -3489 3454 0
49 -3476 -3490 3455 0
49 -3476 -3491 3456 0
49 -3476 -3492 3457 0
49 -3476 -3493 3458 0
49 -3476 -3494 3459 0
49 -3477 -3479 3445 0
49 -3477 -3480 3446 0
49 -3477 -3481 3447 0
49 -3477 -3482 3448 0
49 -3477 -3483 3449 0
49 -3477 -3484 3450 0
49 -3477 -3485 3451 0
49 -3477 -3486 3452 0
49 -3477 -3487 3453 0
49 -3477 -3488 3454 0
49 -3477 -3489 3455 0
49 -3477 -3490 3456 0
49 -3477 -3491 3457 0
49 -3477 -3492 3458 0
49 -3477 -3493 3459 0
49 -3477 -3494 3460 0
49 -3478 -3479 3446 0
49 -3478 -3480 3447 0
49 -3478 -3481 3448 0
49 -3478 -3482 3449 0
49 -3478 -3483 3450 0
49 -3478 -3484 3451 0
49 -3478 -3485 3452 0
49 -3478 -3486 3453 0
49 -3478 -3487 3454 0
49 -3478 -3488 3455 0
49 -3478 -3489 3456 0
49 -3478 -3490 3457 0
49 -3478 -3491 3458 0
49 -3478 -3492 3459 0
49 -3478 -3493 3460 0
49 -3478 -3494 3461 0
49 -3503 3479 0
49 -3504 3480 0
49 -3505 3481 0
49 -3506 3482 0
49 -3507 3483 0
49 -3508 3484 0
49 -3509 3485 0
49 -3510 3486 0
49 -3495 3479 0
49 -3496 3480 0
49 -3497 3481 0
49 -3498 3482 0
49 -3499 3483 0
49 -3500 3484 0
49 -3501 3485 0
49 -3502 3486 0
49 -3495 -3503 3480 0
49 -3495 -3504 3481 0
49 -3495 -3505 3482 0
49 -3495 -3506 3483 0
49 -3495 -3507 3484 0
49 -3495 -3508 3485 0
49 -3495 -3509 3486 0
49 -3495 -3510 3487 0
49 -3496 -3503 3481 0
49 -3496 -3504 3482 0
49 -3496 -3505 3483 0
49 -3496 -3506 3484 0
49 -3496 -3507 3485 0
49 -3496 -3508 3486 0
49 -3496 -3509 3487 0
49 -3496 -3510 3488 0
49 -3497 -3503 3482 0
49 -3497 -3504 3483 0
49 -3497 -3505 3484 0
49 -3497 -3506 3485 0
49 -3497 -3507 3486 0
49 -3497 -3508 3487 0
49 -3497 -3509 3488 0
49 -3497 -3510 3489 0
49 -3498 -3503 3483 0
49 -3498 -3504 3484 0
49 -3498 -3505 3485 0
49 -3498 -3506 3486 0
49 -3498 -3507 3487 0
49 -3498 -3508 3488 0
49 -3498 -3509 3489 0
49 -3498 -3510 3490 0
49 -3499 -3503 3484 0
49 -3499 -3504 3485 0
49 -3499 -3505 3486 0
49 -3499 -3506 3487 0
49 -3499 -3507 3488 0
49 -3499 -3508 3489 0
49 -3499 -3509 3490 0
49 -3499 -3510 3491 0
49 -3500 -3503 3485 0
49 -3500 -3504 3486 0
49 -3500 -3505 3487 0
49 -3500 -3506 3488 0
49 -3500 -3507 3489 0
49 -3500 -3508 3490 0
49 -3500 -3509 3491 0
49 -3500 -3510 3492 0
49 -3501 -3503 3486 0
49 -3501 -3504 3487 0
49 -3501 -3505 3488 0
49 -3501 -3506 3489 0
49 -3501 -3507 3490 0
49 -3501 -3508 3491 0
49 -3501 -3509 3492 0
49 -3501 -3510 3493 0
49 -3502 -3503 3487 0
49 -3502 -3504 3488 0
49 -3502 -3505 3489 0
49 -3502 -3506 3490 0
49 -3502 -3507 3491 0
49 -3502 -3508 3492 0
49 -3502 -3509 3493 0
49 -3502 -3510 3494 0
49 -3515 3503 0
49 -3516 3504 0
49 -3517 3505 0
49 -3518 3506 0
49 -3511 3503 0
49 -3512 3504 0
49 -3513 3505 0
49 -3514 3506 0
49 -3511 -3515 3504 0
49 -3511 -3516 3505 0
49 -3511 -3517 3506 0
49 -3511 -3518 3507 0
49 -3512 -3515 3505 0
49 -3512 -3516 3506 0
49 -3512 -3517 3507 0
49 -3512 -3518 3508 0
49 -3513 -3515 3506 0
49 -3513 -3516 3507 0
49 -3513 -3517 3508 0
49 -3513 -3518 3509 0
49 -3514 -3515 3507 0
49 -3514 -3516 3508 0
49 -3514 -3517 3509 0
49 -3514 -3518 3510 0
49 -3521 3515 0
49 -3522 3516 0
49 -3519 3515 0
49 -3520 3516 0
49 -3519 -3521 3516 0
49 -3519 -3522 3517 0
49 -3520 -3521 3517 0
49 -3520 -3522 3518 0
49 -1001 3521 0
49 -1000 3521 0
49 -1000 -1001 3522 0
49 -999 3519 0
49 -998 3519 0
49 -998 -999 3520 0
49 -3525 3511 0
49 -3526 3512 0
49 -3523 3511 0
49 -3524 3512 0
49 -3523 -3525 3512 0
49 -3523 -3526 3513 0
49 -3524 -3525 3513 0
49 -3524 -3526 3514 0
49 -997 3525 0
49 -996 3525 0
49 -996 -997 3526 0
49 -995 3523 0
49 -994 3523 0
49 -994 -995 3524 0
49 -3531 3495 0
49 -3532 3496 0
49 -3533 3497 0
49 -3534 3498 0
49 -3527 3495 0
49 -3528 3496 0
49 -3529 3497 0
49 -3530 3498 0
49 -3527 -3531 3496 0
49 -3527 -3532 3497 0
49 -3527 -3533 3498 0
49 -3527 -3534 3499 0
49 -3528 -3531 3497 0
49 -3528 -3532 3498 0
49 -3528 -3533 3499 0
49 -3528 -3534 3500 0
49 -3529 -3531 3498 0
49 -3529 -3532 3499 0
49 -3529 -3533 3500 0
49 -3529 -3534 3501 0
49 -3530 -3531 3499 0
49 -3530 -3532 3500 0
49 -3530 -3533 3501 0
49 -3530 -3534 3502 0
49 -3537 3531 0
49 -3538 3532 0
49 -3535 3531 0
49 -3536 3532 0
49 -3535 -3537 3532 0
49 -3535 -3538 3533 0
49 -3536 -3537 3533 0
49 -3536 -3538 3534 0
49 -993 3537 0
49 -992 3537 0
49 -992 -993 3538 0
49 -991 3535 0
49 -990 3535 0
49 -990 -991 3536 0
49 -3541 3527 0
49 -3542 3528 0
49 -3539 3527 0
49 -3540 3528 0
49 -3539 -3541 3528 0
49 -3539 -3542 3529 0
49 -3540 -3541 3529 0
49 -3540 -3542 3530 0
49 -989 3541 0
49 -988 3541 0
49 -988 -989 3542 0
49 -987 3539 0
49 -986 3539 0
49 -986 -987 3540 0
49 -3552 3462 0
49 -3553 3463 0
49 -3554 3464 0
49 -3555 3465 0
49 -3556 3466 0
49 -3557 3467 0
49 -3558 3468 0
49 -3559 3469 0
49 -3543 3462 0
49 -3544 3463 0
49 -3545 3464 0
49 -3546 3465 0
49 -3547 3466 0
49 -3548 3467 0
49 -3549 3468 0
49 -3550 3469 0
49 -3551 3470 0
49 -3543 -3552 3463 0
49 -3543 -3553 3464 0
49 -3543 -3554 3465 0
49 -3543 -3555 3466 0
49 -3543 -3556 3467 0
49 -3543 -3557 3468 0
49 -3543 -3558 3469 0
49 -3543 -3559 3470 0
49 -3544 -3552 3464 0
49 -3544 -3553 3465 0
49 -3544 -3554 3466 0
49 -3544 -3555 3467 0
49 -3544 -3556 3468 0
49 -3544 -3557 3469 0
49 -3544 -3558 3470 0
49 -3544 -3559 3471 0
49 -3545 -3552 3465 0
49 -3545 -3553 3466 0
49 -3545 -3554 3467 0
49 -3545 -3555 3468 0
49 -3545 -3556 3469 0
49 -3545 -3557 3470 0
49 -3545 -3558 3471 0
49 -3545 -3559 3472 0
49 -3546 -3552 3466 0
49 -3546 -3553 3467 0
49 -3546 -3554 3468 0
49 -3546 -3555 3469 0
49 -3546 -3556 3470 0
49 -3546 -3557 3471 0
49 -3546 -3558 3472 0
49 -3546 -3559 3473 0
49 -3547 -3552 3467 0
49 -3547 -3553 3468 0
49 -3547 -3554 3469 0
49 -3547 -3555 3470 0
49 -3547 -3556 3471 0
49 -3547 -3557 3472 0
49 -3547 -3558 3473 0
49 -3547 -3559 3474 0
49 -3548 -3552 3468 0
49 -3548 -3553 3469 0
49 -3548 -3554 3470 0
49 -3548 -3555 3471 0
49 -3548 -3556 3472 0
49 -3548 -3557 3473 0
49 -3548 -3558 3474 0
49 -3548 -3559 3475 0
49 -3549 -3552 3469 0
49 -3549 -3553 3470 0
49 -3549 -3554 3471 0
49 -3549 -3555 3472 0
49 -3549 -3556 3473 0
49 -3549 -3557 3474 0
49 -3549 -3558 3475 0
49 -3549 -3559 3476 0
49 -3550 -3552 3470 0
49 -3550 -3553 3471 0
49 -3550 -3554 3472 0
49 -3550 -3555 3473 0
49 -3550 -3556 3474 0
49 -3550 -3557 3475 0
49 -3550 -3558 3476 0
49 -3550 -3559 3477 0
49 -3551 -3552 3471 0
49 -3551 -3553 3472 0
49 -3551 -3554 3473 0
49 -3551 -3555 3474 0
49 -3551 -3556 3475 0
49 -3551 -3557 3476 0
49 -3551 -3558 3477 0
49 -3551 -3559 3478 0
49 -3564 3552 0
49 -3565 3553 0
49 -3566 3554 0
49 -3567 3555 0
49 -3560 3552 0
49 -3561 3553 0
49 -3562 3554 0
49 -3563 3555 0
49 -3560 -3564 3553 0
49 -3560 -3565 3554 0
49 -3560 -3566 3555 0
49 -3560 -3567 3556 0
49 -3561 -3564 3554 0
49 -3561 -3565 3555 0
49 -3561 -3566 3556 0
49 -3561 -3567 3557 0
49 -3562 -3564 3555 0
49 -3562 -3565 3556 0
49 -3562 -3566 3557 0
49 -3562 -3567 3558 0
49 -3563 -3564 3556 0
49 -3563 -3565 3557 0
49 -3563 -3566 3558 0
49 -3563 -3567 3559 0
49 -3570 3564 0
49 -3571 3565 0
49 -3568 3564 0
49 -3569 3565 0
49 -3568 -3570 3565 0
49 -3568 -3571 3566 0
49 -3569 -3570 3566 0
49 -3569 -3571 3567 0
49 -985 3570 0
49 -984 3570 0
49 -984 -985 3571 0
49 -983 3568 0
49 -982 3568 0
49 -982 -983 3569 0
49 -3574 3560 0
49 -3575 3561 0
49 -3572 3560 0
49 -3573 3561 0
49 -3572 -3574 3561 0
49 -3572 -3575 3562 0
49 -3573 -3574 3562 0
49 -3573 -3575 3563 0
49 -981 3574 0
49 -980 3574 0
49 -980 -981 3575 0
49 -979 3572 0
49 -978 3572 0
49 -978 -979 3573 0
49 -3581 3543 0
49 -3582 3544 0
49 -3583 3545 0
49 -3584 3546 0
49 -3576 3543 0
49 -3577 3544 0
49 -3578 3545 0
49 -3579 3546 0
49 -3580 3547 0
49 -3576 -3581 3544 0
49 -3576 -3582 3545 0
49 -3576 -3583 3546 0
49 -3576 -3584 3547 0
49 -3577 -3581 3545 0
49 -3577 -3582 3546 0
49 -3577 -3583 3547 0
49 -3577 -3584 3548 0
49 -3578 -3581 3546 0
49 -3578 -3582 3547 0
49 -3578 -3583 3548 0
49 -3578 -3584 3549 0
49 -3579 -3581 3547 0
49 -3579 -3582 3548 0
49 -3579 -3583 3549 0
49 -3579 -3584 3550 0
49 -3580 -3581 3548 0
49 -3580 -3582 3549 0
49 -3580 -3583 3550 0
49 -3580 -3584 3551 0
49 -3587 3581 0
49 -3588 3582 0
49 -3585 3581 0
49 -3586 3582 0
49 -3585 -3587 3582 0
49 -3585 -3588 3583 0
49 -3586 -3587 3583 0
49 -3586 -3588 3584 0
49 -977 3587 0
49 -976 3587 0
49 -976 -977 3588 0
49 -975 3585 0
49 -974 3585 0
49 -974 -975 3586 0
49 -3592 3576 0
49 -3593 3577 0
49 -3589 3576 0
49 -3590 3577 0
49 -3591 3578 0
49 -3589 -3592 3577 0
49 -3589 -3593 3578 0
49 -3590 -3592 3578 0
49 -3590 -3593 3579 0
49 -3591 -3592 3579 0
49 -3591 -3593 3580 0
49 -973 3592 0
49 -972 3592 0
49 -972 -973 3593 0
49 -971 3589 0
49 -3594 3589 0
49 -3595 3590 0
49 -3594 -971 3590 0
49 -3595 -971 3591 0
49 -970 3594 0
49 -969 3594 0
49 -969 -970 3595 0
49 -3430 0
49 1002 1003 1004 1005 1006 1007 1008 1009 1010 1011 1012 1013 1014 1015 1016 1017 1018 1019 1020 1021 1022 1023 1024 1025 1026 1027 1028 1029 1030 1031 1032 1033 1034 0
49 -3646 3596 0
49 -3647 3597 0
49 -3648 3598 0
49 -3649 3599 0
49 -3650 3600 0
49 -3651 3601 0
49 -3652 3602 0
49 -3653 3603 0
49 -3654 3604 0
49 -3655 3605 0
49 -3656 3606 0
49 -3657 3607 0
49 -3658 3608 0
49 -3659 3609 0
49 -3660 3610 0
49 -3661 3611 0
49 -3629 3596 0
49 -3630 3597 0
49 -3631 3598 0
49 -3632 3599 0
49 -3633 3600 0
49 -3634 3601 0
49 -3635 3602 0
49 -3636 3603 0
49 -3637 3604 0
49 -3638 3605 0
49 -3639 3606 0
49 -3640 3607 0
49 -3641 3608 0
49 -3642 3609 0
49 -3643 3610 0
49 -3644 3611 0
49 -3645 3612 0
49 -3629 -3646 3597 0
49 -3629 -3647 3598 0
49 -3629 -3648 3599 0
49 -3629 -3649 3600 0
49 -3629 -3650 3601 0
49 -3629 -3651 3602 0
49 -3629 -3652 3603 0
49 -3629 -3653 3604 0
49 -3629 -3654 3605 0
49 -3629 -3655 3606 0
49 -3629 -3656 3607 0
49 -3629 -3657 3608 0
49 -3629 -3658 3609 0
49 -3629 -3659 3610 0
49 -3629 -3660 3611 0
49 -3629 -3661 3612 0
49 -3630 -3646 3598 0
49 -3630 -3647 3599 0
49 -3630 -3648 3600 0
49 -3630 -3649 3601 0
49 -3630 -3650 3602 0
49 -3630 -3651 3603 0
49 -3630 -3652 3604 0
49 -3630 -3653 3605 0
49 -3630 -3654 3606 0
49 -3630 -3655 3607 0
49 -3630 -3656 3608 0
49 -3630 -3657 3609 0
49 -3630 -3658 3610 0
49 -3630 -3659 3611 0
49 -3630 -3660 3612 0
49 -3630 -3661 3613 0
49 -3631 -3646 3599 0
49 -3631 -3647 3600 0
49 -3631 -3648 3601 0
49 -3631 -3649 3602 0
49 -3631 -3650 3603 0
49 -3631 -3651 3604 0
49 -3631 -3652 3605 0
49 -3631 -3653 3606 0
49 -3631 -3654 3607 0
49 -3631 -3655 3608 0
49 -3631 -3656 3609 0
49 -3631 -3657 3610 0
49 -3631 -3658 3611 0
49 -3631 -3659 3612 0
49 -3631 -3660 3613 0
49 -3631 -3661 3614 0
49 -3632 -3646 3600 0
49 -3632 -3647 3601 0
49 -3632 -3648 3602 0
49 -3632 -3649 3603 0
49 -3632 -3650 3604 0
49 -3632 -3651 3605 0
49 -3632 -3652 3606 0
49 -3632 -3653 3607 0
49 -3632 -3654 3608 0
49 -3632 -3655 3609 0
49 -3632 -3656 3610 0
49 -3632 -3657 3611 0
49 -3632 -3658 3612 0
49 -3632 -3659 3613 0
49 -3632 -3660 3614 0
49 -3632 -3661 3615 0
49 -3633 -3646 3601 0
49 -3633 -3647 3602 0
49 -3633 -3648 3603 0
49 -3633 -3649 3604 0
49 -3633 -3650 3605 0
49 -3633 -3651 3606 0
49 -3633 -3652 3607 0
49 -3633 -3653 3608 0
49 -3633 -3654 3609 0
49 -3633 -3655 3610 0
49 -3633 -3656 3611 0
49 -3633 -3657 3612 0
49 -3633 -3658 3613 0
49 -3633 -3659 3614 0
49 -3633 -3660 3615 0
49 -3633 -3661 3616 0
49 -3634 -3646 3602 0
49 -3634 -3647 3603 0
49 -3634 -3648 3604 0
49 -3634 -3649 3605 0
49 -3634 -3650 3606 0
49 -3634 -3651 3607 0
49 -3634 -3652 3608 0
49 -3634 -3653 3609 0
49 -3634 -3654 3610 0
49 -3634 -3655 3611 0
49 -3634 -3656 3612 0
49 -3634 -3657 3613 0
49 -3634 -3658 3614 0
49 -3634 -3659 3615 0
49 -3634 -3660 3616 0
49 -3634 -3661 3617 0
49 -3635 -3646 3603 0
49 -3635 -3647 3604 0
49 -3635 -3648 3605 0
49 -3635 -3649 3606 0
49 -3635 -3650 3607 0
49 -3635 -3651 3608 0
49 -3635 -3652 3609 0
49 -3635 -3653 3610 0
49 -3635 -3654 3611 0
49 -3635 -3655 3612 0
49 -3635 -3656 3613 0
49 -3635 -3657 3614 0
49 -3635 -3658 3615 0
49 -3635 -3659 3616 0
49 -3635 -3660 3617 0
49 -3635 -3661 3618 0
49 -3636 -3646 3604 0
49 -3636 -3647 3605 0
49 -3636 -3648 3606 0
49 -3636 -3649 3607 0
49 -3636 -3650 3608 0
49 -3636 -3651 3609 0
49 -3636 -3652 3610 0
49 -3636 -3653 3611 0
49 -3636 -3654 3612 0
49 -3636 -3655 3613 0
49 -3636 -3656 3614 0
49 -3636 -3657 3615 0
49 -3636 -3658 3616 0
49 -3636 -3659 3617 0
49 -3636 -3660 3618 0
49 -3636 -3661 3619 0
49 -3637 -3646 3605 0
49 -3637 -3647 3606 0
49 -3637 -3648 3607 0
49 -3637 -3649 3608 0
49 -3637 -3650 3609 0
49 -3637 -3651 3610 0
49 -3637 -3652 3611 0
49 -3637 -3653 3612 0
49 -3637 -3654 3613 0
49 -3637 -3655 3614 0
49 -3637 -3656 3615 0
49 -3637 -3657 3616 0
49 -3637 -3658 3617 0
49 -3637 -3659 3618 0
49 -3637 -3660 3619 0
49 -3637 -3661 3620 0
49 -3638 -3646 3606 0
49 -3638 -3647 3607 0
49 -3638 -3648 3608 0
49 -3638 -3649 3609 0
49 -3638 -3650 3610 0
49 -3638 -3651 3611 0
49 -3638 -3652 3612 0
49 -3638 -3653 3613 0
49 -3638 -3654 3614 0
49 -3638 -3655 3615 0
49 -3638 -3656 3616 0
49 -3638 -3657 3617 0
49 -3638 -3658 3618 0
49 -3638 -3659 3619 0
49 -3638 -3660 3620 0
49 -3638 -3661 3621 0
49 -3639 -3646 3607 0
49 -3639 -3647 3608 0
49 -3639 -3648 3609 0
49 -3639 -3649 3610 0
49 -3639 -3650 3611 0
49 -3639 -3651 3612 0
49 -3639 -3652 3613 0
49 -3639 -3653 3614 0
49 -3639 -3654 3615 0
49 -3639 -3655 3616 0
49 -3639 -3656 3617 0
49 -3639 -3657 3618 0
49 -3639 -3658 3619 0
49 -3639 -3659 3620 0
49 -3639 -3660 3621 0
49 -3639 -3661 3622 0
49 -3640 -3646 3608 0
49 -3640 -3647 3609 0
49 -3640 -3648 3610 0
49 -3640 -3649 3611 0
49 -3640 -3650 3612 0
49 -3640 -3651 3613 0
49 -3640 -3652 3614 0
49 -3640 -3653 3615 0
49 -3640 -3654 3616 0
49 -3640 -3655 3617 0
49 -3640 -3656 3618 0
49 -3640 -3657 3619 0
49 -3640 -3658 3620 0
49 -3640 -3659 3621 0
49 -3640 -3660 3622 0
49 -3640 -3661 3623 0
49 -3641 -3646 3609 0
49 -3641 -3647 3610 0
49 -3641 -3648 3611 0
49 -3641 -3649 3612 0
49 -3641 -3650 3613 0
49 -3641 -3651 3614 0
49 -3641 -3652 3615 0
49 -3641 -3653 3616 0
49 -3641 -3654 3617 0
49 -3641 -3655 3618 0
49 -3641 -3656 3619 0
49 -3641 -3657 3620 0
49 -3641 -3658 3621 0
49 -3641 -3659 3622 0
49 -3641 -3660 3623 0
49 -3641 -3661 3624 0
49 -3642 -3646 3610 0
49 -3642 -3647 3611 0
49 -3642 -3648 3612 0
49 -3642 -3649 3613 0
49 -3642 -3650 3614 0
49 -3642 -3651 3615 0
49 -3642 -3652 3616 0
49 -3642 -3653 3617 0
49 -3642 -3654 3618 0
49 -3642 -3655 3619 0
49 -3642 -3656 3620 0
49 -3642 -3657 3621 0
49 -3642 -3658 3622 0
49 -3642 -3659 3623 0
49 -3642 -3660 3624 0
49 -3642 -3661 3625 0
49 -3643 -3646 3611 0
49 -3643 -3647 3612 0
49 -3643 -3648 3613 0
49 -3643 -3649 3614 0
49 -3643 -3650 3615 0
49 -3643 -3651 3616 0
49 -3643 -3652 3617 0
49 -3643 -3653 3618 0
49 -3643 -3654 3619 0
49 -3643 -3655 3620 0
49 -3643 -3656 3621 0
49 -3643 -3657 3622 0
49 -3643 -3658 3623 0
49 -3643 -3659 3624 0
49 -3643 -3660 3625 0
49 -3643 -3661 3626 0
49 -3644 -3646 3612 0
49 -3644 -3647 3613 0
49 -3644 -3648 3614 0
49 -3644 -3649 3615 0
49 -3644 -3650 3616 0
49 -3644 -3651 3617 0
49 -3644 -3652 3618 0
49 -3644 -3653 3619 0
49 -3644 -3654 3620 0
49 -3644 -3655 3621 0
49 -3644 -3656 3622 0
49 -3644 -3657 3623 0
49 -3644 -3658 3624 0
49 -3644 -3659 3625 0
49 -3644 -3660 3626 0
49 -3644 -3661 3627 0
49 -3645 -3646 3613 0
49 -3645 -3647 3614 0
49 -3645 -3648 3615 0
49 -3645 -3649 3616 0
49 -3645 -3650 3617 0
49 -3645 -3651 3618 0
49 -3645 -3652 3619 0
49 -3645 -3653 3620 0
49 -3645 -3654 3621 0
49 -3645 -3655 3622 0
49 -3645 -3656 3623 0
49 -3645 -3657 3624 0
49 -3645 -3658 3625 0
49 -3645 -3659 3626 0
49 -3645 -3660 3627 0
49 -3645 -3661 3628 0
49 -3670 3646 0
49 -3671 3647 0
49 -3672 3648 0
49 -3673 3649 0
49 -3674 3650 0
49 -3675 3651 0
49 -3676 3652 0
49 -3677 3653 0
49 -3662 3646 0
49 -3663 3647 0
49 -3664 3648 0
49 -3665 3649 0
49 -3666 3650 0
49 -3667 3651 0
49 -3668 3652 0
49 -3669 3653 0
49 -3662 -3670 3647 0
49 -3662 -3671 3648 0
49 -3662 -3672 3649 0
49 -3662 -3673 3650 0
49 -3662 -3674 3651 0
49 -3662 -3675 3652 0
49 -3662 -3676 3653 0
49 -3662 -3677 3654 0
49 -3663 -3670 3648 0
49 -3663 -3671 3649 0
49 -3663 -3672 3650 0
49 -3663 -3673 3651 0
49 -3663 -3674 3652 0
49 -3663 -3675 3653 0
49 -3663 -3676 3654 0
49 -3663 -3677 3655 0
49 -3664 -3670 3649 0
49 -3664 -3671 3650 0
49 -3664 -3672 3651 0
49 -3664 -3673 3652 0
49 -3664 -3674 3653 0
49 -3664 -3675 3654 0
49 -3664 -3676 3655 0
49 -3664 -3677 3656 0
49 -3665 -3670 3650 0
49 -3665 -3671 3651 0
49 -3665 -3672 3652 0
49 -3665 -3673 3653 0
49 -3665 -3674 3654 0
49 -3665 -3675 3655 0
49 -3665 -3676 3656 0
49 -3665 -3677 3657 0
49 -3666 -3670 3651 0
49 -3666 -3671 3652 0
49 -3666 -3672 3653 0
49 -3666 -3673 3654 0
49 -3666 -3674 3655 0
49 -3666 -3675 3656 0
49 -3666 -3676 3657 0
49 -3666 -3677 3658 0
49 -3667 -3670 3652 0
49 -3667 -3671 3653 0
49 -3667 -3672 3654 0
49 -3667 -3673 3655 0
49 -3667 -3674 3656 0
49 -3667 -3675 3657 0
49 -3667 -3676 3658 0
49 -3667 -3677 3659 0
49 -3668 -3670 3653 0
49 -3668 -3671 3654 0
49 -3668 -3672 3655 0
49 -3668 -3673 3656 0
49 -3668 -3674 3657 0
49 -3668 -3675 3658 0
49 -3668 -3676 3659 0
49 -3668 -3677 3660 0
49 -3669 -3670 3654 0
49 -3669 -3671 3655 0
49 -3669 -3672 3656 0
49 -3669 -3673 3657 0
49 -3669 -3674 3658 0
49 -3669 -3675 3659 0
49 -3669 -3676 3660 0
49 -3669 -3677 3661 0
49 -3682 3670 0
49 -3683 3671 0
49 -3684 3672 0
49 -3685 3673 0
49 -3678 3670 0
49 -3679 3671 0
49 -3680 3672 0
49 -3681 3673 0
49 -3678 -3682 3671 0
49 -3678 -3683 3672 0
49 -3678 -3684 3673 0
49 -3678 -3685 3674 0
49 -3679 -3682 3672 0
49 -3679 -3683 3673 0
49 -3679 -3684 3674 0
49 -3679 -3685 3675 0
49 -3680 -3682 3673 0
49 -3680 -3683 3674 0
49 -3680 -3684 3675 0
49 -3680 -3685 3676 0
49 -3681 -3682 3674 0
49 -3681 -3683 3675 0
49 -3681 -3684 3676 0
49 -3681 -3685 3677 0
49 -3688 3682 0
49 -3689 3683 0
49 -3686 3682 0
49 -3687 3683 0
49 -3686 -3688 3683 0
49 -3686 -3689 3684 0
49 -3687 -3688 3684 0
49 -3687 -3689 3685 0
49 -1034 3688 0
49 -1033 3688 0
49 -1033 -1034 3689 0
49 -1032 3686 0
49 -1031 3686 0
49 -1031 -1032 3687 0
49 -3692 3678 0
49 -3693 3679 0
49 -3690 3678 0
49 -3691 3679 0
49 -3690 -3692 3679 0
49 -3690 -3693 3680 0
49 -3691 -3692 3680 0
49 -3691 -3693 3681 0
49 -1030 3692 0
49 -1029 3692 0
49 -1029 -1030 3693 0
49 -1028 3690 0
49 -1027 3690 0
49 -1027 -1028 3691 0
49 -3698 3662 0
49 -3699 3663 0
49 -3700 3664 0
49 -3701 3665 0
49 -3694 3662 0
49 -3695 3663 0
49 -3696 3664 0
49 -3697 3665 0
49 -3694 -3698 3663 0
49 -3694 -3699 3664 0
49 -3694 -3700 3665 0
49 -3694 -3701 3666 0
49 -3695 -3698 3664 0
49 -3695 -3699 3665 0
49 -3695 -3700 3666 0
49 -3695 -3701 3667 0
49 -3696 -3698 3665 0
49 -3696 -3699 3666 0
49 -3696 -3700 3667 0
49 -3696 -3701 3668 0
49 -3697 -3698 3666 0
49 -3697 -3699 3667 0
49 -3697 -3700 3668 0
49 -3697 -3701 3669 0
49 -3704 3698 0
49 -3705 3699 0
49 -3702 3698 0
49 -3703 3699 0
49 -3702 -3704 3699 0
49 -3702 -3705 3700 0
49 -3703 -3704 3700 0
49 -3703 -3705 3701 0
49 -1026 3704 0
49 -1025 3704 0
49 -1025 -1026 3705 0
49 -1024 3702 0
49 -1023 3702 0
49 -1023 -1024 3703 0
49 -3708 3694 0
49 -3709 3695 0
49 -3706 3694 0
49 -3707 3695 0
49 -3706 -3708 3695 0
49 -3706 -3709 3696 0
49 -3707 -3708 3696 0
49 -3707 -3709 3697 0
49 -1022 3708 0
49 -1021 3708 0
49 -1021 -1022 3709 0
49 -1020 3706 0
49 -1019 3706 0
49 -1019 -1020 3707 0
49 -3719 3629 0
49 -3720 3630 0
49 -3721 3631 0
49 -3722 3632 0
49 -3723 3633 0
49 -3724 3634 0
49 -3725 3635 0
49 -3726 3636 0
49 -3710 3629 0
49 -3711 3630 0
49 -3712 3631 0
49 -3713 3632 0
49 -3714 3633 0
49 -3715 3634 0
49 -3716 3635 0
49 -3717 3636 0
49 -3718 3637 0
49 -3710 -3719 3630 0
49 -3710 -3720 3631 0
49 -3710 -3721 3632 0
49 -3710 -3722 3633 0
49 -3710 -3723 3634 0
49 -3710 -3724 3635 0
49 -3710 -3725 3636 0
49 -3710 -3726 3637 0
49 -3711 -3719 3631 0
49 -3711 -3720 3632 0
49 -3711 -3721 3633 0
49 -3711 -3722 3634 0
49 -3711 -3723 3635 0
49 -3711 -3724 3636 0
49 -3711 -3725 3637 0
49 -3711 -3726 3638 0
49 -3712 -3719 3632 0
49 -3712 -3720 3633 0
49 -3712 -3721 3634 0
49 -3712 -3722 3635 0
49 -3712 -3723 3636 0
49 -3712 -3724 3637 0
49 -3712 -3725 3638 0
49 -3712 -3726 3639 0
49 -3713 -3719 3633 0
49 -3713 -3720 3634 0
49 -3713 -3721 3635 0
49 -3713 -3722 3636 0
49 -3713 -3723 3637 0
49 -3713 -3724 3638 0
49 -3713 -3725 3639 0
49 -3713 -3726 3640 0
49 -3714 -3719 3634 0
49 -3714 -3720 3635 0
49 -3714 -3721 3636 0
49 -3714 -3722 3637 0
49 -3714 -3723 3638 0
49 -3714 -3724 3639 0
49 -3714 -3725 3640 0
49 -3714 -3726 3641 0
49 -3715 -3719 3635 0
49 -3715 -3720 3636 0
49 -3715 -3721 3637 0
49 -3715 -3722 3638 0
49 -3715 -3723 3639 0
49 -3715 -3724 3640 0
49 -3715 -3725 3641 0
49 -3715 -3726 3642 0
49 -3716 -3719 3636 0
49 -3716 -3720 3637 0
49 -3716 -3721 3638 0
49 -3716 -3722 3639 0
49 -3716 -3723 3640 0
49 -3716 -3724 3641 0
49 -3716 -3725 3642 0
49 -3716 -3726 3643 0
49 -3717 -3719 3637 0
49 -3717 -3720 3638 0
49 -3717 -3721 3639 0
49 -3717 -3722 3640 0
49 -3717 -3723 3641 0
49 -3717 -3724 3642 0
49 -3717 -3725 3643 0
49 -3717 -3726 3644 0
49 -3718 -3719 3638 0
49 -3718 -3720 3639 0
49 -3718 -3721 3640 0
49 -3718 -3722 3641 0
49 -3718 -3723 3642 0
49 -3718 -3724 3643 0
49 -3718 -3725 3644 0
49 -3718 -3726 3645 0
49 -3731 3719 0
49 -3732 3720 0
49 -3733 3721 0
49 -3734 3722 0
49 -3727 3719 0
49 -3728 3720 0
49 -3729 3721 0
49 -3730 3722 0
49 -3727 -3731 3720 0
49 -3727 -3732 3721 0
49 -3727 -3733 3722 0
49 -3727 -3734 3723 0
49 -3728 -3731 3721 0
49 -3728 -3732 3722 0
49 -3728 -3733 3723 0
49 -3728 -3734 3724 0
49 -3729 -3731 3722 0
49 -3729 -3732 3723 0
49 -3729 -3733 3724 0
49 -3729 -3734 3725 0
49 -3730 -3731 3723 0
49 -3730 -3732 3724 0
49 -3730 -3733 3725 0
49 -3730 -3734 3726 0
49 -3737 3731 0
49 -3738 3732 0
49 -3735 3731 0
49 -3736 3732 0
49 -3735 -3737 3732 0
49 -3735 -3738 3733 0
49 -3736 -3737 3733 0
49 -3736 -3738 3734 0
49 -1018 3737 0
49 -1017 3737 0
49 -1017 -1018 3738 0
49 -1016 3735 0
49 -1015 3735 0
49 -1015 -1016 3736 0
49 -3741 3727 0
49 -3742 3728 0
49 -3739 3727 0
49 -3740 3728 0
49 -3739 -3741 3728 0
49 -3739 -3742 3729 0
49 -3740 -3741 3729 0
49 -3740 -3742 3730 0
49 -1014 3741 0
49 -1013 3741 0
49 -1013 -1014 3742 0
49 -1012 3739 0
49 -1011 3739 0
49 -1011 -1012 3740 0
49 -3748 3710 0
49 -3749 3711 0
49 -3750 3712 0
49 -3751 3713 0
49 -3743 3710 0
49 -3744 3711 0
49 -3745 3712 0
49 -3746 3713 0
49 -3747 3714 0
49 -3743 -3748 3711 0
49 -3743 -3749 3712 0
49 -3743 -3750 3713 0
49 -3743 -3751 3714 0
49 -3744 -3748 3712 0
49 -3744 -3749 3713 0
49 -3744 -3750 3714 0
49 -3744 -3751 3715 0
49 -3745 -3748 3713 0
49 -3745 -3749 3714 0
49 -3745 -3750 3715 0
49 -3745 -3751 3716 0
49 -3746 -3748 3714 0
49 -3746 -3749 3715 0
49 -3746 -3750 3716 0
49 -3746 -3751 3717 0
49 -3747 -3748 3715 0
49 -3747 -3749 3716 0
49 -3747 -3750 3717 0
49 -3747 -3751 3718 0
49 -3754 3748 0
49 -3755 3749 0
49 -3752 3748 0
49 -3753 3749 0
49 -3752 -3754 3749 0
49 -3752 -3755 3750 0
49 -3753 -3754 3750 0
49 -3753 -3755 3751 0
49 -1010 3754 0
49 -1009 3754 0
49 -1009 -1010 3755 0
49 -1008 3752 0
49 -1007 3752 0
49 -1007 -1008 3753 0
49 -3759 3743 0
49 -3760 3744 0
49 -3756 3743 0
49 -3757 3744 0
49 -3758 3745 0
49 -3756 -3759 3744 0
49 -3756 -3760 3745 0
49 -3757 -3759 3745 0
49 -3757 -3760 3746 0
49 -3758 -3759 3746 0
49 -3758 -3760 3747 0
49 -1006 3759 0
49 -1005 3759 0
49 -1005 -1006 3760 0
49 -1004 3756 0
49 -3761 3756 0
49 -3762 3757 0
49 -3761 -1004 3757 0
49 -3762 -1004 3758 0
49 -1003 3761 0
49 -1002 3761 0
49 -1002 -1003 3762 0
49 -3597 0
49 1035 0
49 1036 0
49 1037 0
49 1038 0
49 1039 0
49 1040 0
49 1041 1042 0
49 -1041 -1042 0
49 1043 1044 0
49 -1043 -1044 0
49 1045 1046 1047 1048 1049 1050 1051 1052 0
49 -3775 3763 0
49 -3776 3764 0
49 -3777 3765 0
49 -3778 3766 0
49 -3771 3763 0
49 -3772 3764 0
49 -3773 3765 0
49 -3774 3766 0
49 -3771 -3775 3764 0
49 -3771 -3776 3765 0
49 -3771 -3777 3766 0
49 -3771 -3778 3767 0
49 -3772 -3775 3765 0
49 -3772 -3776 3766 0
49 -3772 -3777 3767 0
49 -3772 -3778 3768 0
49 -3773 -3775 3766 0
49 -3773 -3776 3767 0
49 -3773 -3777 3768 0
49 -3773 -3778 3769 0
49 -3774 -3775 3767 0
49 -3774 -3776 3768 0
49 -3774 -3777 3769 0
49 -3774 -3778 3770 0
49 -3781 3775 0
49 -3782 3776 0
49 -3779 3775 0
49 -3780 3776 0
49 -3779 -3781 3776 0
49 -3779 -3782 3777 0
49 -3780 -3781 3777 0
49 -3780 -3782 3778 0
49 -1052 3781 0
49 -1051 3781 0
49 -1051 -1052 3782 0
49 -1050 3779 0
49 -1049 3779 0
49 -1049 -1050 3780 0
49 -3785 3771 0
49 -3786 3772 0
49 -3783 3771 0
49 -3784 3772 0
49 -3783 -3785 3772 0
49 -3783 -3786 3773 0
49 -3784 -3785 3773 0
49 -3784 -3786 3774 0
49 -1048 3785 0
49 -1047 3785 0
49 -1047 -1048 3786 0
49 -1046 3783 0
49 -1045 3783 0
49 -1045 -1046 3784 0
49 -3764 0
49 1053 1054 1055 1056 1057 1058 1059 1060 0
49 -3799 3787 0
49 -3800 3788 0
49 -3801 3789 0
49 -3802 3790 0
49 -3795 3787 0
49 -3796 3788 0
49 -3797 3789 0
49 -3798 3790 0
49 -3795 -3799 3788 0
49 -3795 -3800 3789 0
49 -3795 -3801 3790 0
49 -3795 -3802 3791 0
49 -3796 -3799 3789 0
49 -3796 -3800 3790 0
49 -3796 -3801 3791 0
49 -3796 -3802 3792 0
49 -3797 -3799 3790 0
49 -3797 -3800 3791 0
49 -3797 -3801 3792 0
49 -3797 -3802 3793 0
49 -3798 -3799 3791 0
49 -3798 -3800 3792 0
49 -3798 -3801 3793 0
49 -3798 -3802 3794 0
49 -3805 3799 0
49 -3806 3800 0
49 -3803 3799 0
49 -3804 3800 0
49 -3803 -3805 3800 0
49 -3803 -3806 3801 0
49 -3804 -3805 3801 0
49 -3804 -3806 3802 0
49 -1060 3805 0
49 -1059 3805 0
49 -1059 -1060 3806 0
49 -1058 3803 0
49 -1057 3803 0
49 -1057 -1058 3804 0
49 -3809 3795 0
49 -3810 3796 0
49 -3807 3795 0
49 -3808 3796 0
49 -3807 -3809 3796 0
49 -3807 -3810 3797 0
49 -3808 -3809 3797 0
49 -3808 -3810 3798 0
49 -1056 3809 0
49 -1055 3809 0
49 -1055 -1056 3810 0
49 -1054 3807 0
49 -1053 3807 0
49 -1053 -1054 3808 0
49 -3788 0
49 1061 0
49 1062 0
49 1063 1064 1065 1066 1067 1068 1069 1070 1071 1072 1073 1074 1075 1076 1077 1078 1079 1080 0
49 -3838 3811 0
49 -3839 3812 0
49 -3840 3813 0
49 -3841 3814 0
49 -3842 3815 0
49 -3843 3816 0
49 -3844 3817 0
49 -3845 3818 0
49 -3846 3819 0
49 -3829 3811 0
49 -3830 3812 0
49 -3831 3813 0
49 -3832 3814 0
49 -3833 3815 0
49 -3834 3816 0
49 -3835 3817 0
49 -3836 3818 0
49 -3837 3819 0
49 -3829 -3838 3812 0
49 -3829 -3839 3813 0
49 -3829 -3840 3814 0
49 -3829 -3841 3815 0
49 -3829 -3842 3816 0
49 -3829 -3843 3817 0
49 -3829 -3844 3818 0
49 -3829 -3845 3819 0
49 -3829 -3846 3820 0
49 -3830 -3838 3813 0
49 -3830 -3839 3814 0
49 -3830 -3840 3815 0
49 -3830 -3841 3816 0
49 -3830 -3842 3817 0
49 -3830 -3843 3818 0
49 -3830 -3844 3819 0
49 -3830 -3845 3820 0
49 -3830 -3846 3821 0
49 -3831 -3838 3814 0
49 -3831 -3839 3815 0
49 -3831 -3840 3816 0
49 -3831 -3841 3817 0
49 -3831 -3842 3818 0
49 -3831 -3843 3819 0
49 -3831 -3844 3820 0
49 -3831 -3845 3821 0
49 -3831 -3846 3822 0
49 -3832 -3838 3815 0
49 -3832 -3839 3816 0
49 -3832 -3840 3817 0
49 -3832 -3841 3818 0
49 -3832 -3842 3819 0
49 -3832 -3843 3820 0
49 -3832 -3844 3821 0
49 -3832 -3845 3822 0
49 -3832 -3846 3823 0
49 -3833 -3838 3816 0
49 -3833 -3839 3817 0
49 -3833 -3840 3818 0
49 -3833 -3841 3819 0
49 -3833 -3842 3820 0
49 -3833 -3843 3821 0
49 -3833 -3844 3822 0
49 -3833 -3845 3823 0
49 -3833 -3846 3824 0
49 -3834 -3838 3817 0
49 -3834 -3839 3818 0
49 -3834 -3840 3819 0
49 -3834 -3841 3820 0
49 -3834 -3842 3821 0
49 -3834 -3843 3822 0
49 -3834 -3844 3823 0
49 -3834 -3845 3824 0
49 -3834 -3846 3825 0
49 -3835 -3838 3818 0
49 -3835 -3839 3819 0
49 -3835 -3840 3820 0
49 -3835 -3841 3821 0
49 -3835 -3842 3822 0
49 -3835 -3843 3823 0
49 -3835 -3844 3824 0
49 -3835 -3845 3825 0
49 -3835 -3846 3826 0
49 -3836 -3838 3819 0
49 -3836 -3839 3820 0
49 -3836 -3840 3821 0
49 -3836 -3841 3822 0
49 -3836 -3842 3823 0
49 -3836 -3843 3824 0
49 -3836 -3844 3825 0
49 -3836 -3845 3826 0
49 -3836 -3846 3827 0
49 -3837 -3838 3820 0
49 -3837 -3839 3821 0
49 -3837 -3840 3822 0
49 -3837 -3841 3823 0
49 -3837 -3842 3824 0
49 -3837 -3843 3825 0
49 -3837 -3844 3826 0
49 -3837 -3845 3827 0
49 -3837 -3846 3828 0
49 -3852 3838 0
49 -3853 3839 0
49 -3854 3840 0
49 -3855 3841 0
49 -3847 3838 0
49 -3848 3839 0
49 -3849 3840 0
49 -3850 3841 0
49 -3851 3842 0
49 -3847 -3852 3839 0
49 -3847 -3853 3840 0
49 -3847 -3854 3841 0
49 -3847 -3855 3842 0
49 -3848 -3852 3840 0
49 -3848 -3853 3841 0
49 -3848 -3854 3842 0
49 -3848 -3855 3843 0
49 -3849 -3852 3841 0
49 -3849 -3853 3842 0
49 -3849 -3854 3843 0
49 -3849 -3855 3844 0
49 -3850 -3852 3842 0
49 -3850 -3853 3843 0
49 -3850 -3854 3844 0
49 -3850 -3855 3845 0
49 -3851 -3852 3843 0
49 -3851 -3853 3844 0
49 -3851 -3854 3845 0
49 -3851 -3855 3846 0
49 -3858 3852 0
49 -3859 3853 0
49 -3856 3852 0
49 -3857 3853 0
49 -3856 -3858 3853 0
49 -3856 -3859 3854 0
49 -3857 -3858 3854 0
49 -3857 -3859 3855 0
49 -1080 3858 0
49 -1079 3858 0
49 -1079 -1080 3859 0
49 -1078 3856 0
49 -1077 3856 0
49 -1077 -1078 3857 0
49 -3863 3847 0
49 -3864 3848 0
49 -3860 3847 0
49 -3861 3848 0
49 -3862 3849 0
49 -3860 -3863 3848 0
49 -3860 -3864 3849 0
49 -3861 -3863 3849 0
49 -3861 -3864 3850 0
49 -3862 -3863 3850 0
49 -3862 -3864 3851 0
49 -1076 3863 0
49 -1075 3863 0
49 -1075 -1076 3864 0
49 -1074 3860 0
49 -3865 3860 0
49 -3866 3861 0
49 -3865 -1074 3861 0
49 -3866 -1074 3862 0
49 -1073 3865 0
49 -1072 3865 0
49 -1072 -1073 3866 0
49 -3872 3829 0
49 -3873 3830 0
49 -3874 3831 0
49 -3875 3832 0
49 -3867 3829 0
49 -3868 3830 0
49 -3869 3831 0
49 -3870 3832 0
49 -3871 3833 0
49 -3867 -3872 3830 0
49 -3867 -3873 3831 0
49 -3867 -3874 3832 0
49 -3867 -3875 3833 0
49 -3868 -3872 3831 0
49 -3868 -3873 3832 0
49 -3868 -3874 3833 0
49 -3868 -3875 3834 0
49 -3869 -3872 3832 0
49 -3869 -3873 3833 0
49 -3869 -3874 3834 0
49 -3869 -3875 3835 0
49 -3870 -3872 3833 0
49 -3870 -3873 3834 0
49 -3870 -3874 3835 0
49 -3870 -3875 3836 0
49 -3871 -3872 3834 0
49 -3871 -3873 3835 0
49 -3871 -3874 3836 0
49 -3871 -3875 3837 0
49 -3878 3872 0
49 -3879 3873 0
49 -3876 3872 0
49 -3877 3873 0
49 -3876 -3878 3873 0
49 -3876 -3879 3874 0
49 -3877 -3878 3874 0
49 -3877 -3879 3875 0
49 -1071 3878 0
49 -1070 3878 0
49 -1070 -1071 3879 0
49 -1069 3876 0
49 -1068 3876 0
49 -1068 -1069 3877 0
49 -3883 3867 0
49 -3884 3868 0
49 -3880 3867 0
49 -3881 3868 0
49 -3882 3869 0
49 -3880 -3883 3868 0
49 -3880 -3884 3869 0
49 -3881 -3883 3869 0
49 -3881 -3884 3870 0
49 -3882 -3883 3870 0
49 -3882 -3884 3871 0
49 -1067 3883 0
49 -1066 3883 0
49 -1066 -1067 3884 0
49 -1065 3880 0
49 -3885 3880 0
49 -3886 3881 0
49 -3885 -1065 3881 0
49 -3886 -1065 3882 0
49 -1064 3885 0
49 -1063 3885 0
49 -1063 -1064 3886 0
49 -3812 0
49 1081 1082 1083 1084 1085 1086 1087 1088 1089 1090 1091 1092 1093 1094 1095 1096 1097 1098 0
49 -3914 3887 0
49 -3915 3888 0
49 -3916 3889 0
49 -3917 3890 0
49 -3918 3891 0
49 -3919 3892 0
49 -3920 3893 0
49 -3921 3894 0
49 -3922 3895 0
49 -3905 3887 0
49 -3906 3888 0
49 -3907 3889 0
49 -3908 3890 0
49 -3909 3891 0
49 -3910 3892 0
49 -3911 3893 0
49 -3912 3894 0
49 -3913 3895 0
49 -3905 -3914 3888 0
49 -3905 -3915 3889 0
49 -3905 -3916 3890 0
49 -3905 -3917 3891 0
49 -3905 -3918 3892 0
49 -3905 -3919 3893 0
49 -3905 -3920 3894 0
49 -3905 -3921 3895 0
49 -3905 -3922 3896 0
49 -3906 -3914 3889 0
49 -3906 -3915 3890 0
49 -3906 -3916 3891 0
49 -3906 -3917 3892 0
49 -3906 -3918 3893 0
49 -3906 -3919 3894 0
49 -3906 -3920 3895 0
49 -3906 -3921 3896 0
49 -3906 -3922 3897 0
49 -3907 -3914 3890 0
49 -3907 -3915 3891 0
49 -3907 -3916 3892 0
49 -3907 -3917 3893 0
49 -3907 -3918 3894 0
49 -3907 -3919 3895 0
49 -3907 -3920 3896 0
49 -3907 -3921 3897 0
49 -3907 -3922 3898 0
49 -3908 -3914 3891 0
49 -3908 -3915 3892 0
49 -3908 -3916 3893 0
49 -3908 -3917 3894 0
49 -3908 -3918 3895 0
49 -3908 -3919 3896 0
49 -3908 -3920 3897 0
49 -3908 -3921 3898 0
49 -3908 -3922 3899 0
49 -3909 -3914 3892 0
49 -3909 -3915 3893 0
49 -3909 -3916 3894 0
49 -3909 -3917 3895 0
49 -3909 -3918 3896 0
49 -3909 -3919 3897 0
49 -3909 -3920 3898 0
49 -3909 -3921 3899 0
49 -3909 -3922 3900 0
49 -3910 -3914 3893 0
49 -3910 -3915 3894 0
49 -3910 -3916 3895 0
49 -3910 -3917 3896 0
49 -3910 -3918 3897 0
49 -3910 -3919 3898 0
49 -3910 -3920 3899 0
49 -3910 -3921 3900 0
49 -3910 -3922 3901 0
49 -3911 -3914 3894 0
49 -3911 -3915 3895 0
49 -3911 -3916 3896 0
49 -3911 -3917 3897 0
49 -3911 -3918 3898 0
49 -3911 -3919 3899 0
49 -3911 -3920 3900 0
49 -3911 -3921 3901 0
49 -3911 -3922 3902 0
49 -3912 -3914 3895 0
49 -3912 -3915 3896 0
49 -3912 -3916 3897 0
49 -3912 -3917 3898 0
49 -3912 -3918 3899 0
49 -3912 -3919 3900 0
49 -3912 -3920 3901 0
49 -3912 -3921 3902 0
49 -3912 -3922 3903 0
49 -3913 -3914 3896 0
49 -3913 -3915 3897 0
49 -3913 -3916 3898 0
49 -3913 -3917 3899 0
49 -3913 -3918 3900 0
49 -3913 -3919 3901 0
49 -3913 -3920 3902 0
49 -3913 -3921 3903 0
49 -3913 -3922 3904 0
49 -3928 3914 0
49 -3929 3915 0
49 -3930 3916 0
49 -3931 3917 0
49 -3923 3914 0
49 -3924 3915 0
49 -3925 3916 0
49 -3926 3917 0
49 -3927 3918 0
49 -3923 -3928 3915 0
49 -3923 -3929 3916 0
49 -3923 -3930 3917 0
49 -3923 -3931 3918 0
49 -3924 -3928 3916 0
49 -3924 -3929 3917 0
49 -3924 -3930 3918 0
49 -3924 -3931 3919 0
49 -3925 -3928 3917 0
49 -3925 -3929 3918 0
49 -3925 -3930 3919 0
49 -3925 -3931 3920 0
49 -3926 -3928 3918 0
49 -3926 -3929 3919 0
49 -3926 -3930 3920 0
49 -3926 -3931 3921 0
49 -3927 -3928 3919 0
49 -3927 -3929 3920 0
49 -3927 -3930 3921 0
49 -3927 -3931 3922 0
49 -3934 3928 0
49 -3935 3929 0
49 -3932 3928 0
49 -3933 3929 0
49 -3932 -3934 3929 0
49 -3932 -3935 3930 0
49 -3933 -3934 3930 0
49 -3933 -3935 3931 0
49 -1098 3934 0
49 -1097 3934 0
49 -1097 -1098 3935 0
49 -1096 3932 0
49 -1095 3932 0
49 -1095 -1096 3933 0
49 -3939 3923 0
49 -3940 3924 0
49 -3936 3923 0
49 -3937 3924 0
49 -3938 3925 0
49 -3936 -3939 3924 0
49 -3936 -3940 3925 0
49 -3937 -3939 3925 0
49 -3937 -3940 3926 0
49 -3938 -3939 3926 0
49 -3938 -3940 3927 0
49 -1094 3939 0
49 -1093 3939 0
49 -1093 -1094 3940 0
49 -1092 3936 0
49 -3941 3936 0
49 -3942 3937 0
49 -3941 -1092 3937 0
49 -3942 -1092 3938 0
49 -1091 3941 0
49 -1090 3941 0
49 -1090 -1091 3942 0
49 -3948 3905 0
49 -3949 3906 0
49 -3950 3907 0
49 -3951 3908 0
49 -3943 3905 0
49 -3944 3906 0
49 -3945 3907 0
49 -3946 3908 0
49 -3947 3909 0
49 -3943 -3948 3906 0
49 -3943 -3949 3907 0
49 -3943 -3950 3908 0
49 -3943 -3951 3909 0
49 -3944 -3948 3907 0
49 -3944 -3949 3908 0
49 -3944 -3950 3909 0
49 -3944 -3951 3910 0
49 -3945 -3948 3908 0
49 -3945 -3949 3909 0
49 -3945 -3950 3910 0
49 -3945 -3951 3911 0
49 -3946 -3948 3909 0
49 -3946 -3949 3910 0
49 -3946 -3950 3911 0
49 -3946 -3951 3912 0
49 -3947 -3948 3910 0
49 -3947 -3949 3911 0
49 -3947 -3950 3912 0
49 -3947 -3951 3913 0
49 -3954 3948 0
49 -3955 3949 0
49 -3952 3948 0
49 -3953 3949 0
49 -3952 -3954 3949 0
49 -3952 -3955 3950 0
49 -3953 -3954 3950 0
49 -3953 -3955 3951 0
49 -1089 3954 0
49 -1088 3954 0
49 -1088 -1089 3955 0
49 -1087 3952 0
49 -1086 3952 0
49 -1086 -1087 3953 0
49 -3959 3943 0
49 -3960 3944 0
49 -3956 3943 0
49 -3957 3944 0
49 -3958 3945 0
49 -3956 -3959 3944 0
49 -3956 -3960 3945 0
49 -3957 -3959 3945 0
49 -3957 -3960 3946 0
49 -3958 -3959 3946 0
49 -3958 -3960 3947 0
49 -1085 3959 0
49 -1084 3959 0
49 -1084 -1085 3960 0
49 -1083 3956 0
49 -3961 3956 0
49 -3962 3957 0
49 -3961 -1083 3957 0
49 -3962 -1083 3958 0
49 -1082 3961 0
49 -1081 3961 0
49 -1081 -1082 3962 0
49 -3888 0
49 1099 1100 1101 1102 1103 1104 1105 1106 1107 1108 1109 1110 1111 1112 1113 1114 1115 1116 1117 1118 1119 1120 1121 1122 1123 1124 0
49 -4002 3963 0
49 -4003 3964 0
49 -4004 3965 0
49 -4005 3966 0
49 -4006 3967 0
49 -4007 3968 0
49 -4008 3969 0
49 -4009 3970 0
49 -4010 3971 0
49 -4011 3972 0
49 -4012 3973 0
49 -4013 3974 0
49 -4014 3975 0
49 -3989 3963 0
49 -3990 3964 0
49 -3991 3965 0
49 -3992 3966 0
49 -3993 3967 0
49 -3994 3968 0
49 -3995 3969 0
49 -3996 3970 0
49 -3997 3971 0
49 -3998 3972 0
49 -3999 3973 0
49 -4000 3974 0
49 -4001 3975 0
49 -3989 -4002 3964 0
49 -3989 -4003 3965 0
49 -3989 -4004 3966 0
49 -3989 -4005 3967 0
49 -3989 -4006 3968 0
49 -3989 -4007 3969 0
49 -3989 -4008 3970 0
49 -3989 -4009 3971 0
49 -3989 -4010 3972 0
49 -3989 -4011 3973 0
49 -3989 -4012 3974 0
49 -3989 -4013 3975 0
49 -3989 -4014 3976 0
49 -3990 -4002 3965 0
49 -3990 -4003 3966 0
49 -3990 -4004 3967 0
49 -3990 -4005 3968 0
49 -3990 -4006 3969 0
49 -3990 -4007 3970 0
49 -3990 -4008 3971 0
49 -3990 -4009 3972 0
49 -3990 -4010 3973 0
49 -3990 -4011 3974 0
49 -3990 -4012 3975 0
49 -3990 -4013 3976 0
49 -3990 -4014 3977 0
49 -3991 -4002 3966 0
49 -3991 -4003 3967 0
49 -3991 -4004 3968 0
49 -3991 -4005 3969 0
49 -3991 -4006 3970 0
49 -3991 -4007 3971 0
49 -3991 -4008 3972 0
49 -3991 -4009 3973 0
49 -3991 -4010 3974 0
49 -3991 -4011 3975 0
49 -3991 -4012 3976 0
49 -3991 -4013 3977 0
49 -3991 -4014 3978 0
49 -3992 -4002 3967 0
49 -3992 -4003 3968 0
49 -3992 -4004 3969 0
49 -3992 -4005 3970 0
49 -3992 -4006 3971 0
49 -3992 -4007 3972 0
49 -3992 -4008 3973 0
49 -3992 -4009 3974 0
49 -3992 -4010 3975 0
49 -3992 -4011 3976 0
49 -3992 -4012 3977 0
49 -3992 -4013 3978 0
49 -3992 -4014 3979 0
49 -3993 -4002 3968 0
49 -3993 -4003 3969 0
49 -3993 -4004 3970 0
49 -3993 -4005 3971 0
49 -3993 -4006 3972 0
49 -3993 -4007 3973 0
49 -3993 -4008 3974 0
49 -3993 -4009 3975 0
49 -3993 -4010 3976 0
49 -3993 -4011 3977 0
49 -3993 -4012 3978 0
49 -3993 -4013 3979 0
49 -3993 -4014 3980 0
49 -3994 -4002 3969 0
49 -3994 -4003 3970 0
49 -3994 -4004 3971 0
49 -3994 -4005 3972 0
49 -3994 -4006 3973 0
49 -3994 -4007 3974 0
49 -3994 -4008 3975 0
49 -3994 -4009 3976 0
49 -3994 -4010 3977 0
49 -3994 -4011 3978 0
49 -3994 -4012 3979 0
49 -3994 -4013 3980 0
49 -3994 -4014 3981 0
49 -3995 -4002 3970 0
49 -3995 -4003 3971 0
49 -3995 -4004 3972 0
49 -3995 -4005 3973 0
49 -3995 -4006 3974 0
49 -3995 -4007 3975 0
49 -3995 -4008 3976 0
49 -3995 -4009 3977 0
49 -3995 -4010 3978 0
49 -3995 -4011 3979 0
49 -3995 -4012 3980 0
49 -3995 -4013 3981 0
49 -3995 -4014 3982 0
49 -3996 -4002 3971 0
49 -3996 -4003 3972 0
49 -3996 -4004 3973 0
49 -3996 -4005 3974 0
49 -3996 -4006 3975 0
49 -3996 -4007 3976 0
49 -3996 -4008 3977 0
49 -3996 -4009 3978 0
49 -3996 -4010 3979 0
49 -3996 -4011 3980 0
49 -3996 -4012 3981 0
49 -3996 -4013 3982 0
49 -3996 -4014 3983 0
49 -3997 -4002 3972 0
49 -3997 -4003 3973 0
49 -3997 -4004 3974 0
49 -3997 -4005 3975 0
49 -3997 -4006 3976 0
49 -3997 -4007 3977 0
49 -3997 -4008 3978 0
49 -3997 -4009 3979 0
49 -3997 -4010 3980 0
49 -3997 -4011 3981 0
49 -3997 -4012 3982 0
49 -3997 -4013 3983 0
49 -3997 -4014 3984 0
49 -3998 -4002 3973 0
49 -3998 -4003 3974 0
49 -3998 -4004 3975 0
49 -3998 -4005 3976 0
49 -3998 -4006 3977 0
49 -3998 -4007 3978 0
49 -3998 -4008 3979 0
49 -3998 -4009 3980 0
49 -3998 -4010 3981 0
49 -3998 -4011 3982 0
49 -3998 -4012 3983 0
49 -3998 -4013 3984 0
49 -3998 -4014 3985 0
49 -3999 -4002 3974 0
49 -3999 -4003 3975 0
49 -3999 -4004 3976 0
49 -3999 -4005 3977 0
49 -3999 -4006 3978 0
49 -3999 -4007 3979 0
49 -3999 -4008 3980 0
49 -3999 -4009 3981 0
49 -3999 -4010 3982 0
49 -3999 -4011 3983 0
49 -3999 -4012 3984 0
49 -3999 -4013 3985 0
49 -3999 -4014 3986 0
49 -4000 -4002 3975 0
49 -4000 -4003 3976 0
49 -4000 -4004 3977 0
49 -4000 -4005 3978 0
49 -4000 -4006 3979 0
49 -4000 -4007 3980 0
49 -4000 -4008 3981 0
49 -4000 -4009 3982 0
49 -4000 -4010 3983 0
49 -4000 -4011 3984 0
49 -4000 -4012 3985 0
49 -4000 -4013 3986 0
49 -4000 -4014 3987 0
49 -4001 -4002 3976 0
49 -4001 -4003 3977 0
49 -4001 -4004 3978 0
49 -4001 -4005 3979 0
49 -4001 -4006 3980 0
49 -4001 -4007 3981 0
49 -4001 -4008 3982 0
49 -4001 -4009 3983 0
49 -4001 -4010 3984 0
49 -4001 -4011 3985 0
49 -4001 -4012 3986 0
49 -4001 -4013 3987 0
49 -4001 -4014 3988 0
49 -4022 4002 0
49 -4023 4003 0
49 -4024 4004 0
49 -4025 4005 0
49 -4026 4006 0
49 -4027 4007 0
49 -4015 4002 0
49 -4016 4003 0
49 -4017 4004 0
49 -4018 4005 0
49 -4019 4006 0
49 -4020 4007 0
49 -4021 4008 0
49 -4015 -4022 4003 0
49 -4015 -4023 4004 0
49 -4015 -4024 4005 0
49 -4015 -4025 4006 0
49 -4015 -4026 4007 0
49 -4015 -4027 4008 0
49 -4016 -4022 4004 0
49 -4016 -4023 4005 0
49 -4016 -4024 4006 0
49 -4016 -4025 4007 0
49 -4016 -4026 4008 0
49 -4016 -4027 4009 0
49 -4017 -4022 4005 0
49 -4017 -4023 4006 0
49 -4017 -4024 4007 0
49 -4017 -4025 4008 0
49 -4017 -4026 4009 0
49 -4017 -4027 4010 0
49 -4018 -4022 4006 0
49 -4018 -4023 4007 0
49 -4018 -4024 4008 0
49 -4018 -4025 4009 0
49 -4018 -4026 4010 0
49 -4018 -4027 4011 0
49 -4019 -4022 4007 0
49 -4019 -4023 4008 0
49 -4019 -4024 4009 0
49 -4019 -4025 4010 0
49 -4019 -4026 4011 0
49 -4019 -4027 4012 0
49 -4020 -4022 4008 0
49 -4020 -4023 4009 0
49 -4020 -4024 4010 0
49 -4020 -4025 4011 0
49 -4020 -4026 4012 0
49 -4020 -4027 4013 0
49 -4021 -4022 4009 0
49 -4021 -4023 4010 0
49 -4021 -4024 4011 0
49 -4021 -4025 4012 0
49 -4021 -4026 4013 0
49 -4021 -4027 4014 0
49 -4031 4022 0
49 -4032 4023 0
49 -4033 4024 0
49 -4028 4022 0
49 -4029 4023 0
49 -4030 4024 0
49 -4028 -4031 4023 0
49 -4028 -4032 4024 0
49 -4028 -4033 4025 0
49 -4029 -4031 4024 0
49 -4029 -4032 4025 0
49 -4029 -4033 4026 0
49 -4030 -4031 4025 0
49 -4030 -4032 4026 0
49 -4030 -4033 4027 0
49 -1124 4031 0
49 -4034 4031 0
49 -4035 4032 0
49 -4034 -1124 4032 0
49 -4035 -1124 4033 0
49 -1123 4034 0
49 -1122 4034 0
49 -1122 -1123 4035 0
49 -1121 4028 0
49 -4036 4028 0
49 -4037 4029 0
49 -4036 -1121 4029 0
49 -4037 -1121 4030 0
49 -1120 4036 0
49 -1119 4036 0
49 -1119 -1120 4037 0
49 -4042 4015 0
49 -4043 4016 0
49 -4044 4017 0
49 -4038 4015 0
49 -4039 4016 0
49 -4040 4017 0
49 -4041 4018 0
49 -4038 -4042 4016 0
49 -4038 -4043 4017 0
49 -4038 -4044 4018 0
49 -4039 -4042 4017 0
49 -4039 -4043 4018 0
49 -4039 -4044 4019 0
49 -4040 -4042 4018 0
49 -4040 -4043 4019 0
49 -4040 -4044 4020 0
49 -4041 -4042 4019 0
49 -4041 -4043 4020 0
49 -4041 -4044 4021 0
49 -1118 4042 0
49 -4045 4042 0
49 -4046 4043 0
49 -4045 -1118 4043 0
49 -4046 -1118 4044 0
49 -1117 4045 0
49 -1116 4045 0
49 -1116 -1117 4046 0
49 -4049 4038 0
49 -4050 4039 0
49 -4047 4038 0
49 -4048 4039 0
49 -4047 -4049 4039 0
49 -4047 -4050 4040 0
49 -4048 -4049 4040 0
49 -4048 -4050 4041 0
49 -1115 4049 0
49 -1114 4049 0
49 -1114 -1115 4050 0
49 -1113 4047 0
49 -1112 4047 0
49 -1112 -1113 4048 0
49 -4058 3989 0
49 -4059 3990 0
49 -4060 3991 0
49 -4061 3992 0
49 -4062 3993 0
49 -4063 3994 0
49 -4051 3989 0
49 -4052 3990 0
49 -4053 3991 0
49 -4054 3992 0
49 -4055 3993 0
49 -4056 3994 0
49 -4057 3995 0
49 -4051 -4058 3990 0
49 -4051 -4059 3991 0
49 -4051 -4060 3992 0
49 -4051 -4061 3993 0
49 -4051 -4062 3994 0
49 -4051 -4063 3995 0
49 -4052 -4058 3991 0
49 -4052 -4059 3992 0
49 -4052 -4060 3993 0
49 -4052 -4061 3994 0
49 -4052 -4062 3995 0
49 -4052 -4063 3996 0
49 -4053 -4058 3992 0
49 -4053 -4059 3993 0
49 -4053 -4060 3994 0
49 -4053 -4061 3995 0
49 -4053 -4062 3996 0
49 -4053 -4063 3997 0
49 -4054 -4058 3993 0
49 -4054 -4059 3994 0
49 -4054 -4060 3995 0
49 -4054 -4061 3996 0
49 -4054 -4062 3997 0
49 -4054 -4063 3998 0
49 -4055 -4058 3994 0
49 -4055 -4059 3995 0
49 -4055 -4060 3996 0
49 -4055 -4061 3997 0
49 -4055 -4062 3998 0
49 -4055 -4063 3999 0
49 -4056 -4058 3995 0
49 -4056 -4059 3996 0
49 -4056 -4060 3997 0
49 -4056 -4061 3998 0
49 -4056 -4062 3999 0
49 -4056 -4063 4000 0
49 -4057 -4058 3996 0
49 -4057 -4059 3997 0
49 -4057 -4060 3998 0
49 -4057 -4061 3999 0
49 -4057 -4062 4000 0
49 -4057 -4063 4001 0
49 -4067 4058 0
49 -4068 4059 0
49 -4069 4060 0
49 -4064 4058 0
49 -4065 4059 0
49 -4066 4060 0
49 -4064 -4067 4059 0
49 -4064 -4068 4060 0
49 -4064 -4069 4061 0
49 -4065 -4067 4060 0
49 -4065 -4068 4061 0
49 -4065 -4069 4062 0
49 -4066 -4067 4061 0
49 -4066 -4068 4062 0
49 -4066 -4069 4063 0
49 -1111 4067 0
49 -4070 4067 0
49 -4071 4068 0
49 -4070 -1111 4068 0
49 -4071 -1111 4069 0
49 -1110 4070 0
49 -1109 4070 0
49 -1109 -1110 4071 0
49 -1108 4064 0
49 -4072 4064 0
49 -4073 4065 0
49 -4072 -1108 4065 0
49 -4073 -1108 4066 0
49 -1107 4072 0
49 -1106 4072 0
49 -1106 -1107 4073 0
49 -4078 4051 0
49 -4079 4052 0
49 -4080 4053 0
49 -4074 4051 0
49 -4075 4052 0
49 -4076 4053 0
49 -4077 4054 0
49 -4074 -4078 4052 0
49 -4074 -4079 4053 0
49 -4074 -4080 4054 0
49 -4075 -4078 4053 0
49 -4075 -4079 4054 0
49 -4075 -4080 4055 0
49 -4076 -4078 4054 0
49 -4076 -4079 4055 0
49 -4076 -4080 4056 0
49 -4077 -4078 4055 0
49 -4077 -4079 4056 0
49 -4077 -4080 4057 0
49 -1105 4078 0
49 -4081 4078 0
49 -4082 4079 0
49 -4081 -1105 4079 0
49 -4082 -1105 4080 0
49 -1104 4081 0
49 -1103 4081 0
49 -1103 -1104 4082 0
49 -4085 4074 0
49 -4086 4075 0
49 -4083 4074 0
49 -4084 4075 0
49 -4083 -4085 4075 0
49 -4083 -4086 4076 0
49 -4084 -4085 4076 0
49 -4084 -4086 4077 0
49 -1102 4085 0
49 -1101 4085 0
49 -1101 -1102 4086 0
49 -1100 4083 0
49 -1099 4083 0
49 -1099 -1100 4084 0
49 -3964 0
49 1125 1126 1127 1128 1129 1130 1131 1132 1133 1134 1135 1136 1137 1138 1139 1140 1141 1142 1143 1144 1145 1146 1147 1148 1149 1150 0
49 -4126 4087 0
49 -4127 4088 0
49 -4128 4089 0
49 -4129 4090 0
49 -4130 4091 0
49 -4131 4092 0
49 -4132 4093 0
49 -4133 4094 0
49 -4134 4095 0
49 -4135 4096 0
49 -4136 4097 0
49 -4137 4098 0
49 -4138 4099 0
49 -4113 4087 0
49 -4114 4088 0
49 -4115 4089 0
49 -4116 4090 0
49 -4117 4091 0
49 -4118 4092 0
49 -4119 4093 0
49 -4120 4094 0
49 -4121 4095 0
49 -4122 4096 0
49 -4123 4097 0
49 -4124 4098 0
49 -4125 4099 0
49 -4113 -4126 4088 0
49 -4113 -4127 4089 0
49 -4113 -4128 4090 0
49 -4113 -4129 4091 0
49 -4113 -4130 4092 0
49 -4113 -4131 4093 0
49 -4113 -4132 4094 0
49 -4113 -4133 4095 0
49 -4113 -4134 4096 0
49 -4113 -4135 4097 0
49 -4113 -4136 4098 0
49 -4113 -4137 4099 0
49 -4113 -4138 4100 0
49 -4114 -4126 4089 0
49 -4114 -4127 4090 0
49 -4114 -4128 4091 0
49 -4114 -4129 4092 0
49 -4114 -4130 4093 0
49 -4114 -4131 4094 0
49 -4114 -4132 4095 0
49 -4114 -4133 4096 0
49 -4114 -4134 4097 0
49 -4114 -4135 4098 0
49 -4114 -4136 4099 0
49 -4114 -4137 4100 0
49 -4114 -4138 4101 0
49 -4115 -4126 4090 0
49 -4115 -4127 4091 0
49 -4115 -4128 4092 0
49 -4115 -4129 4093 0
49 -4115 -4130 4094 0
49 -4115 -4131 4095 0
49 -4115 -4132 4096 0
49 -4115 -4133 4097 0
49 -4115 -4134 4098 0
49 -4115 -4135 4099 0
49 -4115 -4136 4100 0
49 -4115 -4137 4101 0
49 -4115 -4138 4102 0
49 -4116 -4126 4091 0
49 -4116 -4127 4092 0
49 -4116 -4128 4093 0
49 -4116 -4129 4094 0
49 -4116 -4130 4095 0
49 -4116 -4131 4096 0
49 -4116 -4132 4097 0
49 -4116 -4133 4098 0
49 -4116 -4134 4099 0
49 -4116 -4135 4100 0
49 -4116 -4136 4101 0
49 -4116 -4137 4102 0
49 -4116 -4138 4103 0
49 -4117 -4126 4092 0
49 -4117 -4127 4093 0
49 -4117 -4128 4094 0
49 -4117 -4129 4095 0
49 -4117 -4130 4096 0
49 -4117 -4131 4097 0
49 -4117 -4132 4098 0
49 -4117 -4133 4099 0
49 -4117 -4134 4100 0
49 -4117 -4135 4101 0
49 -4117 -4136 4102 0
49 -4117 -4137 4103 0
49 -4117 -4138 4104 0
49 -4118 -4126 4093 0
49 -4118 -4127 4094 0
49 -4118 -4128 4095 0
49 -4118 -4129 4096 0
49 -4118 -4130 4097 0
49 -4118 -4131 4098 0
49 -4118 -4132 4099 0
49 -4118 -4133 4100 0
49 -4118 -4134 4101 0
49 -4118 -4135 4102 0
49 -4118 -4136 4103 0
49 -4118 -4137 4104 0
49 -4118 -4138 4105 0
49 -4119 -4126 4094 0
49 -4119 -4127 4095 0
49 -4119 -4128 4096 0
49 -4119 -4129 4097 0
49 -4119 -4130 4098 0
49 -4119 -4131 4099 0
49 -4119 -4132 4100 0
49 -4119 -4133 4101 0
49 -4119 -4134 4102 0
49 -4119 -4135 4103 0
49 -4119 -4136 4104 0
49 -4119 -4137 4105 0
49 -4119 -4138 4106 0
49 -4120 -4126 4095 0
49 -4120 -4127 4096 0
49 -4120 -4128 4097 0
49 -4120 -4129 4098 0
49 -4120 -4130 4099 0
49 -4120 -4131 4100 0
49 -4120 -4132 4101 0
49 -4120 -4133 4102 0
49 -4120 -4134 4103 0
49 -4120 -4135 4104 0
49 -4120 -4136 4105 0
49 -4120 -4137 4106 0
49 -4120 -4138 4107 0
49 -4121 -4126 4096 0
49 -4121 -4127 4097 0
49 -4121 -4128 4098 0
49 -4121 -4129 4099 0
49 -4121 -4130 4100 0
49 -4121 -4131 4101 0
49 -4121 -4132 4102 0
49 -4121 -4133 4103 0
49 -4121 -4134 4104 0
49 -4121 -4135 4105 0
49 -4121 -4136 4106 0
49 -4121 -4137 4107 0
49 -4121 -4138 4108 0
49 -4122 -4126 4097 0
49 -4122 -4127 4098 0
49 -4122 -4128 4099 0
49 -4122 -4129 4100 0
49 -4122 -4130 4101 0
49 -4122 -4131 4102 0
49 -4122 -4132 4103 0
49 -4122 -4133 4104 0
49 -4122 -4134 4105 0
49 -4122 -4135 4106 0
49 -4122 -4136 4107 0
49 -4122 -4137 4108 0
49 -4122 -4138 4109 0
49 -4123 -4126 4098 0
49 -4123 -4127 4099 0
49 -4123 -4128 4100 0
49 -4123 -4129 4101 0
49 -4123 -4130 4102 0
49 -4123 -4131 4103 0
49 -4123 -4132 4104 0
49 -4123 -4133 4105 0
49 -4123 -4134 4106 0
49 -4123 -4135 4107 0
49 -4123 -4136 4108 0
49 -4123 -4137 4109 0
49 -4123 -4138 4110 0
49 -4124 -4126 4099 0
49 -4124 -4127 4100 0
49 -4124 -4128 4101 0
49 -4124 -4129 4102 0
49 -4124 -4130 4103 0
49 -4124 -4131 4104 0
49 -4124 -4132 4105 0
49 -4124 -4133 4106 0
49 -4124 -4134 4107 0
49 -4124 -4135 4108 0
49 -4124 -4136 4109 0
49 -4124 -4137 4110 0
49 -4124 -4138 4111 0
49 -4125 -4126 4100 0
49 -4125 -4127 4101 0
49 -4125 -4128 4102 0
49 -4125 -4129 4103 0
49 -4125 -4130 4104 0
49 -4125 -4131 4105 0
49 -4125 -4132 4106 0
49 -4125 -4133 4107 0
49 -4125 -4134 4108 0
49 -4125 -4135 4109 0
49 -4125 -4136 4110 0
49 -4125 -4137 4111 0
49 -4125 -4138 4112 0
49 -4146 4126 0
49 -4147 4127 0
49 -4148 4128 0
49 -4149 4129 0
49 -4150 4130 0
49 -4151 4131 0
49 -4139 4126 0
49 -4140 4127 0
49 -4141 4128 0
49 -4142 4129 0
49 -4143 4130 0
49 -4144 4131 0
49 -4145 4132 0
49 -4139 -4146 4127 0
49 -4139 -4147 4128 0
49 -4139 -4148 4129 0
49 -4139 -4149 4130 0
49 -4139 -4150 4131 0
49 -4139 -4151 4132 0
49 -4140 -4146 4128 0
49 -4140 -4147 4129 0
49 -4140 -4148 4130 0
49 -4140 -4149 4131 0
49 -4140 -4150 4132 0
49 -4140 -4151 4133 0
49 -4141 -4146 4129 0
49 -4141 -4147 4130 0
49 -4141 -4148 4131 0
49 -4141 -4149 4132 0
49 -4141 -4150 4133 0
49 -4141 -4151 4134 0
49 -4142 -4146 4130 0
49 -4142 -4147 4131 0
49 -4142 -4148 4132 0
49 -4142 -4149 4133 0
49 -4142 -4150 4134 0
49 -4142 -4151 4135 0
49 -4143 -4146 4131 0
49 -4143 -4147 4132 0
49 -4143 -4148 4133 0
49 -4143 -4149 4134 0
49 -4143 -4150 4135 0
49 -4143 -4151 4136 0
49 -4144 -4146 4132 0
49 -4144 -4147 4133 0
49 -4144 -4148 4134 0
49 -4144 -4149 4135 0
49 -4144 -4150 4136 0
49 -4144 -4151 4137 0
49 -4145 -4146 4133 0
49 -4145 -4147 4134 0
49 -4145 -4148 4135 0
49 -4145 -4149 4136 0
49 -4145 -4150 4137 0
49 -4145 -4151 4138 0
49 -4155 4146 0
49 -4156 4147 0
49 -4157 4148 0
49 -4152 4146 0
49 -4153 4147 0
49 -4154 4148 0
49 -4152 -4155 4147 0
49 -4152 -4156 4148 0
49 -4152 -4157 4149 0
49 -4153 -4155 4148 0
49 -4153 -4156 4149 0
49 -4153 -4157 4150 0
49 -4154 -4155 4149 0
49 -4154 -4156 4150 0
49 -4154 -4157 4151 0
49 -1150 4155 0
49 -4158 4155 0
49 -4159 4156 0
49 -4158 -1150 4156 0
49 -4159 -1150 4157 0
49 -1149 4158 0
49 -1148 4158 0
49 -1148 -1149 4159 0
49 -1147 4152 0
49 -4160 4152 0
49 -4161 4153 0
49 -4160 -1147 4153 0
49 -4161 -1147 4154 0
49 -1146 4160 0
49 -1145 4160 0
49 -1145 -1146 4161 0
49 -4166 4139 0
49 -4167 4140 0
49 -4168 4141 0
49 -4162 4139 0
49 -4163 4140 0
49 -4164 4141 0
49 -4165 4142 0
49 -4162 -4166 4140 0
49 -4162 -4167 4141 0
49 -4162 -4168 4142 0
49 -4163 -4166 4141 0
49 -4163 -4167 4142 0
49 -4163 -4168 4143 0
49 -4164 -4166 4142 0
49 -4164 -4167 4143 0
49 -4164 -4168 4144 0
49 -4165 -4166 4143 0
49 -4165 -4167 4144 0
49 -4165 -4168 4145 0
49 -1144 4166 0
49 -4169 4166 0
49 -4170 4167 0
49 -4169 -1144 4167 0
49 -4170 -1144 4168 0
49 -1143 4169 0
49 -1142 4169 0
49 -1142 -1143 4170 0
49 -4173 4162 0
49 -4174 4163 0
49 -4171 4162 0
49 -4172 4163 0
49 -4171 -4173 4163 0
49 -4171 -4174 4164 0
49 -4172 -4173 4164 0
49 -4172 -4174 4165 0
49 -1141 4173 0
49 -1140 4173 0
49 -1140 -1141 4174 0
49 -1139 4171 0
49 -1138 4171 0
49 -1138 -1139 4172 0
49 -4182 4113 0
49 -4183 4114 0
49 -4184 4115 0
49 -4185 4116 0
49 -4186 4117 0
49 -4187 4118 0
49 -4175 4113 0
49 -4176 4114 0
49 -4177 4115 0
49 -4178 4116 0
49 -4179 4117 0
49 -4180 4118 0
49 -4181 4119 0
49 -4175 -4182 4114 0
49 -4175 -4183 4115 0
49 -4175 -4184 4116 0
49 -4175 -4185 4117 0
49 -4175 -4186 4118 0
49 -4175 -4187 4119 0
49 -4176 -4182 4115 0
49 -4176 -4183 4116 0
49 -4176 -4184 4117 0
49 -4176 -4185 4118 0
49 -4176 -4186 4119 0
49 -4176 -4187 4120 0
49 -4177 -4182 4116 0
49 -4177 -4183 4117 0
49 -4177 -4184 4118 0
49 -4177 -4185 4119 0
49 -4177 -4186 4120 0
49 -4177 -4187 4121 0
49 -4178 -4182 4117 0
49 -4178 -4183 4118 0
49 -4178 -4184 4119 0
49 -4178 -4185 4120 0
49 -4178 -4186 4121 0
49 -4178 -4187 4122 0
49 -4179 -4182 4118 0
49 -4179 -4183 4119 0
49 -4179 -4184 4120 0
49 -4179 -4185 4121 0
49 -4179 -4186 4122 0
49 -4179 -4187 4123 0
49 -4180 -4182 4119 0
49 -4180 -4183 4120 0
49 -4180 -4184 4121 0
49 -4180 -4185 4122 0
49 -4180 -4186 4123 0
49 -4180 -4187 4124 0
49 -4181 -4182 4120 0
49 -4181 -4183 4121 0
49 -4181 -4184 4122 0
49 -4181 -4185 4123 0
49 -4181 -4186 4124 0
49 -4181 -4187 4125 0
49 -4191 4182 0
49 -4192 4183 0
49 -4193 4184 0
49 -4188 4182 0
49 -4189 4183 0
49 -4190 4184 0
49 -4188 -4191 4183 0
49 -4188 -4192 4184 0
49 -4188 -4193 4185 0
49 -4189 -4191 4184 0
49 -4189 -4192 4185 0
49 -4189 -4193 4186 0
49 -4190 -4191 4185 0
49 -4190 -4192 4186 0
49 -4190 -4193 4187 0
49 -1137 4191 0
49 -4194 4191 0
49 -4195 4192 0
49 -4194 -1137 4192 0
49 -4195 -1137 4193 0
49 -1136 4194 0
49 -1135 4194 0
49 -1135 -1136 4195 0
49 -1134 4188 0
49 -4196 4188 0
49 -4197 4189 0
49 -4196 -1134 4189 0
49 -4197 -1134 4190 0
49 -1133 4196 0
49 -1132 4196 0
49 -1132 -1133 4197 0
49 -4202 4175 0
49 -4203 4176 0
49 -4204 4177 0
49 -4198 4175 0
49 -4199 4176 0
49 -4200 4177 0
49 -4201 4178 0
49 -4198 -4202 4176 0
49 -4198 -4203 4177 0
49 -4198 -4204 4178 0
49 -4199 -4202 4177 0
49 -4199 -4203 4178 0
49 -4199 -4204 4179 0
49 -4200 -4202 4178 0
49 -4200 -4203 4179 0
49 -4200 -4204 4180 0
49 -4201 -4202 4179 0
49 -4201 -4203 4180 0
49 -4201 -4204 4181 0
49 -1131 4202 0
49 -4205 4202 0
49 -4206 4203 0
49 -4205 -1131 4203 0
49 -4206 -1131 4204 0
49 -1130 4205 0
49 -1129 4205 0
49 -1129 -1130 4206 0
49 -4209 4198 0
49 -4210 4199 0
49 -4207 4198 0
49 -4208 4199 0
49 -4207 -4209 4199 0
49 -4207 -4210 4200 0
49 -4208 -4209 4200 0
49 -4208 -4210 4201 0
49 -1128 4209 0
49 -1127 4209 0
49 -1127 -1128 4210 0
49 -1126 4207 0
49 -1125 4207 0
49 -1125 -1126 4208 0
49 -4088 0
49 1151 1152 1153 1154 1155 1156 1157 1158 1159 1160 1161 1162 1163 1164 1165 1166 1167 1168 1169 0
49 -4240 4211 0
49 -4241 4212 0
49 -4242 4213 0
49 -4243 4214 0
49 -4244 4215 0
49 -4245 4216 0
49 -4246 4217 0
49 -4247 4218 0
49 -4248 4219 0
49 -4230 4211 0
49 -4231 4212 0
49 -4232 4213 0
49 -4233 4214 0
49 -4234 4215 0
49 -4235 4216 0
49 -4236 4217 0
49 -4237 4218 0
49 -4238 4219 0
49 -4239 4220 0
49 -4230 -4240 4212 0
49 -4230 -4241 4213 0
49 -4230 -4242 4214 0
49 -4230 -4243 4215 0
49 -4230 -4244 4216 0
49 -4230 -4245 4217 0
49 -4230 -4246 4218 0
49 -4230 -4247 4219 0
49 -4230 -4248 4220 0
49 -4231 -4240 4213 0
49 -4231 -4241 4214 0
49 -4231 -4242 4215 0
49 -4231 -4243 4216 0
49 -4231 -4244 4217 0
49 -4231 -4245 4218 0
49 -4231 -4246 4219 0
49 -4231 -4247 4220 0
49 -4231 -4248 4221 0
49 -4232 -4240 4214 0
49 -4232 -4241 4215 0
49 -4232 -4242 4216 0
49 -4232 -4243 4217 0
49 -4232 -4244 4218 0
49 -4232 -4245 4219 0
49 -4232 -4246 4220 0
49 -4232 -4247 4221 0
49 -4232 -4248 4222 0
49 -4233 -4240 4215 0
49 -4233 -4241 4216 0
49 -4233 -4242 4217 0
49 -4233 -4243 4218 0
49 -4233 -4244 4219 0
49 -4233 -4245 4220 0
49 -4233 -4246 4221 0
49 -4233 -4247 4222 0
49 -4233 -4248 4223 0
49 -4234 -4240 4216 0
49 -4234 -4241 4217 0
49 -4234 -4242 4218 0
49 -4234 -4243 4219 0
49 -4234 -4244 4220 0
49 -4234 -4245 4221 0
49 -4234 -4246 4222 0
49 -4234 -4247 4223 0
49 -4234 -4248 4224 0
49 -4235 -4240 4217 0
49 -4235 -4241 4218 0
49 -4235 -4242 4219 0
49 -4235 -4243 4220 0
49 -4235 -4244 4221 0
49 -4235 -4245 4222 0
49 -4235 -4246 4223 0
49 -4235 -4247 4224 0
49 -4235 -4248 4225 0
49 -4236 -4240 4218 0
49 -4236 -4241 4219 0
49 -4236 -4242 4220 0
49 -4236 -4243 4221 0
49 -4236 -4244 4222 0
49 -4236 -4245 4223 0
49 -4236 -4246 4224 0
49 -4236 -4247 4225 0
49 -4236 -4248 4226 0
49 -4237 -4240 4219 0
49 -4237 -4241 4220 0
49 -4237 -4242 4221 0
49 -4237 -4243 4222 0
49 -4237 -4244 4223 0
49 -4237 -4245 4224 0
49 -4237 -4246 4225 0
49 -4237 -4247 4226 0
49 -4237 -4248 4227 0
49 -4238 -4240 4220 0
49 -4238 -4241 4221 0
49 -4238 -4242 4222 0
49 -4238 -4243 4223 0
49 -4238 -4244 4224 0
49 -4238 -4245 4225 0
49 -4238 -4246 4226 0
49 -4238 -4247 4227 0
49 -4238 -4248 4228 0
49 -4239 -4240 4221 0
49 -4239 -4241 4222 0
49 -4239 -4242 4223 0
49 -4239 -4243 4224 0
49 -4239 -4244 4225 0
49 -4239 -4245 4226 0
49 -4239 -4246 4227 0
49 -4239 -4247 4228 0
49 -4239 -4248 4229 0
49 -4254 4240 0
49 -4255 4241 0
49 -4256 4242 0
49 -4257 4243 0
49 -4249 4240 0
49 -4250 4241 0
49 -4251 4242 0
49 -4252 4243 0
49 -4253 4244 0
49 -4249 -4254 4241 0
49 -4249 -4255 4242 0
49 -4249 -4256 4243 0
49 -4249 -4257 4244 0
49 -4250 -4254 4242 0
49 -4250 -4255 4243 0
49 -4250 -4256 4244 0
49 -4250 -4257 4245 0
49 -4251 -4254 4243 0
49 -4251 -4255 4244 0
49 -4251 -4256 4245 0
49 -4251 -4257 4246 0
49 -4252 -4254 4244 0
49 -4252 -4255 4245 0
49 -4252 -4256 4246 0
49 -4252 -4257 4247 0
49 -4253 -4254 4245 0
49 -4253 -4255 4246 0
49 -4253 -4256 4247 0
49 -4253 -4257 4248 0
49 -4260 4254 0
49 -4261 4255 0
49 -4258 4254 0
49 -4259 4255 0
49 -4258 -4260 4255 0
49 -4258 -4261 4256 0
49 -4259 -4260 4256 0
49 -4259 -4261 4257 0
49 -1169 4260 0
49 -1168 4260 0
49 -1168 -1169 4261 0
49 -1167 4258 0
49 -1166 4258 0
49 -1166 -1167 4259 0
49 -4265 4249 0
49 -4266 4250 0
49 -4262 4249 0
49 -4263 4250 0
49 -4264 4251 0
49 -4262 -4265 4250 0
49 -4262 -4266 4251 0
49 -4263 -4265 4251 0
49 -4263 -4266 4252 0
49 -4264 -4265 4252 0
49 -4264 -4266 4253 0
49 -1165 4265 0
49 -1164 4265 0
49 -1164 -1165 4266 0
49 -1163 4262 0
49 -4267 4262 0
49 -4268 4263 0
49 -4267 -1163 4263 0
49 -4268 -1163 4264 0
49 -1162 4267 0
49 -1161 4267 0
49 -1161 -1162 4268 0
49 -4274 4230 0
49 -4275 4231 0
49 -4276 4232 0
49 -4277 4233 0
49 -4278 4234 0
49 -4269 4230 0
49 -4270 4231 0
49 -4271 4232 0
49 -4272 4233 0
49 -4273 4234 0
49 -4269 -4274 4231 0
49 -4269 -4275 4232 0
49 -4269 -4276 4233 0
49 -4269 -4277 4234 0
49 -4269 -4278 4235 0
49 -4270 -4274 4232 0
49 -4270 -4275 4233 0
49 -4270 -4276 4234 0
49 -4270 -4277 4235 0
49 -4270 -4278 4236 0
49 -4271 -4274 4233 0
49 -4271 -4275 4234 0
49 -4271 -4276 4235 0
49 -4271 -4277 4236 0
49 -4271 -4278 4237 0
49 -4272 -4274 4234 0
49 -4272 -4275 4235 0
49 -4272 -4276 4236 0
49 -4272 -4277 4237 0
49 -4272 -4278 4238 0
49 -4273 -4274 4235 0
49 -4273 -4275 4236 0
49 -4273 -4276 4237 0
49 -4273 -4277 4238 0
49 -4273 -4278 4239 0
49 -4282 4274 0
49 -4283 4275 0
49 -4279 4274 0
49 -4280 4275 0
49 -4281 4276 0
49 -4279 -4282 4275 0
49 -4279 -4283 4276 0
49 -4280 -4282 4276 0
49 -4280 -4283 4277 0
49 -4281 -4282 4277 0
49 -4281 -4283 4278 0
49 -1160 4282 0
49 -1159 4282 0
49 -1159 -1160 4283 0
49 -1158 4279 0
49 -4284 4279 0
49 -4285 4280 0
49 -4284 -1158 4280 0
49 -4285 -1158 4281 0
49 -1157 4284 0
49 -1156 4284 0
49 -1156 -1157 4285 0
49 -4289 4269 0
49 -4290 4270 0
49 -4286 4269 0
49 -4287 4270 0
49 -4288 4271 0
49 -4286 -4289 4270 0
49 -4286 -4290 4271 0
49 -4287 -4289 4271 0
49 -4287 -4290 4272 0
49 -4288 -4289 4272 0
49 -4288 -4290 4273 0
49 -1155 4289 0
49 -1154 4289 0
49 -1154 -1155 4290 0
49 -1153 4286 0
49 -4291 4286 0
49 -4292 4287 0
49 -4291 -1153 4287 0
49 -4292 -1153 4288 0
49 -1152 4291 0
49 -1151 4291 0
49 -1151 -1152 4292 0
49 -4212 0
49 1170 1171 1172 1173 1174 1175 1176 1177 1178 1179 1180 1181 1182 1183 1184 1185 1186 1187 1188 0
49 -4322 4293 0
49 -4323 4294 0
49 -4324 4295 0
49 -4325 4296 0
49 -4326 4297 0
49 -4327 4298 0
49 -4328 4299 0
49 -4329 4300 0
49 -4330 4301 0
49 -4312 4293 0
49 -4313 4294 0
49 -4314 4295 0
49 -4315 4296 0
49 -4316 4297 0
49 -4317 4298 0
49 -4318 4299 0
49 -4319 4300 0
49 -4320 4301 0
49 -4321 4302 0
49 -4312 -4322 4294 0
49 -4312 -4323 4295 0
49 -4312 -4324 4296 0
49 -4312 -4325 4297 0
49 -4312 -4326 4298 0
49 -4312 -4327 4299 0
49 -4312 -4328 4300 0
49 -4312 -4329 4301 0
49 -4312 -4330 4302 0
49 -4313 -4322 4295 0
49 -4313 -4323 4296 0
49 -4313 -4324 4297 0
49 -4313 -4325 4298 0
49 -4313 -4326 4299 0
49 -4313 -4327 4300 0
49 -4313 -4328 4301 0
49 -4313 -4329 4302 0
49 -4313 -4330 4303 0
49 -4314 -4322 4296 0
49 -4314 -4323 4297 0
49 -4314 -4324 4298 0
49 -4314 -4325 4299 0
49 -4314 -4326 4300 0
49 -4314 -4327 4301 0
49 -4314 -4328 4302 0
49 -4314 -4329 4303 0
49 -4314 -4330 4304 0
49 -4315 -4322 4297 0
49 -4315 -4323 4298 0
49 -4315 -4324 4299 0
49 -4315 -4325 4300 0
49 -4315 -4326 4301 0
49 -4315 -4327 4302 0
49 -4315 -4328 4303 0
49 -4315 -4329 4304 0
49 -4315 -4330 4305 0
49 -4316 -4322 4298 0
49 -4316 -4323 4299 0
49 -4316 -4324 4300 0
49 -4316 -4325 4301 0
49 -4316 -4326 4302 0
49 -4316 -4327 4303 0
49 -4316 -4328 4304 0
49 -4316 -4329 4305 0
49 -4316 -4330 4306 0
49 -4317 -4322 4299 0
49 -4317 -4323 4300 0
49 -4317 -4324 4301 0
49 -4317 -4325 4302 0
49 -4317 -4326 4303 0
49 -4317 -4327 4304 0
49 -4317 -4328 4305 0
49 -4317 -4329 4306 0
49 -4317 -4330 4307 0
49 -4318 -4322 4300 0
49 -4318 -4323 4301 0
49 -4318 -4324 4302 0
49 -4318 -4325 4303 0
49 -4318 -4326 4304 0
49 -4318 -4327 4305 0
49 -4318 -4328 4306 0
49 -4318 -4329 4307 0
49 -4318 -4330 4308 0
49 -4319 -4322 4301 0
49 -4319 -4323 4302 0
49 -4319 -4324 4303 0
49 -4319 -4325 4304 0
49 -4319 -4326 4305 0
49 -4319 -4327 4306 0
49 -4319 -4328 4307 0
49 -4319 -4329 4308 0
49 -4319 -4330 4309 0
49 -4320 -4322 4302 0
49 -4320 -4323 4303 0
49 -4320 -4324 4304 0
49 -4320 -4325 4305 0
49 -4320 -4326 4306 0
49 -4320 -4327 4307 0
49 -4320 -4328 4308 0
49 -4320 -4329 4309 0
49 -4320 -4330 4310 0
49 -4321 -4322 4303 0
49 -4321 -4323 4304 0
49 -4321 -4324 4305 0
49 -4321 -4325 4306 0
49 -4321 -4326 4307 0
49 -4321 -4327 4308 0
49 -4321 -4328 4309 0
49 -4321 -4329 4310 0
49 -4321 -4330 4311 0
49 -4336 4322 0
49 -4337 4323 0
49 -4338 4324 0
49 -4339 4325 0
49 -4331 4322 0
49 -4332 4323 0
49 -4333 4324 0
49 -4334 4325 0
49 -4335 4326 0
49 -4331 -4336 4323 0
49 -4331 -4337 4324 0
49 -4331 -4338 4325 0
49 -4331 -4339 4326 0
49 -4332 -4336 4324 0
49 -4332 -4337 4325 0
49 -4332 -4338 4326 0
49 -4332 -4339 4327 0
49 -4333 -4336 4325 0
49 -4333 -4337 4326 0
49 -4333 -4338 4327 0
49 -4333 -4339 4328 0
49 -4334 -4336 4326 0
49 -4334 -4337 4327 0
49 -4334 -4338 4328 0
49 -4334 -4339 4329 0
49 -4335 -4336 4327 0
49 -4335 -4337 4328 0
49 -4335 -4338 4329 0
49 -4335 -4339 4330 0
49 -4342 4336 0
49 -4343 4337 0
49 -4340 4336 0
49 -4341 4337 0
49 -4340 -4342 4337 0
49 -4340 -4343 4338 0
49 -4341 -4342 4338 0
49 -4341 -4343 4339 0
49 -1188 4342 0
49 -1187 4342 0
49 -1187 -1188 4343 0
49 -1186 4340 0
49 -1185 4340 0
49 -1185 -1186 4341 0
49 -4347 4331 0
49 -4348 4332 0
49 -4344 4331 0
49 -4345 4332 0
49 -4346 4333 0
49 -4344 -4347 4332 0
49 -4344 -4348 4333 0
49 -4345 -4347 4333 0
49 -4345 -4348 4334 0
49 -4346 -4347 4334 0
49 -4346 -4348 4335 0
49 -1184 4347 0
49 -1183 4347 0
49 -1183 -1184 4348 0
49 -1182 4344 0
49 -4349 4344 0
49 -4350 4345 0
49 -4349 -1182 4345 0
49 -4350 -1182 4346 0
49 -1181 4349 0
49 -1180 4349 0
49 -1180 -1181 4350 0
49 -4356 4312 0
49 -4357 4313 0
49 -4358 4314 0
49 -4359 4315 0
49 -4360 4316 0
49 -4351 4312 0
49 -4352 4313 0
49 -4353 4314 0
49 -4354 4315 0
49 -4355 4316 0
49 -4351 -4356 4313 0
49 -4351 -4357 4314 0
49 -4351 -4358 4315 0
49 -4351 -4359 4316 0
49 -4351 -4360 4317 0
49 -4352 -4356 4314 0
49 -4352 -4357 4315 0
49 -4352 -4358 4316 0
49 -4352 -4359 4317 0
49 -4352 -4360 4318 0
49 -4353 -4356 4315 0
49 -4353 -4357 4316 0
49 -4353 -4358 4317 0
49 -4353 -4359 4318 0
49 -4353 -4360 4319 0
49 -4354 -4356 4316 0
49 -4354 -4357 4317 0
49 -4354 -4358 4318 0
49 -4354 -4359 4319 0
49 -4354 -4360 4320 0
49 -4355 -4356 4317 0
49 -4355 -4357 4318 0
49 -4355 -4358 4319 0
49 -4355 -4359 4320 0
49 -4355 -4360 4321 0
49 -4364 4356 0
49 -4365 4357 0
49 -4361 4356 0
49 -4362 4357 0
49 -4363 4358 0
49 -4361 -4364 4357 0
49 -4361 -4365 4358 0
49 -4362 -4364 4358 0
49 -4362 -4365 4359 0
49 -4363 -4364 4359 0
49 -4363 -4365 4360 0
49 -1179 4364 0
49 -1178 4364 0
49 -1178 -1179 4365 0
49 -1177 4361 0
49 -4366 4361 0
49 -4367 4362 0
49 -4366 -1177 4362 0
49 -4367 -1177 4363 0
49 -1176 4366 0
49 -1175 4366 0
49 -1175 -1176 4367 0
49 -4371 4351 0
49 -4372 4352 0
49 -4368 4351 0
49 -4369 4352 0
49 -4370 4353 0
49 -4368 -4371 4352 0
49 -4368 -4372 4353 0
49 -4369 -4371 4353 0
49 -4369 -4372 4354 0
49 -4370 -4371 4354 0
49 -4370 -4372 4355 0
49 -1174 4371 0
49 -1173 4371 0
49 -1173 -1174 4372 0
49 -1172 4368 0
49 -4373 4368 0
49 -4374 4369 0
49 -4373 -1172 4369 0
49 -4374 -1172 4370 0
49 -1171 4373 0
49 -1170 4373 0
49 -1170 -1171 4374 0
49 -4294 0
49 1189 0
49 1190 0
49 1191 1192 1193 1194 1195 1196 1197 1198 0
49 -4387 4375 0
49 -4388 4376 0
49 -4389 4377 0
49 -4390 4378 0
49 -4383 4375 0
49 -4384 4376 0
49 -4385 4377 0
49 -4386 4378 0
49 -4383 -4387 4376 0
49 -4383 -4388 4377 0
49 -4383 -4389 4378 0
49 -4383 -4390 4379 0
49 -4384 -4387 4377 0
49 -4384 -4388 4378 0
49 -4384 -4389 4379 0
49 -4384 -4390 4380 0
49 -4385 -4387 4378 0
49 -4385 -4388 4379 0
49 -4385 -4389 4380 0
49 -4385 -4390 4381 0
49 -4386 -4387 4379 0
49 -4386 -4388 4380 0
49 -4386 -4389 4381 0
49 -4386 -4390 4382 0
49 -4393 4387 0
49 -4394 4388 0
49 -4391 4387 0
49 -4392 4388 0
49 -4391 -4393 4388 0
49 -4391 -4394 4389 0
49 -4392 -4393 4389 0
49 -4392 -4394 4390 0
49 -1198 4393 0
49 -1197 4393 0
49 -1197 -1198 4394 0
49 -1196 4391 0
49 -1195 4391 0
49 -1195 -1196 4392 0
49 -4397 4383 0
49 -4398 4384 0
49 -4395 4383 0
49 -4396 4384 0
49 -4395 -4397 4384 0
49 -4395 -4398 4385 0
49 -4396 -4397 4385 0
49 -4396 -4398 4386 0
49 -1194 4397 0
49 -1193 4397 0
49 -1193 -1194 4398 0
49 -1192 4395 0
49 -1191 4395 0
49 -1191 -1192 4396 0
49 -4376 0
49 1199 1200 1201 1202 1203 1204 1205 1206 0
49 -4411 4399 0
49 -4412 4400 0
49 -4413 4401 0
49 -4414 4402 0
49 -4407 4399 0
49 -4408 4400 0
49 -4409 4401 0
49 -4410 4402 0
49 -4407 -4411 4400 0
49 -4407 -4412 4401 0
49 -4407 -4413 4402 0
49 -4407 -4414 4403 0
49 -4408 -4411 4401 0
49 -4408 -4412 4402 0
49 -4408 -4413 4403 0
49 -4408 -4414 4404 0
49 -4409 -4411 4402 0
49 -4409 -4412 4403 0
49 -4409 -4413 4404 0
49 -4409 -4414 4405 0
49 -4410 -4411 4403 0
49 -4410 -4412 4404 0
49 -4410 -4413 4405 0
49 -4410 -4414 4406 0
49 -4417 4411 0
49 -4418 4412 0
49 -4415 4411 0
49 -4416 4412 0
49 -4415 -4417 4412 0
49 -4415 -4418 4413 0
49 -4416 -4417 4413 0
49 -4416 -4418 4414 0
49 -1206 4417 0
49 -1205 4417 0
49 -1205 -1206 4418 0
49 -1204 4415 0
49 -1203 4415 0
49 -1203 -1204 4416 0
49 -4421 4407 0
49 -4422 4408 0
49 -4419 4407 0
49 -4420 4408 0
49 -4419 -4421 4408 0
49 -4419 -4422 4409 0
49 -4420 -4421 4409 0
49 -4420 -4422 4410 0
49 -1202 4421 0
49 -1201 4421 0
49 -1201 -1202 4422 0
49 -1200 4419 0
49 -1199 4419 0
49 -1199 -1200 4420 0
49 -4400 0
49 1207 1208 1209 1210 1211 1212 1213 1214 1215 1216 1217 1218 0
49 -4441 4423 0
49 -4442 4424 0
49 -4443 4425 0
49 -4444 4426 0
49 -4445 4427 0
49 -4446 4428 0
49 -4435 4423 0
49 -4436 4424 0
49 -4437 4425 0
49 -4438 4426 0
49 -4439 4427 0
49 -4440 4428 0
49 -4435 -4441 4424 0
49 -4435 -4442 4425 0
49 -4435 -4443 4426 0
49 -4435 -4444 4427 0
49 -4435 -4445 4428 0
49 -4435 -4446 4429 0
49 -4436 -4441 4425 0
49 -4436 -4442 4426 0
49 -4436 -4443 4427 0
49 -4436 -4444 4428 0
49 -4436 -4445 4429 0
49 -4436 -4446 4430 0
49 -4437 -4441 4426 0
49 -4437 -4442 4427 0
49 -4437 -4443 4428 0
49 -4437 -4444 4429 0
49 -4437 -4445 4430 0
49 -4437 -4446 4431 0
49 -4438 -4441 4427 0
49 -4438 -4442 4428 0
49 -4438 -4443 4429 0
49 -4438 -4444 4430 0
49 -4438 -4445 4431 0
49 -4438 -4446 4432 0
49 -4439 -4441 4428 0
49 -4439 -4442 4429 0
49 -4439 -4443 4430 0
49 -4439 -4444 4431 0
49 -4439 -4445 4432 0
49 -4439 -4446 4433 0
49 -4440 -4441 4429 0
49 -4440 -4442 4430 0
49 -4440 -4443 4431 0
49 -4440 -4444 4432 0
49 -4440 -4445 4433 0
49 -4440 -4446 4434 0
49 -4450 4441 0
49 -4451 4442 0
49 -4452 4443 0
49 -4447 4441 0
49 -4448 4442 0
49 -4449 4443 0
49 -4447 -4450 4442 0
49 -4447 -4451 4443 0
49 -4447 -4452 4444 0
49 -4448 -4450 4443 0
49 -4448 -4451 4444 0
49 -4448 -4452 4445 0
49 -4449 -4450 4444 0
49 -4449 -4451 4445 0
49 -4449 -4452 4446 0
49 -1218 4450 0
49 -4453 4450 0
49 -4454 4451 0
49 -4453 -1218 4451 0
49 -4454 -1218 4452 0
49 -1217 4453 0
49 -1216 4453 0
49 -1216 -1217 4454 0
49 -1215 4447 0
49 -4455 4447 0
49 -4456 4448 0
49 -4455 -1215 4448 0
49 -4456 -1215 4449 0
49 -1214 4455 0
49 -1213 4455 0
49 -1213 -1214 4456 0
49 -4460 4435 0
49 -4461 4436 0
49 -4462 4437 0
49 -4457 4435 0
49 -4458 4436 0
49 -4459 4437 0
49 -4457 -4460 4436 0
49 -4457 -4461 4437 0
49 -4457 -4462 4438 0
49 -4458 -4460 4437 0
49 -4458 -4461 4438 0
49 -4458 -4462 4439 0
49 -4459 -4460 4438 0
49 -4459 -4461 4439 0
49 -4459 -4462 4440 0
49 -1212 4460 0
49 -4463 4460 0
49 -4464 4461 0
49 -4463 -1212 4461 0
49 -4464 -1212 4462 0
49 -1211 4463 0
49 -1210 4463 0
49 -1210 -1211 4464 0
49 -1209 4457 0
49 -4465 4457 0
49 -4466 4458 0
49 -4465 -1209 4458 0
49 -4466 -1209 4459 0
49 -1208 4465 0
49 -1207 4465 0
49 -1207 -1208 4466 0
49 -4424 0
49 1219 1220 1221 1222 1223 1224 1225 1226 1227 1228 1229 1230 0
49 -4485 4467 0
49 -4486 4468 0
49 -4487 4469 0
49 -4488 4470 0
49 -4489 4471 0
49 -4490 4472 0
49 -4479 4467 0
49 -4480 4468 0
49 -4481 4469 0
49 -4482 4470 0
49 -4483 4471 0
49 -4484 4472 0
49 -4479 -4485 4468 0
49 -4479 -4486 4469 0
49 -4479 -4487 4470 0
49 -4479 -4488 4471 0
49 -4479 -4489 4472 0
49 -4479 -4490 4473 0
49 -4480 -4485 4469 0
49 -4480 -4486 4470 0
49 -4480 -4487 4471 0
49 -4480 -4488 4472 0
49 -4480 -4489 4473 0
49 -4480 -4490 4474 0
49 -4481 -4485 4470 0
49 -4481 -4486 4471 0
49 -4481 -4487 4472 0
49 -4481 -4488 4473 0
49 -4481 -4489 4474 0
49 -4481 -4490 4475 0
49 -4482 -4485 4471 0
49 -4482 -4486 4472 0
49 -4482 -4487 4473 0
49 -4482 -4488 4474 0
49 -4482 -4489 4475 0
49 -4482 -4490 4476 0
49 -4483 -4485 4472 0
49 -4483 -4486 4473 0
49 -4483 -4487 4474 0
49 -4483 -4488 4475 0
49 -4483 -4489 4476 0
49 -4483 -4490 4477 0
49 -4484 -4485 4473 0
49 -4484 -4486 4474 0
49 -4484 -4487 4475 0
49 -4484 -4488 4476 0
49 -4484 -4489 4477 0
49 -4484 -4490 4478 0
49 -4494 4485 0
49 -4495 4486 0
49 -4496 4487 0
49 -4491 4485 0
49 -4492 4486 0
49 -4493 4487 0
49 -4491 -4494 4486 0
49 -4491 -4495 4487 0
49 -4491 -4496 4488 0
49 -4492 -4494 4487 0
49 -4492 -4495 4488 0
49 -4492 -4496 4489 0
49 -4493 -4494 4488 0
49 -4493 -4495 4489 0
49 -4493 -4496 4490 0
49 -1230 4494 0
49 -4497 4494 0
49 -4498 4495 0
49 -4497 -1230 4495 0
49 -4498 -1230 4496 0
49 -1229 4497 0
49 -1228 4497 0
49 -1228 -1229 4498 0
49 -1227 4491 0
49 -4499 4491 0
49 -4500 4492 0
49 -4499 -1227 4492 0
49 -4500 -1227 4493 0
49 -1226 4499 0
49 -1225 4499 0
49 -1225 -1226 4500 0
49 -4504 4479 0
49 -4505 4480 0
49 -4506 4481 0
49 -4501 4479 0
49 -4502 4480 0
49 -4503 4481 0
49 -4501 -4504 4480 0
49 -4501 -4505 4481 0
49 -4501 -4506 4482 0
49 -4502 -4504 4481 0
49 -4502 -4505 4482 0
49 -4502 -4506 4483 0
49 -4503 -4504 4482 0
49 -4503 -4505 4483 0
49 -4503 -4506 4484 0
49 -1224 4504 0
49 -4507 4504 0
49 -4508 4505 0
49 -4507 -1224 4505 0
49 -4508 -1224 4506 0
49 -1223 4507 0
49 -1222 4507 0
49 -1222 -1223 4508 0
49 -1221 4501 0
49 -4509 4501 0
49 -4510 4502 0
49 -4509 -1221 4502 0
49 -4510 -1221 4503 0
49 -1220 4509 0
49 -1219 4509 0
49 -1219 -1220 4510 0
49 -4468 0
49 1231 1232 1233 1234 1235 1236 1237 0
49 -4522 4511 0
49 -4523 4512 0
49 -4524 4513 0
49 -4518 4511 0
49 -4519 4512 0
49 -4520 4513 0
49 -4521 4514 0
49 -4518 -4522 4512 0
49 -4518 -4523 4513 0
49 -4518 -4524 4514 0
49 -4519 -4522 4513 0
49 -4519 -4523 4514 0
49 -4519 -4524 4515 0
49 -4520 -4522 4514 0
49 -4520 -4523 4515 0
49 -4520 -4524 4516 0
49 -4521 -4522 4515 0
49 -4521 -4523 4516 0
49 -4521 -4524 4517 0
49 -1237 4522 0
49 -4525 4522 0
49 -4526 4523 0
49 -4525 -1237 4523 0
49 -4526 -1237 4524 0
49 -1236 4525 0
49 -1235 4525 0
49 -1235 -1236 4526 0
49 -4529 4518 0
49 -4530 4519 0
49 -4527 4518 0
49 -4528 4519 0
49 -4527 -4529 4519 0
49 -4527 -4530 4520 0
49 -4528 -4529 4520 0
49 -4528 -4530 4521 0
49 -1234 4529 0
49 -1233 4529 0
49 -1233 -1234 4530 0
49 -1232 4527 0
49 -1231 4527 0
49 -1231 -1232 4528 0
49 -4512 0
49 1238 1239 1240 1241 1242 1243 1244 0
49 -4542 4531 0
49 -4543 4532 0
49 -4544 4533 0
49 -4538 4531 0
49 -4539 4532 0
49 -4540 4533 0
49 -4541 4534 0
49 -4538 -4542 4532 0
49 -4538 -4543 4533 0
49 -4538 -4544 4534 0
49 -4539 -4542 4533 0
49 -4539 -4543 4534 0
49 -4539 -4544 4535 0
49 -4540 -4542 4534 0
49 -4540 -4543 4535 0
49 -4540 -4544 4536 0
49 -4541 -4542 4535 0
49 -4541 -4543 4536 0
49 -4541 -4544 4537 0
49 -1244 4542 0
49 -4545 4542 0
49 -4546 4543 0
49 -4545 -1244 4543 0
49 -4546 -1244 4544 0
49 -1243 4545 0
49 -1242 4545 0
49 -1242 -1243 4546 0
49 -4549 4538 0
49 -4550 4539 0
49 -4547 4538 0
49 -4548 4539 0
49 -4547 -4549 4539 0
49 -4547 -4550 4540 0
49 -4548 -4549 4540 0
49 -4548 -4550 4541 0
49 -1241 4549 0
49 -1240 4549 0
49 -1240 -1241 4550 0
49 -1239 4547 0
49 -1238 4547 0
49 -1238 -1239 4548 0
49 -4532 0
49 1245 0
49 1246 0
49 1247 0
49 1248 0
49 1249 1250 1251 1252 0
49 -4557 4551 0
49 -4558 4552 0
49 -4555 4551 0
49 -4556 4552 0
49 -4555 -4557 4552 0
49 -4555 -4558 4553 0
49 -4556 -4557 4553 0
49 -4556 -4558 4554 0
49 -1252 4557 0
49 -1251 4557 0
49 -1251 -1252 4558 0
49 -1250 4555 0
49 -1249 4555 0
49 -1249 -1250 4556 0
49 -4552 0
49 1253 1254 1255 1256 0
49 -4565 4559 0
49 -4566 4560 0
49 -4563 4559 0
49 -4564 4560 0
49 -4563 -4565 4560 0
49 -4563 -4566 4561 0
49 -4564 -4565 4561 0
49 -4564 -4566 4562 0
49 -1256 4565 0
49 -1255 4565 0
49 -1255 -1256 4566 0
49 -1254 4563 0
49 -1253 4563 0
49 -1253 -1254 4564 0
49 -4560 0
49 1257 1258 1259 0
49 -1259 4567 0
49 -4570 4567 0
49 -4571 4568 0
49 -4570 -1259 4568 0
49 -4571 -1259 4569 0
49 -1258 4570 0
49 -1257 4570 0
49 -1257 -1258 4571 0
49 -4568 0
49 1260 1261 1262 0
49 -1262 4572 0
49 -4575 4572 0
49 -4576 4573 0
49 -4575 -1262 4573 0
49 -4576 -1262 4574 0
49 -1261 4575 0
49 -1260 4575 0
49 -1260 -1261 4576 0
49 -4573 0
49 1263 0
49 1264 0
49 1265 0
49 1266 0
49 1267 0
49 1268 0
49 1269 0
49 1270 0
49 1271 0
49 1272 0
49 1273 0
49 1274 0
49 1275 1276 1277 1278 0
49 -4583 4577 0
49 -4584 4578 0
49 -4581 4577 0
49 -4582 4578 0
49 -4581 -4583 4578 0
49 -4581 -4584 4579 0
49 -4582 -4583 4579 0
49 -4582 -4584 4580 0
49 -1278 4583 0
49 -1277 4583 0
49 -1277 -1278 4584 0
49 -1276 4581 0
49 -1275 4581 0
49 -1275 -1276 4582 0
49 -4578 0
49 1279 1280 1281 1282 0
49 -4591 4585 0
49 -4592 4586 0
49 -4589 4585 0
49 -4590 4586 0
49 -4589 -4591 4586 0
49 -4589 -4592 4587 0
49 -4590 -4591 4587 0
49 -4590 -4592 4588 0
49 -1282 4591 0
49 -1281 4591 0
49 -1281 -1282 4592 0
49 -1280 4589 0
49 -1279 4589 0
49 -1279 -1280 4590 0
49 -4586 0
49 1283 0
49 1284 0
49 1285 0
49 1286 0
49 1287 1288 1289 1290 0
49 -4599 4593 0
49 -4600 4594 0
49 -4597 4593 0
49 -4598 4594 0
49 -4597 -4599 4594 0
49 -4597 -4600 4595 0
49 -4598 -4599 4595 0
49 -4598 -4600 4596 0
49 -1290 4599 0
49 -1289 4599 0
49 -1289 -1290 4600 0
49 -1288 4597 0
49 -1287 4597 0
49 -1287 -1288 4598 0
49 -4594 0
49 1291 1292 1293 1294 0
49 -4607 4601 0
49 -4608 4602 0
49 -4605 4601 0
49 -4606 4602 0
49 -4605 -4607 4602 0
49 -4605 -4608 4603 0
49 -4606 -4607 4603 0
49 -4606 -4608 4604 0
49 -1294 4607 0
49 -1293 4607 0
49 -1293 -1294 4608 0
49 -1292 4605 0
49 -1291 4605 0
49 -1291 -1292 4606 0
49 -4602 0
49 1295 1296 1297 1298 1299 1300 0
49 -4618 4609 0
49 -4619 4610 0
49 -4620 4611 0
49 -4615 4609 0
49 -4616 4610 0
49 -4617 4611 0
49 -4615 -4618 4610 0
49 -4615 -4619 4611 0
49 -4615 -4620 4612 0
49 -4616 -4618 4611 0
49 -4616 -4619 4612 0
49 -4616 -4620 4613 0
49 -4617 -4618 4612 0
49 -4617 -4619 4613 0
49 -4617 -4620 4614 0
49 -1300 4618 0
49 -4621 4618 0
49 -4622 4619 0
49 -4621 -1300 4619 0
49 -4622 -1300 4620 0
49 -1299 4621 0
49 -1298 4621 0
49 -1298 -1299 4622 0
49 -1297 4615 0
49 -4623 4615 0
49 -4624 4616 0
49 -4623 -1297 4616 0
49 -4624 -1297 4617 0
49 -1296 4623 0
49 -1295 4623 0
49 -1295 -1296 4624 0
49 -4610 0
49 1301 1302 1303 1304 1305 1306 0
49 -4634 4625 0
49 -4635 4626 0
49 -4636 4627 0
49 -4631 4625 0
49 -4632 4626 0
49 -4633 4627 0
49 -4631 -4634 4626 0
49 -4631 -4635 4627 0
49 -4631 -4636 4628 0
49 -4632 -4634 4627 0
49 -4632 -4635 4628 0
49 -4632 -4636 4629 0
49 -4633 -4634 4628 0
49 -4633 -4635 4629 0
49 -4633 -4636 4630 0
49 -1306 4634 0
49 -4637 4634 0
49 -4638 4635 0
49 -4637 -1306 4635 0
49 -4638 -1306 4636 0
49 -1305 4637 0
49 -1304 4637 0
49 -1304 -1305 4638 0
49 -1303 4631 0
49 -4639 4631 0
49 -4640 4632 0
49 -4639 -1303 4632 0
49 -4640 -1303 4633 0
49 -1302 4639 0
49 -1301 4639 0
49 -1301 -1302 4640 0
49 -4626 0
49 1307 1308 1309 1310 0
49 -4647 4641 0
49 -4648 4642 0
49 -4645 4641 0
49 -4646 4642 0
49 -4645 -4647 4642 0
49 -4645 -4648 4643 0
49 -4646 -4647 4643 0
49 -4646 -4648 4644 0
49 -1310 4647 0
49 -1309 4647 0
49 -1309 -1310 4648 0
49 -1308 4645 0
49 -1307 4645 0
49 -1307 -1308 4646 0
49 -4642 0
49 1311 1312 1313 1314 0
49 -4655 4649 0
49 -4656 4650 0
49 -4653 4649 0
49 -4654 4650 0
49 -4653 -4655 4650 0
49 -4653 -4656 4651 0
49 -4654 -4655 4651 0
49 -4654 -4656 4652 0
49 -1314 4655 0
49 -1313 4655 0
49 -1313 -1314 4656 0
49 -1312 4653 0
49 -1311 4653 0
49 -1311 -1312 4654 0
49 -4650 0
49 1315 0
49 1316 0
49 1317 0
49 1318 0
49 1319 1320 0
49 -1319 -1320 0
49 1321 1322 0
49 -1321 -1322 0
49 1323 1324 1325 1326 0
49 -4663 4657 0
49 -4664 4658 0
49 -4661 4657 0
49 -4662 4658 0
49 -4661 -4663 4658 0
49 -4661 -4664 4659 0
49 -4662 -4663 4659 0
49 -4662 -4664 4660 0
49 -1326 4663 0
49 -1325 4663 0
49 -1325 -1326 4664 0
49 -1324 4661 0
49 -1323 4661 0
49 -1323 -1324 4662 0
49 -4658 0
49 1327 1328 1329 1330 0
49 -4671 4665 0
49 -4672 4666 0
49 -4669 4665 0
49 -4670 4666 0
49 -4669 -4671 4666 0
49 -4669 -4672 4667 0
49 -4670 -4671 4667 0
49 -4670 -4672 4668 0
49 -1330 4671 0
49 -1329 4671 0
49 -1329 -1330 4672 0
49 -1328 4669 0
49 -1327 4669 0
49 -1327 -1328 4670 0
49 -4666 0
49 1331 1332 0
49 -1331 -1332 0
49 1333 1334 0
49 -1333 -1334 0
49 1335 1336 1337 0
49 -1337 4673 0
49 -4676 4673 0
49 -4677 4674 0
49 -4676 -1337 4674 0
49 -4677 -1337 4675 0
49 -1336 4676 0
49 -1335 4676 0
49 -1335 -1336 4677 0
49 -4674 0
49 1338 1339 1340 0
49 -1340 4678 0
49 -4681 4678 0
49 -4682 4679 0
49 -4681 -1340 4679 0
49 -4682 -1340 4680 0
49 -1339 4681 0
49 -1338 4681 0
49 -1338 -1339 4682 0
49 -4679 0
49 1341 1342 1343 0
49 -1343 4683 0
49 -4686 4683 0
49 -4687 4684 0
49 -4686 -1343 4684 0
49 -4687 -1343 4685 0
49 -1342 4686 0
49 -1341 4686 0
49 -1341 -1342 4687 0
49 -4684 0
49 1344 1345 1346 0
49 -1346 4688 0
49 -4691 4688 0
49 -4692 4689 0
49 -4691 -1346 4689 0
49 -4692 -1346 4690 0
49 -1345 4691 0
49 -1344 4691 0
49 -1344 -1345 4692 0
49 -4689 0
49 1347 1348 1349 1350 1351 0
49 -4701 4693 0
49 -4702 4694 0
49 -4698 4693 0
49 -4699 4694 0
49 -4700 4695 0
49 -4698 -4701 4694 0
49 -4698 -4702 4695 0
49 -4699 -4701 4695 0
49 -4699 -4702 4696 0
49 -4700 -4701 4696 0
49 -4700 -4702 4697 0
49 -1351 4701 0
49 -1350 4701 0
49 -1350 -1351 4702 0
49 -1349 4698 0
49 -4703 4698 0
49 -4704 4699 0
49 -4703 -1349 4699 0
49 -4704 -1349 4700 0
49 -1348 4703 0
49 -1347 4703 0
49 -1347 -1348 4704 0
49 -4694 0
49 1352 1353 1354 1355 1356 0
49 -4713 4705 0
49 -4714 4706 0
49 -4710 4705 0
49 -4711 4706 0
49 -4712 4707 0
49 -4710 -4713 4706 0
49 -4710 -4714 4707 0
49 -4711 -4713 4707 0
49 -4711 -4714 4708 0
49 -4712 -4713 4708 0
49 -4712 -4714 4709 0
49 -1356 4713 0
49 -1355 4713 0
49 -1355 -1356 4714 0
49 -1354 4710 0
49 -4715 4710 0
49 -4716 4711 0
49 -4715 -1354 4711 0
49 -4716 -1354 4712 0
49 -1353 4715 0
49 -1352 4715 0
49 -1352 -1353 4716 0
49 -4706 0
49 1357 1358 0
49 -1357 -1358 0
49 1359 1360 0
49 -1359 -1360 0
49 1361 1362 1363 1364 0
49 -4723 4717 0
49 -4724 4718 0
49 -4721 4717 0
49 -4722 4718 0
49 -4721 -4723 4718 0
49 -4721 -4724 4719 0
49 -4722 -4723 4719 0
49 -4722 -4724 4720 0
49 -1364 4723 0
49 -1363 4723 0
49 -1363 -1364 4724 0
49 -1362 4721 0
49 -1361 4721 0
49 -1361 -1362 4722 0
49 -4718 0
49 1365 1366 1367 1368 0
49 -4731 4725 0
49 -4732 4726 0
49 -4729 4725 0
49 -4730 4726 0
49 -4729 -4731 4726 0
49 -4729 -4732 4727 0
49 -4730 -4731 4727 0
49 -4730 -4732 4728 0
49 -1368 4731 0
49 -1367 4731 0
49 -1367 -1368 4732 0
49 -1366 4729 0
49 -1365 4729 0
49 -1365 -1366 4730 0
49 -4726 0
49 1369 1370 1371 1372 0
49 -4739 4733 0
49 -4740 4734 0
49 -4737 4733 0
49 -4738 4734 0
49 -4737 -4739 4734 0
49 -4737 -4740 4735 0
49 -4738 -4739 4735 0
49 -4738 -4740 4736 0
49 -1372 4739 0
49 -1371 4739 0
49 -1371 -1372 4740 0
49 -1370 4737 0
49 -1369 4737 0
49 -1369 -1370 4738 0
49 -4734 0
49 1373 1374 1375 1376 0
49 -4747 4741 0
49 -4748 4742 0
49 -4745 4741 0
49 -4746 4742 0
49 -4745 -4747 4742 0
49 -4745 -4748 4743 0
49 -4746 -4747 4743 0
49 -4746 -4748 4744 0
49 -1376 4747 0
49 -1375 4747 0
49 -1375 -1376 4748 0
49 -1374 4745 0
49 -1373 4745 0
49 -1373 -1374 4746 0
49 -4742 0
49 1377 1378 0
49 -1377 -1378 0
49 1379 1380 0
49 -1379 -1380 0
49 1381 1382 0
49 -1381 -1382 0
49 1383 1384 0
49 -1383 -1384 0
49 1385 1386 0
49 -1385 -1386 0
49 1387 1388 0
49 -1387 -1388 0
49 1389 0
49 1390 0
49 1391 1392 0
49 -1391 -1392 0
49 1393 1394 0
49 -1393 -1394 0
49 1395 0
49 1396 0
49 1397 1398 1399 0
49 -1399 4749 0
49 -4752 4749 0
49 -4753 4750 0
49 -4752 -1399 4750 0
49 -4753 -1399 4751 0
49 -1398 4752 0
49 -1397 4752 0
49 -1397 -1398 4753 0
49 -4750 0
49 1400 1401 1402 0
49 -1402 4754 0
49 -4757 4754 0
49 -4758 4755 0
49 -4757 -1402 4755 0
49 -4758 -1402 4756 0
49 -1401 4757 0
49 -1400 4757 0
49 -1400 -1401 4758 0
49 -4755 0
49 1403 1404 0
49 -1403 -1404 0
49 1405 1406 0
49 -1405 -1406 0
49 1407 1408 0
49 -1407 -1408 0
49 1409 1410 0
49 -1409 -1410 0
49 1411 0
49 1412 0
49 1413 1414 1415 0
49 -1415 4759 0
49 -4762 4759 0
49 -4763 4760 0
49 -4762 -1415 4760 0
49 -4763 -1415 4761 0
49 -1414 4762 0
49 -1413 4762 0
49 -1413 -1414 4763 0
49 -4760 0
49 1416 1417 1418 0
49 -1418 4764 0
49 -4767 4764 0
49 -4768 4765 0
49 -4767 -1418 4765 0
49 -4768 -1418 4766 0
49 -1417 4767 0
49 -1416 4767 0
49 -1416 -1417 4768 0
49 -4765 0
49 1419 1420 1421 1422 1423 0
49 -4777 4769 0
49 -4778 4770 0
49 -4774 4769 0
49 -4775 4770 0
49 -4776 4771 0
49 -4774 -4777 4770 0
49 -4774 -4778 4771 0
49 -4775 -4777 4771 0
49 -4775 -4778 4772 0
49 -4776 -4777 4772 0
49 -4776 -4778 4773 0
49 -1423 4777 0
49 -1422 4777 0
49 -1422 -1423 4778 0
49 -1421 4774 0
49 -4779 4774 0
49 -4780 4775 0
49 -4779 -1421 4775 0
49 -4780 -1421 4776 0
49 -1420 4779 0
49 -1419 4779 0
49 -1419 -1420 4780 0
49 -4770 0
49 1424 1425 1426 1427 1428 0
49 -4789 4781 0
49 -4790 4782 0
49 -4786 4781 0
49 -4787 4782 0
49 -4788 4783 0
49 -4786 -4789 4782 0
49 -4786 -4790 4783 0
49 -4787 -4789 4783 0
49 -4787 -4790 4784 0
49 -4788 -4789 4784 0
49 -4788 -4790 4785 0
49 -1428 4789 0
49 -1427 4789 0
49 -1427 -1428 4790 0
49 -1426 4786 0
49 -4791 4786 0
49 -4792 4787 0
49 -4791 -1426 4787 0
49 -4792 -1426 4788 0
49 -1425 4791 0
49 -1424 4791 0
49 -1424 -1425 4792 0
49 -4782 0
49 1429 1430 1431 1432 1433 1434 1435 1436 0
49 -4805 4793 0
49 -4806 4794 0
49 -4807 4795 0
49 -4808 4796 0
49 -4801 4793 0
49 -4802 4794 0
49 -4803 4795 0
49 -4804 4796 0
49 -4801 -4805 4794 0
49 -4801 -4806 4795 0
49 -4801 -4807 4796 0
49 -4801 -4808 4797 0
49 -4802 -4805 4795 0
49 -4802 -4806 4796 0
49 -4802 -4807 4797 0
49 -4802 -4808 4798 0
49 -4803 -4805 4796 0
49 -4803 -4806 4797 0
49 -4803 -4807 4798 0
49 -4803 -4808 4799 0
49 -4804 -4805 4797 0
49 -4804 -4806 4798 0
49 -4804 -4807 4799 0
49 -4804 -4808 4800 0
49 -4811 4805 0
49 -4812 4806 0
49 -4809 4805 0
49 -4810 4806 0
49 -4809 -4811 4806 0
49 -4809 -4812 4807 0
49 -4810 -4811 4807 0
49 -4810 -4812 4808 0
49 -1436 4811 0
49 -1435 4811 0
49 -1435 -1436 4812 0
49 -1434 4809 0
49 -1433 4809 0
49 -1433 -1434 4810 0
49 -4815 4801 0
49 -4816 4802 0
49 -4813 4801 0
49 -4814 4802 0
49 -4813 -4815 4802 0
49 -4813 -4816 4803 0
49 -4814 -4815 4803 0
49 -4814 -4816 4804 0
49 -1432 4815 0
49 -1431 4815 0
49 -1431 -1432 4816 0
49 -1430 4813 0
49 -1429 4813 0
49 -1429 -1430 4814 0
49 -4794 0
49 1437 1438 1439 1440 1441 1442 1443 1444 0
49 -4829 4817 0
49 -4830 4818 0
49 -4831 4819 0
49 -4832 4820 0
49 -4825 4817 0
49 -4826 4818 0
49 -4827 4819 0
49 -4828 4820 0
49 -4825 -4829 4818 0
49 -4825 -4830 4819 0
49 -4825 -4831 4820 0
49 -4825 -4832 4821 0
49 -4826 -4829 4819 0
49 -4826 -4830 4820 0
49 -4826 -4831 4821 0
49 -4826 -4832 4822 0
49 -4827 -4829 4820 0
49 -4827 -4830 4821 0
49 -4827 -4831 4822 0
49 -4827 -4832 4823 0
49 -4828 -4829 4821 0
49 -4828 -4830 4822 0
49 -4828 -4831 4823 0
49 -4828 -4832 4824 0
49 -4835 4829 0
49 -4836 4830 0
49 -4833 4829 0
49 -4834 4830 0
49 -4833 -4835 4830 0
49 -4833 -4836 4831 0
49 -4834 -4835 4831 0
49 -4834 -4836 4832 0
49 -1444 4835 0
49 -1443 4835 0
49 -1443 -1444 4836 0
49 -1442 4833 0
49 -1441 4833 0
49 -1441 -1442 4834 0
49 -4839 4825 0
49 -4840 4826 0
49 -4837 4825 0
49 -4838 4826 0
49 -4837 -4839 4826 0
49 -4837 -4840 4827 0
49 -4838 -4839 4827 0
49 -4838 -4840 4828 0
49 -1440 4839 0
49 -1439 4839 0
49 -1439 -1440 4840 0
49 -1438 4837 0
49 -1437 4837 0
49 -1437 -1438 4838 0
49 -4818 0
49 1445 1446 1447 1448 0
49 -4847 4841 0
49 -4848 4842 0
49 -4845 4841 0
49 -4846 4842 0
49 -4845 -4847 4842 0
49 -4845 -4848 4843 0
49 -4846 -4847 4843 0
49 -4846 -4848 4844 0
49 -1448 4847 0
49 -1447 4847 0
49 -1447 -1448 4848 0
49 -1446 4845 0
49 -1445 4845 0
49 -1445 -1446 4846 0
49 -4842 0
49 1449 1450 1451 1452 0
49 -4855 4849 0
49 -4856 4850 0
49 -4853 4849 0
49 -4854 4850 0
49 -4853 -4855 4850 0
49 -4853 -4856 4851 0
49 -4854 -4855 4851 0
49 -4854 -4856 4852 0
49 -1452 4855 0
49 -1451 4855 0
49 -1451 -1452 4856 0
49 -1450 4853 0
49 -1449 4853 0
49 -1449 -1450 4854 0
49 -4850 0
49 1453 1454 1455 1456 0
49 -4863 4857 0
49 -4864 4858 0
49 -4861 4857 0
49 -4862 4858 0
49 -4861 -4863 4858 0
49 -4861 -4864 4859 0
49 -4862 -4863 4859 0
49 -4862 -4864 4860 0
49 -1456 4863 0
49 -1455 4863 0
49 -1455 -1456 4864 0
49 -1454 4861 0
49 -1453 4861 0
49 -1453 -1454 4862 0
49 -4858 0
49 1457 1458 1459 1460 0
49 -4871 4865 0
49 -4872 4866 0
49 -4869 4865 0
49 -4870 4866 0
49 -4869 -4871 4866 0
49 -4869 -4872 4867 0
49 -4870 -4871 4867 0
49 -4870 -4872 4868 0
49 -1460 4871 0
49 -1459 4871 0
49 -1459 -1460 4872 0
49 -1458 4869 0
49 -1457 4869 0
49 -1457 -1458 4870 0
49 -4866 0
49 1461 1462 1463 1464 0
49 -4879 4873 0
49 -4880 4874 0
49 -4877 4873 0
49 -4878 4874 0
49 -4877 -4879 4874 0
49 -4877 -4880 4875 0
49 -4878 -4879 4875 0
49 -4878 -4880 4876 0
49 -1464 4879 0
49 -1463 4879 0
49 -1463 -1464 4880 0
49 -1462 4877 0
49 -1461 4877 0
49 -1461 -1462 4878 0
49 -4874 0
49 1465 1466 1467 1468 0
49 -4887 4881 0
49 -4888 4882 0
49 -4885 4881 0
49 -4886 4882 0
49 -4885 -4887 4882 0
49 -4885 -4888 4883 0
49 -4886 -4887 4883 0
49 -4886 -4888 4884 0
49 -1468 4887 0
49 -1467 4887 0
49 -1467 -1468 4888 0
49 -1466 4885 0
49 -1465 4885 0
49 -1465 -1466 4886 0
49 -4882 0
49 1469 1470 0
49 -1469 -1470 0
49 1471 1472 0
49 -1471 -1472 0
49 1473 1474 0
49 -1473 -1474 0
49 1475 1476 0
49 -1475 -1476 0
49 1477 1478 1479 0
49 -1479 4889 0
49 -4892 4889 0
49 -4893 4890 0
49 -4892 -1479 4890 0
49 -4893 -1479 4891 0
49 -1478 4892 0
49 -1477 4892 0
49 -1477 -1478 4893 0
49 -4890 0
49 1480 1481 1482 0
49 -1482 4894 0
49 -4897 4894 0
49 -4898 4895 0
49 -4897 -1482 4895 0
49 -4898 -1482 4896 0
49 -1481 4897 0
49 -1480 4897 0
49 -1480 -1481 4898 0
49 -4895 0
49 1483 1484 1485 0
49 -1485 4899 0
49 -4902 4899 0
49 -4903 4900 0
49 -4902 -1485 4900 0
49 -4903 -1485 4901 0
49 -1484 4902 0
49 -1483 4902 0
49 -1483 -1484 4903 0
49 -4900 0
49 1486 1487 1488 0
49 -1488 4904 0
49 -4907 4904 0
49 -4908 4905 0
49 -4907 -1488 4905 0
49 -4908 -1488 4906 0
49 -1487 4907 0
49 -1486 4907 0
49 -1486 -1487 4908 0
49 -4905 0
49 1489 1490 1491 0
49 -1491 4909 0
49 -4912 4909 0
49 -4913 4910 0
49 -4912 -1491 4910 0
49 -4913 -1491 4911 0
49 -1490 4912 0
49 -1489 4912 0
49 -1489 -1490 4913 0
49 -4910 0
49 1492 1493 1494 0
49 -1494 4914 0
49 -4917 4914 0
49 -4918 4915 0
49 -4917 -1494 4915 0
49 -4918 -1494 4916 0
49 -1493 4917 0
49 -1492 4917 0
49 -1492 -1493 4918 0
49 -4915 0
49 1495 1496 1497 0
49 -1497 4919 0
49 -4922 4919 0
49 -4923 4920 0
49 -4922 -1497 4920 0
49 -4923 -1497 4921 0
49 -1496 4922 0
49 -1495 4922 0
49 -1495 -1496 4923 0
49 -4920 0
49 1498 1499 1500 0
49 -1500 4924 0
49 -4927 4924 0
49 -4928 4925 0
49 -4927 -1500 4925 0
49 -4928 -1500 4926 0
49 -1499 4927 0
49 -1498 4927 0
49 -1498 -1499 4928 0
49 -4925 0
49 1501 1502 1503 1504 1505 1506 0
49 -4938 4929 0
49 -4939 4930 0
49 -4940 4931 0
49 -4935 4929 0
49 -4936 4930 0
49 -4937 4931 0
49 -4935 -4938 4930 0
49 -4935 -4939 4931 0
49 -4935 -4940 4932 0
49 -4936 -4938 4931 0
49 -4936 -4939 4932 0
49 -4936 -4940 4933 0
49 -4937 -4938 4932 0
49 -4937 -4939 4933 0
49 -4937 -4940 4934 0
49 -1506 4938 0
49 -4941 4938 0
49 -4942 4939 0
49 -4941 -1506 4939 0
49 -4942 -1506 4940 0
49 -1505 4941 0
49 -1504 4941 0
49 -1504 -1505 4942 0
49 -1503 4935 0
49 -4943 4935 0
49 -4944 4936 0
49 -4943 -1503 4936 0
49 -4944 -1503 4937 0
49 -1502 4943 0
49 -1501 4943 0
49 -1501 -1502 4944 0
49 -4930 0
49 1507 1508 1509 1510 1511 1512 0
49 -4954 4945 0
49 -4955 4946 0
49 -4956 4947 0
49 -4951 4945 0
49 -4952 4946 0
49 -4953 4947 0
49 -4951 -4954 4946 0
49 -4951 -4955 4947 0
49 -4951 -4956 4948 0
49 -4952 -4954 4947 0
49 -4952 -4955 4948 0
49 -4952 -4956 4949 0
49 -4953 -4954 4948 0
49 -4953 -4955 4949 0
49 -4953 -4956 4950 0
49 -1512 4954 0
49 -4957 4954 0
49 -4958 4955 0
49 -4957 -1512 4955 0
49 -4958 -1512 4956 0
49 -1511 4957 0
49 -1510 4957 0
49 -1510 -1511 4958 0
49 -1509 4951 0
49 -4959 4951 0
49 -4960 4952 0
49 -4959 -1509 4952 0
49 -4960 -1509 4953 0
49 -1508 4959 0
49 -1507 4959 0
49 -1507 -1508 4960 0
49 -4946 0
49 1513 0
49 1514 0
49 1515 1516 1517 1518 1519 1520 0
49 -4970 4961 0
49 -4971 4962 0
49 -4972 4963 0
49 -4967 4961 0
49 -4968 4962 0
49 -4969 4963 0
49 -4967 -4970 4962 0
49 -4967 -4971 4963 0
49 -4967 -4972 4964 0
49 -4968 -4970 4963 0
49 -4968 -4971 4964 0
49 -4968 -4972 4965 0
49 -4969 -4970 4964 0
49 -4969 -4971 4965 0
49 -4969 -4972 4966 0
49 -1520 4970 0
49 -4973 4970 0
49 -4974 4971 0
49 -4973 -1520 4971 0
49 -4974 -1520 4972 0
49 -1519 4973 0
49 -1518 4973 0
49 -1518 -1519 4974 0
49 -1517 4967 0
49 -4975 4967 0
49 -4976 4968 0
49 -4975 -1517 4968 0
49 -4976 -1517 4969 0
49 -1516 4975 0
49 -1515 4975 0
49 -1515 -1516 4976 0
49 -4962 0
49 1521 1522 1523 1524 1525 1526 0
49 -4986 4977 0
49 -4987 4978 0
49 -4988 4979 0
49 -4983 4977 0
49 -4984 4978 0
49 -4985 4979 0
49 -4983 -4986 4978 0
49 -4983 -4987 4979 0
49 -4983 -4988 4980 0
49 -4984 -4986 4979 0
49 -4984 -4987 4980 0
49 -4984 -4988 4981 0
49 -4985 -4986 4980 0
49 -4985 -4987 4981 0
49 -4985 -4988 4982 0
49 -1526 4986 0
49 -4989 4986 0
49 -4990 4987 0
49 -4989 -1526 4987 0
49 -4990 -1526 4988 0
49 -1525 4989 0
49 -1524 4989 0
49 -1524 -1525 4990 0
49 -1523 4983 0
49 -4991 4983 0
49 -4992 4984 0
49 -4991 -1523 4984 0
49 -4992 -1523 4985 0
49 -1522 4991 0
49 -1521 4991 0
49 -1521 -1522 4992 0
49 -4978 0
49 1527 1528 0
49 -1527 -1528 0
49 1529 1530 0
49 -1529 -1530 0
49 1531 1532 0
49 -1531 -1532 0
49 1533 1534 0
49 -1533 -1534 0
49 1535 1536 1537 1538 0
49 -4999 4993 0
49 -5000 4994 0
49 -4997 4993 0
49 -4998 4994 0
49 -4997 -4999 4994 0
49 -4997 -5000 4995 0
49 -4998 -4999 4995 0
49 -4998 -5000 4996 0
49 -1538 4999 0
49 -1537 4999 0
49 -1537 -1538 5000 0
49 -1536 4997 0
49 -1535 4997 0
49 -1535 -1536 4998 0
49 -4994 0
49 1539 1540 1541 1542 0
49 -5007 5001 0
49 -5008 5002 0
49 -5005 5001 0
49 -5006 5002 0
49 -5005 -5007 5002 0
49 -5005 -5008 5003 0
49 -5006 -5007 5003 0
49 -5006 -5008 5004 0
49 -1542 5007 0
49 -1541 5007 0
49 -1541 -1542 5008 0
49 -1540 5005 0
49 -1539 5005 0
49 -1539 -1540 5006 0
49 -5002 0
49 1543 1544 1545 1546 1547 0
49 -5017 5009 0
49 -5018 5010 0
49 -5014 5009 0
49 -5015 5010 0
49 -5016 5011 0
49 -5014 -5017 5010 0
49 -5014 -5018 5011 0
49 -5015 -5017 5011 0
49 -5015 -5018 5012 0
49 -5016 -5017 5012 0
49 -5016 -5018 5013 0
49 -1547 5017 0
49 -1546 5017 0
49 -1546 -1547 5018 0
49 -1545 5014 0
49 -5019 5014 0
49 -5020 5015 0
49 -5019 -1545 5015 0
49 -5020 -1545 5016 0
49 -1544 5019 0
49 -1543 5019 0
49 -1543 -1544 5020 0
49 -5010 0
49 1548 1549 1550 1551 1552 0
49 -5029 5021 0
49 -5030 5022 0
49 -5026 5021 0
49 -5027 5022 0
49 -5028 5023 0
49 -5026 -5029 5022 0
49 -5026 -5030 5023 0
49 -5027 -5029 5023 0
49 -5027 -5030 5024 0
49 -5028 -5029 5024 0
49 -5028 -5030 5025 0
49 -1552 5029 0
49 -1551 5029 0
49 -1551 -1552 5030 0
49 -1550 5026 0
49 -5031 5026 0
49 -5032 5027 0
49 -5031 -1550 5027 0
49 -5032 -1550 5028 0
49 -1549 5031 0
49 -1548 5031 0
49 -1548 -1549 5032 0
49 -5022 0
49 1553 0
49 1554 0
49 1555 0
49 1556 0
49 1557 0
49 1558 0
49 1559 1560 1561 1562 1563 1564 1565 1566 0
49 -5045 5033 0
49 -5046 5034 0
49 -5047 5035 0
49 -5048 5036 0
49 -5041 5033 0
49 -5042 5034 0
49 -5043 5035 0
49 -5044 5036 0
49 -5041 -5045 5034 0
49 -5041 -5046 5035 0
49 -5041 -5047 5036 0
49 -5041 -5048 5037 0
49 -5042 -5045 5035 0
49 -5042 -5046 5036 0
49 -5042 -5047 5037 0
49 -5042 -5048 5038 0
49 -5043 -5045 5036 0
49 -5043 -5046 5037 0
49 -5043 -5047 5038 0
49 -5043 -5048 5039 0
49 -5044 -5045 5037 0
49 -5044 -5046 5038 0
49 -5044 -5047 5039 0
49 -5044 -5048 5040 0
49 -5051 5045 0
49 -5052 5046 0
49 -5049 5045 0
49 -5050 5046 0
49 -5049 -5051 5046 0
49 -5049 -5052 5047 0
49 -5050 -5051 5047 0
49 -5050 -5052 5048 0
49 -1566 5051 0
49 -1565 5051 0
49 -1565 -1566 5052 0
49 -1564 5049 0
49 -1563 5049 0
49 -1563 -1564 5050 0
49 -5055 5041 0
49 -5056 5042 0
49 -5053 5041 0
49 -5054 5042 0
49 -5053 -5055 5042 0
49 -5053 -5056 5043 0
49 -5054 -5055 5043 0
49 -5054 -5056 5044 0
49 -1562 5055 0
49 -1561 5055 0
49 -1561 -1562 5056 0
49 -1560 5053 0
49 -1559 5053 0
49 -1559 -1560 5054 0
49 -5034 0
49 1567 1568 1569 1570 1571 1572 1573 1574 0
49 -5069 5057 0
49 -5070 5058 0
49 -5071 5059 0
49 -5072 5060 0
49 -5065 5057 0
49 -5066 5058 0
49 -5067 5059 0
49 -5068 5060 0
49 -5065 -5069 5058 0
49 -5065 -5070 5059 0
49 -5065 -5071 5060 0
49 -5065 -5072 5061 0
49 -5066 -5069 5059 0
49 -5066 -5070 5060 0
49 -5066 -5071 5061 0
49 -5066 -5072 5062 0
49 -5067 -5069 5060 0
49 -5067 -5070 5061 0
49 -5067 -5071 5062 0
49 -5067 -5072 5063 0
49 -5068 -5069 5061 0
49 -5068 -5070 5062 0
49 -5068 -5071 5063 0
49 -5068 -5072 5064 0
49 -5075 5069 0
49 -5076 5070 0
49 -5073 5069 0
49 -5074 5070 0
49 -5073 -5075 5070 0
49 -5073 -5076 5071 0
49 -5074 -5075 5071 0
49 -5074 -5076 5072 0
49 -1574 5075 0
49 -1573 5075 0
49 -1573 -1574 5076 0
49 -1572 5073 0
49 -1571 5073 0
49 -1571 -1572 5074 0
49 -5079 5065 0
49 -5080 5066 0
49 -5077 5065 0
49 -5078 5066 0
49 -5077 -5079 5066 0
49 -5077 -5080 5067 0
49 -5078 -5079 5067 0
49 -5078 -5080 5068 0
49 -1570 5079 0
49 -1569 5079 0
49 -1569 -1570 5080 0
49 -1568 5077 0
49 -1567 5077 0
49 -1567 -1568 5078 0
49 -5058 0
49 1575 1576 1577 0
49 -1577 5081 0
49 -5084 5081 0
49 -5085 5082 0
49 -5084 -1577 5082 0
49 -5085 -1577 5083 0
49 -1576 5084 0
49 -1575 5084 0
49 -1575 -1576 5085 0
49 -5082 0
49 1578 1579 1580 0
49 -1580 5086 0
49 -5089 5086 0
49 -5090 5087 0
49 -5089 -1580 5087 0
49 -5090 -1580 5088 0
49 -1579 5089 0
49 -1578 5089 0
49 -1578 -1579 5090 0
49 -5087 0
49 1581 1582 1583 1584 1585 1586 1587 1588 0
49 -5103 5091 0
49 -5104 5092 0
49 -5105 5093 0
49 -5106 5094 0
49 -5099 5091 0
49 -5100 5092 0
49 -5101 5093 0
49 -5102 5094 0
49 -5099 -5103 5092 0
49 -5099 -5104 5093 0
49 -5099 -5105 5094 0
49 -5099 -5106 5095 0
49 -5100 -5103 5093 0
49 -5100 -5104 5094 0
49 -5100 -5105 5095 0
49 -5100 -5106 5096 0
49 -5101 -5103 5094 0
49 -5101 -5104 5095 0
49 -5101 -5105 5096 0
49 -5101 -5106 5097 0
49 -5102 -5103 5095 0
49 -5102 -5104 5096 0
49 -5102 -5105 5097 0
49 -5102 -5106 5098 0
49 -5109 5103 0
49 -5110 5104 0
49 -5107 5103 0
49 -5108 5104 0
49 -5107 -5109 5104 0
49 -5107 -5110 5105 0
49 -5108 -5109 5105 0
49 -5108 -5110 5106 0
49 -1588 5109 0
49 -1587 5109 0
49 -1587 -1588 5110 0
49 -1586 5107 0
49 -1585 5107 0
49 -1585 -1586 5108 0
49 -5113 5099 0
49 -5114 5100 0
49 -5111 5099 0
49 -5112 5100 0
49 -5111 -5113 5100 0
49 -5111 -5114 5101 0
49 -5112 -5113 5101 0
49 -5112 -5114 5102 0
49 -1584 5113 0
49 -1583 5113 0
49 -1583 -1584 5114 0
49 -1582 5111 0
49 -1581 5111 0
49 -1581 -1582 5112 0
49 -5092 0
49 1589 1590 1591 1592 1593 1594 1595 1596 0
49 -5127 5115 0
49 -5128 5116 0
49 -5129 5117 0
49 -5130 5118 0
49 -5123 5115 0
49 -5124 5116 0
49 -5125 5117 0
49 -5126 5118 0
49 -5123 -5127 5116 0
49 -5123 -5128 5117 0
49 -5123 -5129 5118 0
49 -5123 -5130 5119 0
49 -5124 -5127 5117 0
49 -5124 -5128 5118 0
49 -5124 -5129 5119 0
49 -5124 -5130 5120 0
49 -5125 -5127 5118 0
49 -5125 -5128 5119 0
49 -5125 -5129 5120 0
49 -5125 -5130 5121 0
49 -5126 -5127 5119 0
49 -5126 -5128 5120 0
49 -5126 -5129 5121 0
49 -5126 -5130 5122 0
49 -5133 5127 0
49 -5134 5128 0
49 -5131 5127 0
49 -5132 5128 0
49 -5131 -5133 5128 0
49 -5131 -5134 5129 0
49 -5132 -5133 5129 0
49 -5132 -5134 5130 0
49 -1596 5133 0
49 -1595 5133 0
49 -1595 -1596 5134 0
49 -1594 5131 0
49 -1593 5131 0
49 -1593 -1594 5132 0
49 -5137 5123 0
49 -5138 5124 0
49 -5135 5123 0
49 -5136 5124 0
49 -5135 -5137 5124 0
49 -5135 -5138 5125 0
49 -5136 -5137 5125 0
49 -5136 -5138 5126 0
49 -1592 5137 0
49 -1591 5137 0
49 -1591 -1592 5138 0
49 -1590 5135 0
49 -1589 5135 0
49 -1589 -1590 5136 0
49 -5116 0
49 1597 1598 1599 1600 1601 0
49 -5147 5139 0
49 -5148 5140 0
49 -5144 5139 0
49 -5145 5140 0
49 -5146 5141 0
49 -5144 -5147 5140 0
49 -5144 -5148 5141 0
49 -5145 -5147 5141 0
49 -5145 -5148 5142 0
49 -5146 -5147 5142 0
49 -5146 -5148 5143 0
49 -1601 5147 0
49 -1600 5147 0
49 -1600 -1601 5148 0
49 -1599 5144 0
49 -5149 5144 0
49 -5150 5145 0
49 -5149 -1599 5145 0
49 -5150 -1599 5146 0
49 -1598 5149 0
49 -1597 5149 0
49 -1597 -1598 5150 0
49 -5140 0
49 1602 1603 1604 1605 1606 0
49 -5159 5151 0
49 -5160 5152 0
49 -5156 5151 0
49 -5157 5152 0
49 -5158 5153 0
49 -5156 -5159 5152 0
49 -5156 -5160 5153 0
49 -5157 -5159 5153 0
49 -5157 -5160 5154 0
49 -5158 -5159 5154 0
49 -5158 -5160 5155 0
49 -1606 5159 0
49 -1605 5159 0
49 -1605 -1606 5160 0
49 -1604 5156 0
49 -5161 5156 0
49 -5162 5157 0
49 -5161 -1604 5157 0
49 -5162 -1604 5158 0
49 -1603 5161 0
49 -1602 5161 0
49 -1602 -1603 5162 0
49 -5152 0
49 1607 1608 1609 1610 1611 1612 0
49 -5172 5163 0
49 -5173 5164 0
49 -5174 5165 0
49 -5169 5163 0
49 -5170 5164 0
49 -5171 5165 0
49 -5169 -5172 5164 0
49 -5169 -5173 5165 0
49 -5169 -5174 5166 0
49 -5170 -5172 5165 0
49 -5170 -5173 5166 0
49 -5170 -5174 5167 0
49 -5171 -5172 5166 0
49 -5171 -5173 5167 0
49 -5171 -5174 5168 0
49 -1612 5172 0
49 -5175 5172 0
49 -5176 5173 0
49 -5175 -1612 5173 0
49 -5176 -1612 5174 0
49 -1611 5175 0
49 -1610 5175 0
49 -1610 -1611 5176 0
49 -1609 5169 0
49 -5177 5169 0
49 -5178 5170 0
49 -5177 -1609 5170 0
49 -5178 -1609 5171 0
49 -1608 5177 0
49 -1607 5177 0
49 -1607 -1608 5178 0
49 -5164 0
49 1613 1614 1615 1616 1617 1618 0
49 -5188 5179 0
49 -5189 5180 0
49 -5190 5181 0
49 -5185 5179 0
49 -5186 5180 0
49 -5187 5181 0
49 -5185 -5188 5180 0
49 -5185 -5189 5181 0
49 -5185 -5190 5182 0
49 -5186 -5188 5181 0
49 -5186 -5189 5182 0
49 -5186 -5190 5183 0
49 -5187 -5188 5182 0
49 -5187 -5189 5183 0
49 -5187 -5190 5184 0
49 -1618 5188 0
49 -5191 5188 0
49 -5192 5189 0
49 -5191 -1618 5189 0
49 -5192 -1618 5190 0
49 -1617 5191 0
49 -1616 5191 0
49 -1616 -1617 5192 0
49 -1615 5185 0
49 -5193 5185 0
49 -5194 5186 0
49 -5193 -1615 5186 0
49 -5194 -1615 5187 0
49 -1614 5193 0
49 -1613 5193 0
49 -1613 -1614 5194 0
49 -5180 0
49 1619 1620 1621 1622 1623 1624 1625 1626 0
49 -5207 5195 0
49 -5208 5196 0
49 -5209 5197 0
49 -5210 5198 0
49 -5203 5195 0
49 -5204 5196 0
49 -5205 5197 0
49 -5206 5198 0
49 -5203 -5207 5196 0
49 -5203 -5208 5197 0
49 -5203 -5209 5198 0
49 -5203 -5210 5199 0
49 -5204 -5207 5197 0
49 -5204 -5208 5198 0
49 -5204 -5209 5199 0
49 -5204 -5210 5200 0
49 -5205 -5207 5198 0
49 -5205 -5208 5199 0
49 -5205 -5209 5200 0
49 -5205 -5210 5201 0
49 -5206 -5207 5199 0
49 -5206 -5208 5200 0
49 -5206 -5209 5201 0
49 -5206 -5210 5202 0
49 -5213 5207 0
49 -5214 5208 0
49 -5211 5207 0
49 -5212 5208 0
49 -5211 -5213 5208 0
49 -5211 -5214 5209 0
49 -5212 -5213 5209 0
49 -5212 -5214 5210 0
49 -1626 5213 0
49 -1625 5213 0
49 -1625 -1626 5214 0
49 -1624 5211 0
49 -1623 5211 0
49 -1623 -1624 5212 0
49 -5217 5203 0
49 -5218 5204 0
49 -5215 5203 0
49 -5216 5204 0
49 -5215 -5217 5204 0
49 -5215 -5218 5205 0
49 -5216 -5217 5205 0
49 -5216 -5218 5206 0
49 -1622 5217 0
49 -1621 5217 0
49 -1621 -1622 5218 0
49 -1620 5215 0
49 -1619 5215 0
49 -1619 -1620 5216 0
49 -5196 0
49 1627 1628 1629 1630 1631 1632 1633 1634 0
49 -5231 5219 0
49 -5232 5220 0
49 -5233 5221 0
49 -5234 5222 0
49 -5227 5219 0
49 -5228 5220 0
49 -5229 5221 0
49 -5230 5222 0
49 -5227 -5231 5220 0
49 -5227 -5232 5221 0
49 -5227 -5233 5222 0
49 -5227 -5234 5223 0
49 -5228 -5231 5221 0
49 -5228 -5232 5222 0
49 -5228 -5233 5223 0
49 -5228 -5234 5224 0
49 -5229 -5231 5222 0
49 -5229 -5232 5223 0
49 -5229 -5233 5224 0
49 -5229 -5234 5225 0
49 -5230 -5231 5223 0
49 -5230 -5232 5224 0
49 -5230 -5233 5225 0
49 -5230 -5234 5226 0
49 -5237 5231 0
49 -5238 5232 0
49 -5235 5231 0
49 -5236 5232 0
49 -5235 -5237 5232 0
49 -5235 -5238 5233 0
49 -5236 -5237 5233 0
49 -5236 -5238 5234 0
49 -1634 5237 0
49 -1633 5237 0
49 -1633 -1634 5238 0
49 -1632 5235 0
49 -1631 5235 0
49 -1631 -1632 5236 0
49 -5241 5227 0
49 -5242 5228 0
49 -5239 5227 0
49 -5240 5228 0
49 -5239 -5241 5228 0
49 -5239 -5242 5229 0
49 -5240 -5241 5229 0
49 -5240 -5242 5230 0
49 -1630 5241 0
49 -1629 5241 0
49 -1629 -1630 5242 0
49 -1628 5239 0
49 -1627 5239 0
49 -1627 -1628 5240 0
49 -5220 0
49 1635 1636 1637 1638 1639 0
49 -5251 5243 0
49 -5252 5244 0
49 -5248 5243 0
49 -5249 5244 0
49 -5250 5245 0
49 -5248 -5251 5244 0
49 -5248 -5252 5245 0
49 -5249 -5251 5245 0
49 -5249 -5252 5246 0
49 -5250 -5251 5246 0
49 -5250 -5252 5247 0
49 -1639 5251 0
49 -1638 5251 0
49 -1638 -1639 5252 0
49 -1637 5248 0
49 -5253 5248 0
49 -5254 5249 0
49 -5253 -1637 5249 0
49 -5254 -1637 5250 0
49 -1636 5253 0
49 -1635 5253 0
49 -1635 -1636 5254 0
49 -5244 0
49 1640 1641 1642 1643 1644 0
49 -5263 5255 0
49 -5264 5256 0
49 -5260 5255 0
49 -5261 5256 0
49 -5262 5257 0
49 -5260 -5263 5256 0
49 -5260 -5264 5257 0
49 -5261 -5263 5257 0
49 -5261 -5264 5258 0
49 -5262 -5263 5258 0
49 -5262 -5264 5259 0
49 -1644 5263 0
49 -1643 5263 0
49 -1643 -1644 5264 0
49 -1642 5260 0
49 -5265 5260 0
49 -5266 5261 0
49 -5265 -1642 5261 0
49 -5266 -1642 5262 0
49 -1641 5265 0
49 -1640 5265 0
49 -1640 -1641 5266 0
49 -5256 0
49 1645 1646 1647 1648 1649 1650 1651 1652 1653 0
49 -5281 5267 0
49 -5282 5268 0
49 -5283 5269 0
49 -5284 5270 0
49 -5276 5267 0
49 -5277 5268 0
49 -5278 5269 0
49 -5279 5270 0
49 -5280 5271 0
49 -5276 -5281 5268 0
49 -5276 -5282 5269 0
49 -5276 -5283 5270 0
49 -5276 -5284 5271 0
49 -5277 -5281 5269 0
49 -5277 -5282 5270 0
49 -5277 -5283 5271 0
49 -5277 -5284 5272 0
49 -5278 -5281 5270 0
49 -5278 -5282 5271 0
49 -5278 -5283 5272 0
49 -5278 -5284 5273 0
49 -5279 -5281 5271 0
49 -5279 -5282 5272 0
49 -5279 -5283 5273 0
49 -5279 -5284 5274 0
49 -5280 -5281 5272 0
49 -5280 -5282 5273 0
49 -5280 -5283 5274 0
49 -5280 -5284 5275 0
49 -5287 5281 0
49 -5288 5282 0
49 -5285 5281 0
49 -5286 5282 0
49 -5285 -5287 5282 0
49 -5285 -5288 5283 0
49 -5286 -5287 5283 0
49 -5286 -5288 5284 0
49 -1653 5287 0
49 -1652 5287 0
49 -1652 -1653 5288 0
49 -1651 5285 0
49 -1650 5285 0
49 -1650 -1651 5286 0
49 -5292 5276 0
49 -5293 5277 0
49 -5289 5276 0
49 -5290 5277 0
49 -5291 5278 0
49 -5289 -5292 5277 0
49 -5289 -5293 5278 0
49 -5290 -5292 5278 0
49 -5290 -5293 5279 0
49 -5291 -5292 5279 0
49 -5291 -5293 5280 0
49 -1649 5292 0
49 -1648 5292 0
49 -1648 -1649 5293 0
49 -1647 5289 0
49 -5294 5289 0
49 -5295 5290 0
49 -5294 -1647 5290 0
49 -5295 -1647 5291 0
49 -1646 5294 0
49 -1645 5294 0
49 -1645 -1646 5295 0
49 -5268 0
49 1654 1655 1656 1657 1658 1659 1660 1661 1662 0
49 -5310 5296 0
49 -5311 5297 0
49 -5312 5298 0
49 -5313 5299 0
49 -5305 5296 0
49 -5306 5297 0
49 -5307 5298 0
49 -5308 5299 0
49 -5309 5300 0
49 -5305 -5310 5297 0
49 -5305 -5311 5298 0
49 -5305 -5312 5299 0
49 -5305 -5313 5300 0
49 -5306 -5310 5298 0
49 -5306 -5311 5299 0
49 -5306 -5312 5300 0
49 -5306 -5313 5301 0
49 -5307 -5310 5299 0
49 -5307 -5311 5300 0
49 -5307 -5312 5301 0
49 -5307 -5313 5302 0
49 -5308 -5310 5300 0
49 -5308 -5311 5301 0
49 -5308 -5312 5302 0
49 -5308 -5313 5303 0
49 -5309 -5310 5301 0
49 -5309 -5311 5302 0
49 -5309 -5312 5303 0
49 -5309 -5313 5304 0
49 -5316 5310 0
49 -5317 5311 0
49 -5314 5310 0
49 -5315 5311 0
49 -5314 -5316 5311 0
49 -5314 -5317 5312 0
49 -5315 -5316 5312 0
49 -5315 -5317 5313 0
49 -1662 5316 0
49 -1661 5316 0
49 -1661 -1662 5317 0
49 -1660 5314 0
49 -1659 5314 0
49 -1659 -1660 5315 0
49 -5321 5305 0
49 -5322 5306 0
49 -5318 5305 0
49 -5319 5306 0
49 -5320 5307 0
49 -5318 -5321 5306 0
49 -5318 -5322 5307 0
49 -5319 -5321 5307 0
49 -5319 -5322 5308 0
49 -5320 -5321 5308 0
49 -5320 -5322 5309 0
49 -1658 5321 0
49 -1657 5321 0
49 -1657 -1658 5322 0
49 -1656 5318 0
49 -5323 5318 0
49 -5324 5319 0
49 -5323 -1656 5319 0
49 -5324 -1656 5320 0
49 -1655 5323 0
49 -1654 5323 0
49 -1654 -1655 5324 0
49 -5297 0
49 1663 1664 1665 1666 1667 1668 1669 1670 1671 1672 1673 0
49 -5342 5325 0
49 -5343 5326 0
49 -5344 5327 0
49 -5345 5328 0
49 -5346 5329 0
49 -5336 5325 0
49 -5337 5326 0
49 -5338 5327 0
49 -5339 5328 0
49 -5340 5329 0
49 -5341 5330 0
49 -5336 -5342 5326 0
49 -5336 -5343 5327 0
49 -5336 -5344 5328 0
49 -5336 -5345 5329 0
49 -5336 -5346 5330 0
49 -5337 -5342 5327 0
49 -5337 -5343 5328 0
49 -5337 -5344 5329 0
49 -5337 -5345 5330 0
49 -5337 -5346 5331 0
49 -5338 -5342 5328 0
49 -5338 -5343 5329 0
49 -5338 -5344 5330 0
49 -5338 -5345 5331 0
49 -5338 -5346 5332 0
49 -5339 -5342 5329 0
49 -5339 -5343 5330 0
49 -5339 -5344 5331 0
49 -5339 -5345 5332 0
49 -5339 -5346 5333 0
49 -5340 -5342 5330 0
49 -5340 -5343 5331 0
49 -5340 -5344 5332 0
49 -5340 -5345 5333 0
49 -5340 -5346 5334 0
49 -5341 -5342 5331 0
49 -5341 -5343 5332 0
49 -5341 -5344 5333 0
49 -5341 -5345 5334 0
49 -5341 -5346 5335 0
49 -5350 5342 0
49 -5351 5343 0
49 -5347 5342 0
49 -5348 5343 0
49 -5349 5344 0
49 -5347 -5350 5343 0
49 -5347 -5351 5344 0
49 -5348 -5350 5344 0
49 -5348 -5351 5345 0
49 -5349 -5350 5345 0
49 -5349 -5351 5346 0
49 -1673 5350 0
49 -1672 5350 0
49 -1672 -1673 5351 0
49 -1671 5347 0
49 -5352 5347 0
49 -5353 5348 0
49 -5352 -1671 5348 0
49 -5353 -1671 5349 0
49 -1670 5352 0
49 -1669 5352 0
49 -1669 -1670 5353 0
49 -5357 5336 0
49 -5358 5337 0
49 -5359 5338 0
49 -5354 5336 0
49 -5355 5337 0
49 -5356 5338 0
49 -5354 -5357 5337 0
49 -5354 -5358 5338 0
49 -5354 -5359 5339 0
49 -5355 -5357 5338 0
49 -5355 -5358 5339 0
49 -5355 -5359 5340 0
49 -5356 -5357 5339 0
49 -5356 -5358 5340 0
49 -5356 -5359 5341 0
49 -1668 5357 0
49 -5360 5357 0
49 -5361 5358 0
49 -5360 -1668 5358 0
49 -5361 -1668 5359 0
49 -1667 5360 0
49 -1666 5360 0
49 -1666 -1667 5361 0
49 -1665 5354 0
49 -5362 5354 0
49 -5363 5355 0
49 -5362 -1665 5355 0
49 -5363 -1665 5356 0
49 -1664 5362 0
49 -1663 5362 0
49 -1663 -1664 5363 0
49 -5326 0
49 1674 1675 1676 1677 1678 1679 1680 1681 1682 1683 1684 0
49 -5381 5364 0
49 -5382 5365 0
49 -5383 5366 0
49 -5384 5367 0
49 -5385 5368 0
49 -5375 5364 0
49 -5376 5365 0
49 -5377 5366 0
49 -5378 5367 0
49 -5379 5368 0
49 -5380 5369 0
49 -5375 -5381 5365 0
49 -5375 -5382 5366 0
49 -5375 -5383 5367 0
49 -5375 -5384 5368 0
49 -5375 -5385 5369 0
49 -5376 -5381 5366 0
49 -5376 -5382 5367 0
49 -5376 -5383 5368 0
49 -5376 -5384 5369 0
49 -5376 -5385 5370 0
49 -5377 -5381 5367 0
49 -5377 -5382 5368 0
49 -5377 -5383 5369 0
49 -5377 -5384 5370 0
49 -5377 -5385 5371 0
49 -5378 -5381 5368 0
49 -5378 -5382 5369 0
49 -5378 -5383 5370 0
49 -5378 -5384 5371 0
49 -5378 -5385 5372 0
49 -5379 -5381 5369 0
49 -5379 -5382 5370 0
49 -5379 -5383 5371 0
49 -5379 -5384 5372 0
49 -5379 -5385 5373 0
49 -5380 -5381 5370 0
49 -5380 -5382 5371 0
49 -5380 -5383 5372 0
49 -5380 -5384 5373 0
49 -5380 -5385 5374 0
49 -5389 5381 0
49 -5390 5382 0
49 -5386 5381 0
49 -5387 5382 0
49 -5388 5383 0
49 -5386 -5389 5382 0
49 -5386 -5390 5383 0
49 -5387 -5389 5383 0
49 -5387 -5390 5384 0
49 -5388 -5389 5384 0
49 -5388 -5390 5385 0
49 -1684 5389 0
49 -1683 5389 0
49 -1683 -1684 5390 0
49 -1682 5386 0
49 -5391 5386 0
49 -5392 5387 0
49 -5391 -1682 5387 0
49 -5392 -1682 5388 0
49 -1681 5391 0
49 -1680 5391 0
49 -1680 -1681 5392 0
49 -5396 5375 0
49 -5397 5376 0
49 -5398 5377 0
49 -5393 5375 0
49 -5394 5376 0
49 -5395 5377 0
49 -5393 -5396 5376 0
49 -5393 -5397 5377 0
49 -5393 -5398 5378 0
49 -5394 -5396 5377 0
49 -5394 -5397 5378 0
49 -5394 -5398 5379 0
49 -5395 -5396 5378 0
49 -5395 -5397 5379 0
49 -5395 -5398 5380 0
49 -1679 5396 0
49 -5399 5396 0
49 -5400 5397 0
49 -5399 -1679 5397 0
49 -5400 -1679 5398 0
49 -1678 5399 0
49 -1677 5399 0
49 -1677 -1678 5400 0
49 -1676 5393 0
49 -5401 5393 0
49 -5402 5394 0
49 -5401 -1676 5394 0
49 -5402 -1676 5395 0
49 -1675 5401 0
49 -1674 5401 0
49 -1674 -1675 5402 0
49 -5365 0
49 1685 1686 1687 1688 0
49 -5409 5403 0
49 -5410 5404 0
49 -5407 5403 0
49 -5408 5404 0
49 -5407 -5409 5404 0
49 -5407 -5410 5405 0
49 -5408 -5409 5405 0
49 -5408 -5410 5406 0
49 -1688 5409 0
49 -1687 5409 0
49 -1687 -1688 5410 0
49 -1686 5407 0
49 -1685 5407 0
49 -1685 -1686 5408 0
49 -5404 0
49 1689 1690 1691 1692 0
49 -5417 5411 0
49 -5418 5412 0
49 -5415 5411 0
49 -5416 5412 0
49 -5415 -5417 5412 0
49 -5415 -5418 5413 0
49 -5416 -5417 5413 0
49 -5416 -5418 5414 0
49 -1692 5417 0
49 -1691 5417 0
49 -1691 -1692 5418 0
49 -1690 5415 0
49 -1689 5415 0
49 -1689 -1690 5416 0
49 -5412 0
49 1693 0
49 1694 0
49 1695 1696 1697 0
49 -1697 5419 0
49 -5422 5419 0
49 -5423 5420 0
49 -5422 -1697 5420 0
49 -5423 -1697 5421 0
49 -1696 5422 0
49 -1695 5422 0
49 -1695 -1696 5423 0
49 -5420 0
49 1698 1699 1700 0
49 -1700 5424 0
49 -5427 5424 0
49 -5428 5425 0
49 -5427 -1700 5425 0
49 -5428 -1700 5426 0
49 -1699 5427 0
49 -1698 5427 0
49 -1698 -1699 5428 0
49 -5425 0
49 1701 1702 1703 1704 0
49 -5435 5429 0
49 -5436 5430 0
49 -5433 5429 0
49 -5434 5430 0
49 -5433 -5435 5430 0
49 -5433 -5436 5431 0
49 -5434 -5435 5431 0
49 -5434 -5436 5432 0
49 -1704 5435 0
49 -1703 5435 0
49 -1703 -1704 5436 0
49 -1702 5433 0
49 -1701 5433 0
49 -1701 -1702 5434 0
49 -5430 0
49 1705 1706 1707 1708 0
49 -5443 5437 0
49 -5444 5438 0
49 -5441 5437 0
49 -5442 5438 0
49 -5441 -5443 5438 0
49 -5441 -5444 5439 0
49 -5442 -5443 5439 0
49 -5442 -5444 5440 0
49 -1708 5443 0
49 -1707 5443 0
49 -1707 -1708 5444 0
49 -1706 5441 0
49 -1705 5441 0
49 -1705 -1706 5442 0
49 -5438 0
49 1709 1710 1711 0
49 -1711 5445 0
49 -5448 5445 0
49 -5449 5446 0
49 -5448 -1711 5446 0
49 -5449 -1711 5447 0
49 -1710 5448 0
49 -1709 5448 0
49 -1709 -1710 5449 0
49 -5446 0
49 1712 1713 1714 0
49 -1714 5450 0
49 -5453 5450 0
49 -5454 5451 0
49 -5453 -1714 5451 0
49 -5454 -1714 5452 0
49 -1713 5453 0
49 -1712 5453 0
49 -1712 -1713 5454 0
49 -5451 0
49 1715 1716 1717 1718 1719 0
49 -5463 5455 0
49 -5464 5456 0
49 -5460 5455 0
49 -5461 5456 0
49 -5462 5457 0
49 -5460 -5463 5456 0
49 -5460 -5464 5457 0
49 -5461 -5463 5457 0
49 -5461 -5464 5458 0
49 -5462 -5463 5458 0
49 -5462 -5464 5459 0
49 -1719 5463 0
49 -1718 5463 0
49 -1718 -1719 5464 0
49 -1717 5460 0
49 -5465 5460 0
49 -5466 5461 0
49 -5465 -1717 5461 0
49 -5466 -1717 5462 0
49 -1716 5465 0
49 -1715 5465 0
49 -1715 -1716 5466 0
49 -5456 0
49 1720 1721 1722 1723 1724 0
49 -5475 5467 0
49 -5476 5468 0
49 -5472 5467 0
49 -5473 5468 0
49 -5474 5469 0
49 -5472 -5475 5468 0
49 -5472 -5476 5469 0
49 -5473 -5475 5469 0
49 -5473 -5476 5470 0
49 -5474 -5475 5470 0
49 -5474 -5476 5471 0
49 -1724 5475 0
49 -1723 5475 0
49 -1723 -1724 5476 0
49 -1722 5472 0
49 -5477 5472 0
49 -5478 5473 0
49 -5477 -1722 5473 0
49 -5478 -1722 5474 0
49 -1721 5477 0
49 -1720 5477 0
49 -1720 -1721 5478 0
49 -5468 0
49 1725 0
49 1726 0
49 1727 1728 1729 1730 1731 1732 1733 1734 1735 0
49 -5493 5479 0
49 -5494 5480 0
49 -5495 5481 0
49 -5496 5482 0
49 -5488 5479 0
49 -5489 5480 0
49 -5490 5481 0
49 -5491 5482 0
49 -5492 5483 0
49 -5488 -5493 5480 0
49 -5488 -5494 5481 0
49 -5488 -5495 5482 0
49 -5488 -5496 5483 0
49 -5489 -5493 5481 0
49 -5489 -5494 5482 0
49 -5489 -5495 5483 0
49 -5489 -5496 5484 0
49 -5490 -5493 5482 0
49 -5490 -5494 5483 0
49 -5490 -5495 5484 0
49 -5490 -5496 5485 0
49 -5491 -5493 5483 0
49 -5491 -5494 5484 0
49 -5491 -5495 5485 0
49 -5491 -5496 5486 0
49 -5492 -5493 5484 0
49 -5492 -5494 5485 0
49 -5492 -5495 5486 0
49 -5492 -5496 5487 0
49 -5499 5493 0
49 -5500 5494 0
49 -5497 5493 0
49 -5498 5494 0
49 -5497 -5499 5494 0
49 -5497 -5500 5495 0
49 -5498 -5499 5495 0
49 -5498 -5500 5496 0
49 -1735 5499 0
49 -1734 5499 0
49 -1734 -1735 5500 0
49 -1733 5497 0
49 -1732 5497 0
49 -1732 -1733 5498 0
49 -5504 5488 0
49 -5505 5489 0
49 -5501 5488 0
49 -5502 5489 0
49 -5503 5490 0
49 -5501 -5504 5489 0
49 -5501 -5505 5490 0
49 -5502 -5504 5490 0
49 -5502 -5505 5491 0
49 -5503 -5504 5491 0
49 -5503 -5505 5492 0
49 -1731 5504 0
49 -1730 5504 0
49 -1730 -1731 5505 0
49 -1729 5501 0
49 -5506 5501 0
49 -5507 5502 0
49 -5506 -1729 5502 0
49 -5507 -1729 5503 0
49 -1728 5506 0
49 -1727 5506 0
49 -1727 -1728 5507 0
49 -5480 0
49 1736 1737 1738 1739 1740 1741 1742 1743 1744 0
49 -5522 5508 0
49 -5523 5509 0
49 -5524 5510 0
49 -5525 5511 0
49 -5517 5508 0
49 -5518 5509 0
49 -5519 5510 0
49 -5520 5511 0
49 -5521 5512 0
49 -5517 -5522 5509 0
49 -5517 -5523 5510 0
49 -5517 -5524 5511 0
49 -5517 -5525 5512 0
49 -5518 -5522 5510 0
49 -5518 -5523 5511 0
49 -5518 -5524 5512 0
49 -5518 -5525 5513 0
49 -5519 -5522 5511 0
49 -5519 -5523 5512 0
49 -5519 -5524 5513 0
49 -5519 -5525 5514 0
49 -5520 -5522 5512 0
49 -5520 -5523 5513 0
49 -5520 -5524 5514 0
49 -5520 -5525 5515 0
49 -5521 -5522 5513 0
49 -5521 -5523 5514 0
49 -5521 -5524 5515 0
49 -5521 -5525 5516 0
49 -5528 5522 0
49 -5529 5523 0
49 -5526 5522 0
49 -5527 5523 0
49 -5526 -5528 5523 0
49 -5526 -5529 5524 0
49 -5527 -5528 5524 0
49 -5527 -5529 5525 0
49 -1744 5528 0
49 -1743 5528 0
49 -1743 -1744 5529 0
49 -1742 5526 0
49 -1741 5526 0
49 -1741 -1742 5527 0
49 -5533 5517 0
49 -5534 5518 0
49 -5530 5517 0
49 -5531 5518 0
49 -5532 5519 0
49 -5530 -5533 5518 0
49 -5530 -5534 5519 0
49 -5531 -5533 5519 0
49 -5531 -5534 5520 0
49 -5532 -5533 5520 0
49 -5532 -5534 5521 0
49 -1740 5533 0
49 -1739 5533 0
49 -1739 -1740 5534 0
49 -1738 5530 0
49 -5535 5530 0
49 -5536 5531 0
49 -5535 -1738 5531 0
49 -5536 -1738 5532 0
49 -1737 5535 0
49 -1736 5535 0
49 -1736 -1737 5536 0
49 -5509 0
49 1745 1746 1747 1748 0
49 -5543 5537 0
49 -5544 5538 0
49 -5541 5537 0
49 -5542 5538 0
49 -5541 -5543 5538 0
49 -5541 -5544 5539 0
49 -5542 -5543 5539 0
49 -5542 -5544 5540 0
49 -1748 5543 0
49 -1747 5543 0
49 -1747 -1748 5544 0
49 -1746 5541 0
49 -1745 5541 0
49 -1745 -1746 5542 0
49 -5538 0
49 1749 1750 1751 1752 0
49 -5551 5545 0
49 -5552 5546 0
49 -5549 5545 0
49 -5550 5546 0
49 -5549 -5551 5546 0
49 -5549 -5552 5547 0
49 -5550 -5551 5547 0
49 -5550 -5552 5548 0
49 -1752 5551 0
49 -1751 5551 0
49 -1751 -1752 5552 0
49 -1750 5549 0
49 -1749 5549 0
49 -1749 -1750 5550 0
49 -5546 0
49 1753 1754 1755 0
49 -1755 5553 0
49 -5556 5553 0
49 -5557 5554 0
49 -5556 -1755 5554 0
49 -5557 -1755 5555 0
49 -1754 5556 0
49 -1753 5556 0
49 -1753 -1754 5557 0
49 -5554 0
49 1756 1757 1758 0
49 -1758 5558 0
49 -5561 5558 0
49 -5562 5559 0
49 -5561 -1758 5559 0
49 -5562 -1758 5560 0
49 -1757 5561 0
49 -1756 5561 0
49 -1756 -1757 5562 0
49 -5559 0
49 1759 1760 1761 1762 1763 1764 1765 1766 0
49 -5575 5563 0
49 -5576 5564 0
49 -5577 5565 0
49 -5578 5566 0
49 -5571 5563 0
49 -5572 5564 0
49 -5573 5565 0
49 -5574 5566 0
49 -5571 -5575 5564 0
49 -5571 -5576 5565 0
49 -5571 -5577 5566 0
49 -5571 -5578 5567 0
49 -5572 -5575 5565 0
49 -5572 -5576 5566 0
49 -5572 -5577 5567 0
49 -5572 -5578 5568 0
49 -5573 -5575 5566 0
49 -5573 -5576 5567 0
49 -5573 -5577 5568 0
49 -5573 -5578 5569 0
49 -5574 -5575 5567 0
49 -5574 -5576 5568 0
49 -5574 -5577 5569 0
49 -5574 -5578 5570 0
49 -5581 5575 0
49 -5582 5576 0
49 -5579 5575 0
49 -5580 5576 0
49 -5579 -5581 5576 0
49 -5579 -5582 5577 0
49 -5580 -5581 5577 0
49 -5580 -5582 5578 0
49 -1766 5581 0
49 -1765 5581 0
49 -1765 -1766 5582 0
49 -1764 5579 0
49 -1763 5579 0
49 -1763 -1764 5580 0
49 -5585 5571 0
49 -5586 5572 0
49 -5583 5571 0
49 -5584 5572 0
49 -5583 -5585 5572 0
49 -5583 -5586 5573 0
49 -5584 -5585 5573 0
49 -5584 -5586 5574 0
49 -1762 5585 0
49 -1761 5585 0
49 -1761 -1762 5586 0
49 -1760 5583 0
49 -1759 5583 0
49 -1759 -1760 5584 0
49 -5564 0
49 1767 1768 1769 1770 1771 1772 1773 1774 0
49 -5599 5587 0
49 -5600 5588 0
49 -5601 5589 0
49 -5602 5590 0
49 -5595 5587 0
49 -5596 5588 0
49 -5597 5589 0
49 -5598 5590 0
49 -5595 -5599 5588 0
49 -5595 -5600 5589 0
49 -5595 -5601 5590 0
49 -5595 -5602 5591 0
49 -5596 -5599 5589 0
49 -5596 -5600 5590 0
49 -5596 -5601 5591 0
49 -5596 -5602 5592 0
49 -5597 -5599 5590 0
49 -5597 -5600 5591 0
49 -5597 -5601 5592 0
49 -5597 -5602 5593 0
49 -5598 -5599 5591 0
49 -5598 -5600 5592 0
49 -5598 -5601 5593 0
49 -5598 -5602 5594 0
49 -5605 5599 0
49 -5606 5600 0
49 -5603 5599 0
49 -5604 5600 0
49 -5603 -5605 5600 0
49 -5603 -5606 5601 0
49 -5604 -5605 5601 0
49 -5604 -5606 5602 0
49 -1774 5605 0
49 -1773 5605 0
49 -1773 -1774 5606 0
49 -1772 5603 0
49 -1771 5603 0
49 -1771 -1772 5604 0
49 -5609 5595 0
49 -5610 5596 0
49 -5607 5595 0
49 -5608 5596 0
49 -5607 -5609 5596 0
49 -5607 -5610 5597 0
49 -5608 -5609 5597 0
49 -5608 -5610 5598 0
49 -1770 5609 0
49 -1769 5609 0
49 -1769 -1770 5610 0
49 -1768 5607 0
49 -1767 5607 0
49 -1767 -1768 5608 0
49 -5588 0
49 1775 1776 1777 1778 1779 1780 1781 1782 0
49 -5623 5611 0
49 -5624 5612 0
49 -5625 5613 0
49 -5626 5614 0
49 -5619 5611 0
49 -5620 5612 0
49 -5621 5613 0
49 -5622 5614 0
49 -5619 -5623 5612 0
49 -5619 -5624 5613 0
49 -5619 -5625 5614 0
49 -5619 -5626 5615 0
49 -5620 -5623 5613 0
49 -5620 -5624 5614 0
49 -5620 -5625 5615 0
49 -5620 -5626 5616 0
49 -5621 -5623 5614 0
49 -5621 -5624 5615 0
49 -5621 -5625 5616 0
49 -5621 -5626 5617 0
49 -5622 -5623 5615 0
49 -5622 -5624 5616 0
49 -5622 -5625 5617 0
49 -5622 -5626 5618 0
49 -5629 5623 0
49 -5630 5624 0
49 -5627 5623 0
49 -5628 5624 0
49 -5627 -5629 5624 0
49 -5627 -5630 5625 0
49 -5628 -5629 5625 0
49 -5628 -5630 5626 0
49 -1782 5629 0
49 -1781 5629 0
49 -1781 -1782 5630 0
49 -1780 5627 0
49 -1779 5627 0
49 -1779 -1780 5628 0
49 -5633 5619 0
49 -5634 5620 0
49 -5631 5619 0
49 -5632 5620 0
49 -5631 -5633 5620 0
49 -5631 -5634 5621 0
49 -5632 -5633 5621 0
49 -5632 -5634 5622 0
49 -1778 5633 0
49 -1777 5633 0
49 -1777 -1778 5634 0
49 -1776 5631 0
49 -1775 5631 0
49 -1775 -1776 5632 0
49 -5612 0
49 1783 1784 1785 1786 1787 1788 1789 1790 0
49 -5647 5635 0
49 -5648 5636 0
49 -5649 5637 0
49 -5650 5638 0
49 -5643 5635 0
49 -5644 5636 0
49 -5645 5637 0
49 -5646 5638 0
49 -5643 -5647 5636 0
49 -5643 -5648 5637 0
49 -5643 -5649 5638 0
49 -5643 -5650 5639 0
49 -5644 -5647 5637 0
49 -5644 -5648 5638 0
49 -5644 -5649 5639 0
49 -5644 -5650 5640 0
49 -5645 -5647 5638 0
49 -5645 -5648 5639 0
49 -5645 -5649 5640 0
49 -5645 -5650 5641 0
49 -5646 -5647 5639 0
49 -5646 -5648 5640 0
49 -5646 -5649 5641 0
49 -5646 -5650 5642 0
49 -5653 5647 0
49 -5654 5648 0
49 -5651 5647 0
49 -5652 5648 0
49 -5651 -5653 5648 0
49 -5651 -5654 5649 0
49 -5652 -5653 5649 0
49 -5652 -5654 5650 0
49 -1790 5653 0
49 -1789 5653 0
49 -1789 -1790 5654 0
49 -1788 5651 0
49 -1787 5651 0
49 -1787 -1788 5652 0
49 -5657 5643 0
49 -5658 5644 0
49 -5655 5643 0
49 -5656 5644 0
49 -5655 -5657 5644 0
49 -5655 -5658 5645 0
49 -5656 -5657 5645 0
49 -5656 -5658 5646 0
49 -1786 5657 0
49 -1785 5657 0
49 -1785 -1786 5658 0
49 -1784 5655 0
49 -1783 5655 0
49 -1783 -1784 5656 0
49 -5636 0
49 1791 1792 0
49 -1791 -1792 0
49 1793 1794 0
49 -1793 -1794 0
49 1795 1796 1797 1798 0
49 -5665 5659 0
49 -5666 5660 0
49 -5663 5659 0
49 -5664 5660 0
49 -5663 -5665 5660 0
49 -5663 -5666 5661 0
49 -5664 -5665 5661 0
49 -5664 -5666 5662 0
49 -1798 5665 0
49 -1797 5665 0
49 -1797 -1798 5666 0
49 -1796 5663 0
49 -1795 5663 0
49 -1795 -1796 5664 0
49 -5660 0
49 1799 1800 1801 1802 0
49 -5673 5667 0
49 -5674 5668 0
49 -5671 5667 0
49 -5672 5668 0
49 -5671 -5673 5668 0
49 -5671 -5674 5669 0
49 -5672 -5673 5669 0
49 -5672 -5674 5670 0
49 -1802 5673 0
49 -1801 5673 0
49 -1801 -1802 5674 0
49 -1800 5671 0
49 -1799 5671 0
49 -1799 -1800 5672 0
49 -5668 0
49 1803 1804 1805 1806 1807 1808 1809 1810 0
49 -5687 5675 0
49 -5688 5676 0
49 -5689 5677 0
49 -5690 5678 0
49 -5683 5675 0
49 -5684 5676 0
49 -5685 5677 0
49 -5686 5678 0
49 -5683 -5687 5676 0
49 -5683 -5688 5677 0
49 -5683 -5689 5678 0
49 -5683 -5690 5679 0
49 -5684 -5687 5677 0
49 -5684 -5688 5678 0
49 -5684 -5689 5679 0
49 -5684 -5690 5680 0
49 -5685 -5687 5678 0
49 -5685 -5688 5679 0
49 -5685 -5689 5680 0
49 -5685 -5690 5681 0
49 -5686 -5687 5679 0
49 -5686 -5688 5680 0
49 -5686 -5689 5681 0
49 -5686 -5690 5682 0
49 -5693 5687 0
49 -5694 5688 0
49 -5691 5687 0
49 -5692 5688 0
49 -5691 -5693 5688 0
49 -5691 -5694 5689 0
49 -5692 -5693 5689 0
49 -5692 -5694 5690 0
49 -1810 5693 0
49 -1809 5693 0
49 -1809 -1810 5694 0
49 -1808 5691 0
49 -1807 5691 0
49 -1807 -1808 5692 0
49 -5697 5683 0
49 -5698 5684 0
49 -5695 5683 0
49 -5696 5684 0
49 -5695 -5697 5684 0
49 -5695 -5698 5685 0
49 -5696 -5697 5685 0
49 -5696 -5698 5686 0
49 -1806 5697 0
49 -1805 5697 0
49 -1805 -1806 5698 0
49 -1804 5695 0
49 -1803 5695 0
49 -1803 -1804 5696 0
49 -5676 0
49 1811 1812 1813 1814 1815 1816 1817 1818 0
49 -5711 5699 0
49 -5712 5700 0
49 -5713 5701 0
49 -5714 5702 0
49 -5707 5699 0
49 -5708 5700 0
49 -5709 5701 0
49 -5710 5702 0
49 -5707 -5711 5700 0
49 -5707 -5712 5701 0
49 -5707 -5713 5702 0
49 -5707 -5714 5703 0
49 -5708 -5711 5701 0
49 -5708 -5712 5702 0
49 -5708 -5713 5703 0
49 -5708 -5714 5704 0
49 -5709 -5711 5702 0
49 -5709 -5712 5703 0
49 -5709 -5713 5704 0
49 -5709 -5714 5705 0
49 -5710 -5711 5703 0
49 -5710 -5712 5704 0
49 -5710 -5713 5705 0
49 -5710 -5714 5706 0
49 -5717 5711 0
49 -5718 5712 0
49 -5715 5711 0
49 -5716 5712 0
49 -5715 -5717 5712 0
49 -5715 -5718 5713 0
49 -5716 -5717 5713 0
49 -5716 -5718 5714 0
49 -1818 5717 0
49 -1817 5717 0
49 -1817 -1818 5718 0
49 -1816 5715 0
49 -1815 5715 0
49 -1815 -1816 5716 0
49 -5721 5707 0
49 -5722 5708 0
49 -5719 5707 0
49 -5720 5708 0
49 -5719 -5721 5708 0
49 -5719 -5722 5709 0
49 -5720 -5721 5709 0
49 -5720 -5722 5710 0
49 -1814 5721 0
49 -1813 5721 0
49 -1813 -1814 5722 0
49 -1812 5719 0
49 -1811 5719 0
49 -1811 -1812 5720 0
49 -5700 0
49 1819 1820 1821 1822 1823 1824 1825 1826 0
49 -5735 5723 0
49 -5736 5724 0
49 -5737 5725 0
49 -5738 5726 0
49 -5731 5723 0
49 -5732 5724 0
49 -5733 5725 0
49 -5734 5726 0
49 -5731 -5735 5724 0
49 -5731 -5736 5725 0
49 -5731 -5737 5726 0
49 -5731 -5738 5727 0
49 -5732 -5735 5725 0
49 -5732 -5736 5726 0
49 -5732 -5737 5727 0
49 -5732 -5738 5728 0
49 -5733 -5735 5726 0
49 -5733 -5736 5727 0
49 -5733 -5737 5728 0
49 -5733 -5738 5729 0
49 -5734 -5735 5727 0
49 -5734 -5736 5728 0
49 -5734 -5737 5729 0
49 -5734 -5738 5730 0
49 -5741 5735 0
49 -5742 5736 0
49 -5739 5735 0
49 -5740 5736 0
49 -5739 -5741 5736 0
49 -5739 -5742 5737 0
49 -5740 -5741 5737 0
49 -5740 -5742 5738 0
49 -1826 5741 0
49 -1825 5741 0
49 -1825 -1826 5742 0
49 -1824 5739 0
49 -1823 5739 0
49 -1823 -1824 5740 0
49 -5745 5731 0
49 -5746 5732 0
49 -5743 5731 0
49 -5744 5732 0
49 -5743 -5745 5732 0
49 -5743 -5746 5733 0
49 -5744 -5745 5733 0
49 -5744 -5746 5734 0
49 -1822 5745 0
49 -1821 5745 0
49 -1821 -1822 5746 0
49 -1820 5743 0
49 -1819 5743 0
49 -1819 -1820 5744 0
49 -5724 0
49 1827 1828 1829 1830 1831 1832 1833 1834 0
49 -5759 5747 0
49 -5760 5748 0
49 -5761 5749 0
49 -5762 5750 0
49 -5755 5747 0
49 -5756 5748 0
49 -5757 5749 0
49 -5758 5750 0
49 -5755 -5759 5748 0
49 -5755 -5760 5749 0
49 -5755 -5761 5750 0
49 -5755 -5762 5751 0
49 -5756 -5759 5749 0
49 -5756 -5760 5750 0
49 -5756 -5761 5751 0
49 -5756 -5762 5752 0
49 -5757 -5759 5750 0
49 -5757 -5760 5751 0
49 -5757 -5761 5752 0
49 -5757 -5762 5753 0
49 -5758 -5759 5751 0
49 -5758 -5760 5752 0
49 -5758 -5761 5753 0
49 -5758 -5762 5754 0
49 -5765 5759 0
49 -5766 5760 0
49 -5763 5759 0
49 -5764 5760 0
49 -5763 -5765 5760 0
49 -5763 -5766 5761 0
49 -5764 -5765 5761 0
49 -5764 -5766 5762 0
49 -1834 5765 0
49 -1833 5765 0
49 -1833 -1834 5766 0
49 -1832 5763 0
49 -1831 5763 0
49 -1831 -1832 5764 0
49 -5769 5755 0
49 -5770 5756 0
49 -5767 5755 0
49 -5768 5756 0
49 -5767 -5769 5756 0
49 -5767 -5770 5757 0
49 -5768 -5769 5757 0
49 -5768 -5770 5758 0
49 -1830 5769 0
49 -1829 5769 0
49 -1829 -1830 5770 0
49 -1828 5767 0
49 -1827 5767 0
49 -1827 -1828 5768 0
49 -5748 0
49 1835 1836 1837 1838 1839 1840 1841 1842 0
49 -5783 5771 0
49 -5784 5772 0
49 -5785 5773 0
49 -5786 5774 0
49 -5779 5771 0
49 -5780 5772 0
49 -5781 5773 0
49 -5782 5774 0
49 -5779 -5783 5772 0
49 -5779 -5784 5773 0
49 -5779 -5785 5774 0
49 -5779 -5786 5775 0
49 -5780 -5783 5773 0
49 -5780 -5784 5774 0
49 -5780 -5785 5775 0
49 -5780 -5786 5776 0
49 -5781 -5783 5774 0
49 -5781 -5784 5775 0
49 -5781 -5785 5776 0
49 -5781 -5786 5777 0
49 -5782 -5783 5775 0
49 -5782 -5784 5776 0
49 -5782 -5785 5777 0
49 -5782 -5786 5778 0
49 -5789 5783 0
49 -5790 5784 0
49 -5787 5783 0
49 -5788 5784 0
49 -5787 -5789 5784 0
49 -5787 -5790 5785 0
49 -5788 -5789 5785 0
49 -5788 -5790 5786 0
49 -1842 5789 0
49 -1841 5789 0
49 -1841 -1842 5790 0
49 -1840 5787 0
49 -1839 5787 0
49 -1839 -1840 5788 0
49 -5793 5779 0
49 -5794 5780 0
49 -5791 5779 0
49 -5792 5780 0
49 -5791 -5793 5780 0
49 -5791 -5794 5781 0
49 -5792 -5793 5781 0
49 -5792 -5794 5782 0
49 -1838 5793 0
49 -1837 5793 0
49 -1837 -1838 5794 0
49 -1836 5791 0
49 -1835 5791 0
49 -1835 -1836 5792 0
49 -5772 0
49 1843 1844 1845 1846 1847 1848 1849 1850 0
49 -5807 5795 0
49 -5808 5796 0
49 -5809 5797 0
49 -5810 5798 0
49 -5803 5795 0
49 -5804 5796 0
49 -5805 5797 0
49 -5806 5798 0
49 -5803 -5807 5796 0
49 -5803 -5808 5797 0
49 -5803 -5809 5798 0
49 -5803 -5810 5799 0
49 -5804 -5807 5797 0
49 -5804 -5808 5798 0
49 -5804 -5809 5799 0
49 -5804 -5810 5800 0
49 -5805 -5807 5798 0
49 -5805 -5808 5799 0
49 -5805 -5809 5800 0
49 -5805 -5810 5801 0
49 -5806 -5807 5799 0
49 -5806 -5808 5800 0
49 -5806 -5809 5801 0
49 -5806 -5810 5802 0
49 -5813 5807 0
49 -5814 5808 0
49 -5811 5807 0
49 -5812 5808 0
49 -5811 -5813 5808 0
49 -5811 -5814 5809 0
49 -5812 -5813 5809 0
49 -5812 -5814 5810 0
49 -1850 5813 0
49 -1849 5813 0
49 -1849 -1850 5814 0
49 -1848 5811 0
49 -1847 5811 0
49 -1847 -1848 5812 0
49 -5817 5803 0
49 -5818 5804 0
49 -5815 5803 0
49 -5816 5804 0
49 -5815 -5817 5804 0
49 -5815 -5818 5805 0
49 -5816 -5817 5805 0
49 -5816 -5818 5806 0
49 -1846 5817 0
49 -1845 5817 0
49 -1845 -1846 5818 0
49 -1844 5815 0
49 -1843 5815 0
49 -1843 -1844 5816 0
49 -5796 0
49 1851 1852 1853 1854 1855 1856 1857 1858 1859 1860 0
49 -5834 5819 0
49 -5835 5820 0
49 -5836 5821 0
49 -5837 5822 0
49 -5838 5823 0
49 -5829 5819 0
49 -5830 5820 0
49 -5831 5821 0
49 -5832 5822 0
49 -5833 5823 0
49 -5829 -5834 5820 0
49 -5829 -5835 5821 0
49 -5829 -5836 5822 0
49 -5829 -5837 5823 0
49 -5829 -5838 5824 0
49 -5830 -5834 5821 0
49 -5830 -5835 5822 0
49 -5830 -5836 5823 0
49 -5830 -5837 5824 0
49 -5830 -5838 5825 0
49 -5831 -5834 5822 0
49 -5831 -5835 5823 0
49 -5831 -5836 5824 0
49 -5831 -5837 5825 0
49 -5831 -5838 5826 0
49 -5832 -5834 5823 0
49 -5832 -5835 5824 0
49 -5832 -5836 5825 0
49 -5832 -5837 5826 0
49 -5832 -5838 5827 0
49 -5833 -5834 5824 0
49 -5833 -5835 5825 0
49 -5833 -5836 5826 0
49 -5833 -5837 5827 0
49 -5833 -5838 5828 0
49 -5842 5834 0
49 -5843 5835 0
49 -5839 5834 0
49 -5840 5835 0
49 -5841 5836 0
49 -5839 -5842 5835 0
49 -5839 -5843 5836 0
49 -5840 -5842 5836 0
49 -5840 -5843 5837 0
49 -5841 -5842 5837 0
49 -5841 -5843 5838 0
49 -1860 5842 0
49 -1859 5842 0
49 -1859 -1860 5843 0
49 -1858 5839 0
49 -5844 5839 0
49 -5845 5840 0
49 -5844 -1858 5840 0
49 -5845 -1858 5841 0
49 -1857 5844 0
49 -1856 5844 0
49 -1856 -1857 5845 0
49 -5849 5829 0
49 -5850 5830 0
49 -5846 5829 0
49 -5847 5830 0
49 -5848 5831 0
49 -5846 -5849 5830 0
49 -5846 -5850 5831 0
49 -5847 -5849 5831 0
49 -5847 -5850 5832 0
49 -5848 -5849 5832 0
49 -5848 -5850 5833 0
49 -1855 5849 0
49 -1854 5849 0
49 -1854 -1855 5850 0
49 -1853 5846 0
49 -5851 5846 0
49 -5852 5847 0
49 -5851 -1853 5847 0
49 -5852 -1853 5848 0
49 -1852 5851 0
49 -1851 5851 0
49 -1851 -1852 5852 0
49 -5820 0
49 1861 1862 1863 1864 1865 1866 1867 1868 1869 1870 0
49 -5868 5853 0
49 -5869 5854 0
49 -5870 5855 0
49 -5871 5856 0
49 -5872 5857 0
49 -5863 5853 0
49 -5864 5854 0
49 -5865 5855 0
49 -5866 5856 0
49 -5867 5857 0
49 -5863 -5868 5854 0
49 -5863 -5869 5855 0
49 -5863 -5870 5856 0
49 -5863 -5871 5857 0
49 -5863 -5872 5858 0
49 -5864 -5868 5855 0
49 -5864 -5869 5856 0
49 -5864 -5870 5857 0
49 -5864 -5871 5858 0
49 -5864 -5872 5859 0
49 -5865 -5868 5856 0
49 -5865 -5869 5857 0
49 -5865 -5870 5858 0
49 -5865 -5871 5859 0
49 -5865 -5872 5860 0
49 -5866 -5868 5857 0
49 -5866 -5869 5858 0
49 -5866 -5870 5859 0
49 -5866 -5871 5860 0
49 -5866 -5872 5861 0
49 -5867 -5868 5858 0
49 -5867 -5869 5859 0
49 -5867 -5870 5860 0
49 -5867 -5871 5861 0
49 -5867 -5872 5862 0
49 -5876 5868 0
49 -5877 5869 0
49 -5873 5868 0
49 -5874 5869 0
49 -5875 5870 0
49 -5873 -5876 5869 0
49 -5873 -5877 5870 0
49 -5874 -5876 5870 0
49 -5874 -5877 5871 0
49 -5875 -5876 5871 0
49 -5875 -5877 5872 0
49 -1870 5876 0
49 -1869 5876 0
49 -1869 -1870 5877 0
49 -1868 5873 0
49 -5878 5873 0
49 -5879 5874 0
49 -5878 -1868 5874 0
49 -5879 -1868 5875 0
49 -1867 5878 0
49 -1866 5878 0
49 -1866 -1867 5879 0
49 -5883 5863 0
49 -5884 5864 0
49 -5880 5863 0
49 -5881 5864 0
49 -5882 5865 0
49 -5880 -5883 5864 0
49 -5880 -5884 5865 0
49 -5881 -5883 5865 0
49 -5881 -5884 5866 0
49 -5882 -5883 5866 0
49 -5882 -5884 5867 0
49 -1865 5883 0
49 -1864 5883 0
49 -1864 -1865 5884 0
49 -1863 5880 0
49 -5885 5880 0
49 -5886 5881 0
49 -5885 -1863 5881 0
49 -5886 -1863 5882 0
49 -1862 5885 0
49 -1861 5885 0
49 -1861 -1862 5886 0
49 -5854 0
49 1871 1872 0
49 -1871 -1872 0
49 1873 1874 0
49 -1873 -1874 0
49 1875 1876 1877 1878 0
49 -5893 5887 0
49 -5894 5888 0
49 -5891 5887 0
49 -5892 5888 0
49 -5891 -5893 5888 0
49 -5891 -5894 5889 0
49 -5892 -5893 5889 0
49 -5892 -5894 5890 0
49 -1878 5893 0
49 -1877 5893 0
49 -1877 -1878 5894 0
49 -1876 5891 0
49 -1875 5891 0
49 -1875 -1876 5892 0
49 -5888 0
49 1879 1880 1881 1882 0
49 -5901 5895 0
49 -5902 5896 0
49 -5899 5895 0
49 -5900 5896 0
49 -5899 -5901 5896 0
49 -5899 -5902 5897 0
49 -5900 -5901 5897 0
49 -5900 -5902 5898 0
49 -1882 5901 0
49 -1881 5901 0
49 -1881 -1882 5902 0
49 -1880 5899 0
49 -1879 5899 0
49 -1879 -1880 5900 0
49 -5896 0
49 1883 1884 1885 1886 1887 0
49 -5911 5903 0
49 -5912 5904 0
49 -5908 5903 0
49 -5909 5904 0
49 -5910 5905 0
49 -5908 -5911 5904 0
49 -5908 -5912 5905 0
49 -5909 -5911 5905 0
49 -5909 -5912 5906 0
49 -5910 -5911 5906 0
49 -5910 -5912 5907 0
49 -1887 5911 0
49 -1886 5911 0
49 -1886 -1887 5912 0
49 -1885 5908 0
49 -5913 5908 0
49 -5914 5909 0
49 -5913 -1885 5909 0
49 -5914 -1885 5910 0
49 -1884 5913 0
49 -1883 5913 0
49 -1883 -1884 5914 0
49 -5904 0
49 1888 1889 1890 1891 1892 0
49 -5923 5915 0
49 -5924 5916 0
49 -5920 5915 0
49 -5921 5916 0
49 -5922 5917 0
49 -5920 -5923 5916 0
49 -5920 -5924 5917 0
49 -5921 -5923 5917 0
49 -5921 -5924 5918 0
49 -5922 -5923 5918 0
49 -5922 -5924 5919 0
49 -1892 5923 0
49 -1891 5923 0
49 -1891 -1892 5924 0
49 -1890 5920 0
49 -5925 5920 0
49 -5926 5921 0
49 -5925 -1890 5921 0
49 -5926 -1890 5922 0
49 -1889 5925 0
49 -1888 5925 0
49 -1888 -1889 5926 0
49 -5916 0
49 1893 1894 1895 1896 1897 1898 1899 1900 1901 1902 1903 0
49 -5944 5927 0
49 -5945 5928 0
49 -5946 5929 0
49 -5947 5930 0
49 -5948 5931 0
49 -5938 5927 0
49 -5939 5928 0
49 -5940 5929 0
49 -5941 5930 0
49 -5942 5931 0
49 -5943 5932 0
49 -5938 -5944 5928 0
49 -5938 -5945 5929 0
49 -5938 -5946 5930 0
49 -5938 -5947 5931 0
49 -5938 -5948 5932 0
49 -5939 -5944 5929 0
49 -5939 -5945 5930 0
49 -5939 -5946 5931 0
49 -5939 -5947 5932 0
49 -5939 -5948 5933 0
49 -5940 -5944 5930 0
49 -5940 -5945 5931 0
49 -5940 -5946 5932 0
49 -5940 -5947 5933 0
49 -5940 -5948 5934 0
49 -5941 -5944 5931 0
49 -5941 -5945 5932 0
49 -5941 -5946 5933 0
49 -5941 -5947 5934 0
49 -5941 -5948 5935 0
49 -5942 -5944 5932 0
49 -5942 -5945 5933 0
49 -5942 -5946 5934 0
49 -5942 -5947 5935 0
49 -5942 -5948 5936 0
49 -5943 -5944 5933 0
49 -5943 -5945 5934 0
49 -5943 -5946 5935 0
49 -5943 -5947 5936 0
49 -5943 -5948 5937 0
49 -5952 5944 0
49 -5953 5945 0
49 -5949 5944 0
49 -5950 5945 0
49 -5951 5946 0
49 -5949 -5952 5945 0
49 -5949 -5953 5946 0
49 -5950 -5952 5946 0
49 -5950 -5953 5947 0
49 -5951 -5952 5947 0
49 -5951 -5953 5948 0
49 -1903 5952 0
49 -1902 5952 0
49 -1902 -1903 5953 0
49 -1901 5949 0
49 -5954 5949 0
49 -5955 5950 0
49 -5954 -1901 5950 0
49 -5955 -1901 5951 0
49 -1900 5954 0
49 -1899 5954 0
49 -1899 -1900 5955 0
49 -5959 5938 0
49 -5960 5939 0
49 -5961 5940 0
49 -5956 5938 0
49 -5957 5939 0
49 -5958 5940 0
49 -5956 -5959 5939 0
49 -5956 -5960 5940 0
49 -5956 -5961 5941 0
49 -5957 -5959 5940 0
49 -5957 -5960 5941 0
49 -5957 -5961 5942 0
49 -5958 -5959 5941 0
49 -5958 -5960 5942 0
49 -5958 -5961 5943 0
49 -1898 5959 0
49 -5962 5959 0
49 -5963 5960 0
49 -5962 -1898 5960 0
49 -5963 -1898 5961 0
49 -1897 5962 0
49 -1896 5962 0
49 -1896 -1897 5963 0
49 -1895 5956 0
49 -5964 5956 0
49 -5965 5957 0
49 -5964 -1895 5957 0
49 -5965 -1895 5958 0
49 -1894 5964 0
49 -1893 5964 0
49 -1893 -1894 5965 0
49 -5928 0
49 1904 1905 1906 1907 1908 1909 1910 1911 1912 1913 1914 0
49 -5983 5966 0
49 -5984 5967 0
49 -5985 5968 0
49 -5986 5969 0
49 -5987 5970 0
49 -5977 5966 0
49 -5978 5967 0
49 -5979 5968 0
49 -5980 5969 0
49 -5981 5970 0
49 -5982 5971 0
49 -5977 -5983 5967 0
49 -5977 -5984 5968 0
49 -5977 -5985 5969 0
49 -5977 -5986 5970 0
49 -5977 -5987 5971 0
49 -5978 -5983 5968 0
49 -5978 -5984 5969 0
49 -5978 -5985 5970 0
49 -5978 -5986 5971 0
49 -5978 -5987 5972 0
49 -5979 -5983 5969 0
49 -5979 -5984 5970 0
49 -5979 -5985 5971 0
49 -5979 -5986 5972 0
49 -5979 -5987 5973 0
49 -5980 -5983 5970 0
49 -5980 -5984 5971 0
49 -5980 -5985 5972 0
49 -5980 -5986 5973 0
49 -5980 -5987 5974 0
49 -5981 -5983 5971 0
49 -5981 -5984 5972 0
49 -5981 -5985 5973 0
49 -5981 -5986 5974 0
49 -5981 -5987 5975 0
49 -5982 -5983 5972 0
49 -5982 -5984 5973 0
49 -5982 -5985 5974 0
49 -5982 -5986 5975 0
49 -5982 -5987 5976 0
49 -5991 5983 0
49 -5992 5984 0
49 -5988 5983 0
49 -5989 5984 0
49 -5990 5985 0
49 -5988 -5991 5984 0
49 -5988 -5992 5985 0
49 -5989 -5991 5985 0
49 -5989 -5992 5986 0
49 -5990 -5991 5986 0
49 -5990 -5992 5987 0
49 -1914 5991 0
49 -1913 5991 0
49 -1913 -1914 5992 0
49 -1912 5988 0
49 -5993 5988 0
49 -5994 5989 0
49 -5993 -1912 5989 0
49 -5994 -1912 5990 0
49 -1911 5993 0
49 -1910 5993 0
49 -1910 -1911 5994 0
49 -5998 5977 0
49 -5999 5978 0
49 -6000 5979 0
49 -5995 5977 0
49 -5996 5978 0
49 -5997 5979 0
49 -5995 -5998 5978 0
49 -5995 -5999 5979 0
49 -5995 -6000 5980 0
49 -5996 -5998 5979 0
49 -5996 -5999 5980 0
49 -5996 -6000 5981 0
49 -5997 -5998 5980 0
49 -5997 -5999 5981 0
49 -5997 -6000 5982 0
49 -1909 5998 0
49 -6001 5998 0
49 -6002 5999 0
49 -6001 -1909 5999 0
49 -6002 -1909 6000 0
49 -1908 6001 0
49 -1907 6001 0
49 -1907 -1908 6002 0
49 -1906 5995 0
49 -6003 5995 0
49 -6004 5996 0
49 -6003 -1906 5996 0
49 -6004 -1906 5997 0
49 -1905 6003 0
49 -1904 6003 0
49 -1904 -1905 6004 0
49 -5967 0
49 1915 1916 0
49 -1915 -1916 0
49 1917 1918 0
49 -1917 -1918 0
49 1919 0
49 1920 0
49 1921 1922 1923 1924 1925 1926 1927 1928 1929 0
49 -6019 6005 0
49 -6020 6006 0
49 -6021 6007 0
49 -6022 6008 0
49 -6014 6005 0
49 -6015 6006 0
49 -6016 6007 0
49 -6017 6008 0
49 -6018 6009 0
49 -6014 -6019 6006 0
49 -6014 -6020 6007 0
49 -6014 -6021 6008 0
49 -6014 -6022 6009 0
49 -6015 -6019 6007 0
49 -6015 -6020 6008 0
49 -6015 -6021 6009 0
49 -6015 -6022 6010 0
49 -6016 -6019 6008 0
49 -6016 -6020 6009 0
49 -6016 -6021 6010 0
49 -6016 -6022 6011 0
49 -6017 -6019 6009 0
49 -6017 -6020 6010 0
49 -6017 -6021 6011 0
49 -6017 -6022 6012 0
49 -6018 -6019 6010 0
49 -6018 -6020 6011 0
49 -6018 -6021 6012 0
49 -6018 -6022 6013 0
49 -6025 6019 0
49 -6026 6020 0
49 -6023 6019 0
49 -6024 6020 0
49 -6023 -6025 6020 0
49 -6023 -6026 6021 0
49 -6024 -6025 6021 0
49 -6024 -6026 6022 0
49 -1929 6025 0
49 -1928 6025 0
49 -1928 -1929 6026 0
49 -1927 6023 0
49 -1926 6023 0
49 -1926 -1927 6024 0
49 -6030 6014 0
49 -6031 6015 0
49 -6027 6014 0
49 -6028 6015 0
49 -6029 6016 0
49 -6027 -6030 6015 0
49 -6027 -6031 6016 0
49 -6028 -6030 6016 0
49 -6028 -6031 6017 0
49 -6029 -6030 6017 0
49 -6029 -6031 6018 0
49 -1925 6030 0
49 -1924 6030 0
49 -1924 -1925 6031 0
49 -1923 6027 0
49 -6032 6027 0
49 -6033 6028 0
49 -6032 -1923 6028 0
49 -6033 -1923 6029 0
49 -1922 6032 0
49 -1921 6032 0
49 -1921 -1922 6033 0
49 -6006 0
49 1930 1931 1932 1933 1934 1935 1936 1937 1938 0
49 -6048 6034 0
49 -6049 6035 0
49 -6050 6036 0
49 -6051 6037 0
49 -6043 6034 0
49 -6044 6035 0
49 -6045 6036 0
49 -6046 6037 0
49 -6047 6038 0
49 -6043 -6048 6035 0
49 -6043 -6049 6036 0
49 -6043 -6050 6037 0
49 -6043 -6051 6038 0
49 -6044 -6048 6036 0
49 -6044 -6049 6037 0
49 -6044 -6050 6038 0
49 -6044 -6051 6039 0
49 -6045 -6048 6037 0
49 -6045 -6049 6038 0
49 -6045 -6050 6039 0
49 -6045 -6051 6040 0
49 -6046 -6048 6038 0
49 -6046 -6049 6039 0
49 -6046 -6050 6040 0
49 -6046 -6051 6041 0
49 -6047 -6048 6039 0
49 -6047 -6049 6040 0
49 -6047 -6050 6041 0
49 -6047 -6051 6042 0
49 -6054 6048 0
49 -6055 6049 0
49 -6052 6048 0
49 -6053 6049 0
49 -6052 -6054 6049 0
49 -6052 -6055 6050 0
49 -6053 -6054 6050 0
49 -6053 -6055 6051 0
49 -1938 6054 0
49 -1937 6054 0
49 -1937 -1938 6055 0
49 -1936 6052 0
49 -1935 6052 0
49 -1935 -1936 6053 0
49 -6059 6043 0
49 -6060 6044 0
49 -6056 6043 0
49 -6057 6044 0
49 -6058 6045 0
49 -6056 -6059 6044 0
49 -6056 -6060 6045 0
49 -6057 -6059 6045 0
49 -6057 -6060 6046 0
49 -6058 -6059 6046 0
49 -6058 -6060 6047 0
49 -1934 6059 0
49 -1933 6059 0
49 -1933 -1934 6060 0
49 -1932 6056 0
49 -6061 6056 0
49 -6062 6057 0
49 -6061 -1932 6057 0
49 -6062 -1932 6058 0
49 -1931 6061 0
49 -1930 6061 0
49 -1930 -1931 6062 0
49 -6035 0
49 1939 1940 1941 1942 1943 1944 1945 1946 1947 1948 1949 0
49 -6080 6063 0
49 -6081 6064 0
49 -6082 6065 0
49 -6083 6066 0
49 -6084 6067 0
49 -6074 6063 0
49 -6075 6064 0
49 -6076 6065 0
49 -6077 6066 0
49 -6078 6067 0
49 -6079 6068 0
49 -6074 -6080 6064 0
49 -6074 -6081 6065 0
49 -6074 -6082 6066 0
49 -6074 -6083 6067 0
49 -6074 -6084 6068 0
49 -6075 -6080 6065 0
49 -6075 -6081 6066 0
49 -6075 -6082 6067 0
49 -6075 -6083 6068 0
49 -6075 -6084 6069 0
49 -6076 -6080 6066 0
49 -6076 -6081 6067 0
49 -6076 -6082 6068 0
49 -6076 -6083 6069 0
49 -6076 -6084 6070 0
49 -6077 -6080 6067 0
49 -6077 -6081 6068 0
49 -6077 -6082 6069 0
49 -6077 -6083 6070 0
49 -6077 -6084 6071 0
49 -6078 -6080 6068 0
49 -6078 -6081 6069 0
49 -6078 -6082 6070 0
49 -6078 -6083 6071 0
49 -6078 -6084 6072 0
49 -6079 -6080 6069 0
49 -6079 -6081 6070 0
49 -6079 -6082 6071 0
49 -6079 -6083 6072 0
49 -6079 -6084 6073 0
49 -6088 6080 0
49 -6089 6081 0
49 -6085 6080 0
49 -6086 6081 0
49 -6087 6082 0
49 -6085 -6088 6081 0
49 -6085 -6089 6082 0
49 -6086 -6088 6082 0
49 -6086 -6089 6083 0
49 -6087 -6088 6083 0
49 -6087 -6089 6084 0
49 -1949 6088 0
49 -1948 6088 0
49 -1948 -1949 6089 0
49 -1947 6085 0
49 -6090 6085 0
49 -6091 6086 0
49 -6090 -1947 6086 0
49 -6091 -1947 6087 0
49 -1946 6090 0
49 -1945 6090 0
49 -1945 -1946 6091 0
49 -6095 6074 0
49 -6096 6075 0
49 -6097 6076 0
49 -6092 6074 0
49 -6093 6075 0
49 -6094 6076 0
49 -6092 -6095 6075 0
49 -6092 -6096 6076 0
49 -6092 -6097 6077 0
49 -6093 -6095 6076 0
49 -6093 -6096 6077 0
49 -6093 -6097 6078 0
49 -6094 -6095 6077 0
49 -6094 -6096 6078 0
49 -6094 -6097 6079 0
49 -1944 6095 0
49 -6098 6095 0
49 -6099 6096 0
49 -6098 -1944 6096 0
49 -6099 -1944 6097 0
49 -1943 6098 0
49 -1942 6098 0
49 -1942 -1943 6099 0
49 -1941 6092 0
49 -6100 6092 0
49 -6101 6093 0
49 -6100 -1941 6093 0
49 -6101 -1941 6094 0
49 -1940 6100 0
49 -1939 6100 0
49 -1939 -1940 6101 0
49 -6064 0
49 1950 1951 1952 1953 1954 1955 1956 1957 1958 1959 1960 0
49 -6119 6102 0
49 -6120 6103 0
49 -6121 6104 0
49 -6122 6105 0
49 -6123 6106 0
49 -6113 6102 0
49 -6114 6103 0
49 -6115 6104 0
49 -6116 6105 0
49 -6117 6106 0
49 -6118 6107 0
49 -6113 -6119 6103 0
49 -6113 -6120 6104 0
49 -6113 -6121 6105 0
49 -6113 -6122 6106 0
49 -6113 -6123 6107 0
49 -6114 -6119 6104 0
49 -6114 -6120 6105 0
49 -6114 -6121 6106 0
49 -6114 -6122 6107 0
49 -6114 -6123 6108 0
49 -6115 -6119 6105 0
49 -6115 -6120 6106 0
49 -6115 -6121 6107 0
49 -6115 -6122 6108 0
49 -6115 -6123 6109 0
49 -6116 -6119 6106 0
49 -6116 -6120 6107 0
49 -6116 -6121 6108 0
49 -6116 -6122 6109 0
49 -6116 -6123 6110 0
49 -6117 -6119 6107 0
49 -6117 -6120 6108 0
49 -6117 -6121 6109 0
49 -6117 -6122 6110 0
49 -6117 -6123 6111 0
49 -6118 -6119 6108 0
49 -6118 -6120 6109 0
49 -6118 -6121 6110 0
49 -6118 -6122 6111 0
49 -6118 -6123 6112 0
49 -6127 6119 0
49 -6128 6120 0
49 -6124 6119 0
49 -6125 6120 0
49 -6126 6121 0
49 -6124 -6127 6120 0
49 -6124 -6128 6121 0
49 -6125 -6127 6121 0
49 -6125 -6128 6122 0
49 -6126 -6127 6122 0
49 -6126 -6128 6123 0
49 -1960 6127 0
49 -1959 6127 0
49 -1959 -1960 6128 0
49 -1958 6124 0
49 -6129 6124 0
49 -6130 6125 0
49 -6129 -1958 6125 0
49 -6130 -1958 6126 0
49 -1957 6129 0
49 -1956 6129 0
49 -1956 -1957 6130 0
49 -6134 6113 0
49 -6135 6114 0
49 -6136 6115 0
49 -6131 6113 0
49 -6132 6114 0
49 -6133 6115 0
49 -6131 -6134 6114 0
49 -6131 -6135 6115 0
49 -6131 -6136 6116 0
49 -6132 -6134 6115 0
49 -6132 -6135 6116 0
49 -6132 -6136 6117 0
49 -6133 -6134 6116 0
49 -6133 -6135 6117 0
49 -6133 -6136 6118 0
49 -1955 6134 0
49 -6137 6134 0
49 -6138 6135 0
49 -6137 -1955 6135 0
49 -6138 -1955 6136 0
49 -1954 6137 0
49 -1953 6137 0
49 -1953 -1954 6138 0
49 -1952 6131 0
49 -6139 6131 0
49 -6140 6132 0
49 -6139 -1952 6132 0
49 -6140 -1952 6133 0
49 -1951 6139 0
49 -1950 6139 0
49 -1950 -1951 6140 0
49 -6103 0
49 -1 2 0
49 -3 7 0
49 -4 8 0
49 -5 9 0
49 -6 10 0
49 -11 12 0
49 -13 14 0
49 -15 16 0
49 -17 23 0
49 -18 24 0
49 -19 25 0
49 -20 26 0
49 -21 27 0
49 -22 28 0
49 -22 -669 0
49 -21 -1803 0
49 -22 -1803 0
49 -22 -1804 0
49 -18 -1819 0
49 -19 -1819 0
49 -19 -1820 0
49 -20 -1819 0
49 -20 -1820 0
49 -20 -1821 0
49 -21 -1819 0
49 -21 -1820 0
49 -21 -1821 0
49 -21 -1822 0
49 -22 -1819 0
49 -22 -1820 0
49 -22 -1821 0
49 -22 -1822 0
49 -29 30 0
49 -31 32 0
49 -33 44 0
49 -34 45 0
49 -35 46 0
49 -36 47 0
49 -37 48 0
49 -38 49 0
49 -39 50 0
49 -40 51 0
49 -41 52 0
49 -42 53 0
49 -43 54 0
49 -41 -1581 0
49 -42 -1581 0
49 -42 -1582 0
49 -43 -1581 0
49 -43 -1582 0
49 -43 -1583 0
49 -48 -1581 0
49 -49 -1581 0
49 -49 -1582 0
49 -50 -1581 0
49 -50 -1582 0
49 -50 -1583 0
49 -51 -1581 0
49 -51 -1582 0
49 -51 -1583 0
49 -51 -1584 0
49 -52 -1581 0
49 -52 -1582 0
49 -52 -1583 0
49 -52 -1584 0
49 -52 -1585 0
49 -53 -1581 0
49 -53 -1582 0
49 -53 -1583 0
49 -53 -1584 0
49 -53 -1585 0
49 -53 -1586 0
49 -54 -1581 0
49 -54 -1582 0
49 -54 -1583 0
49 -54 -1584 0
49 -54 -1585 0
49 -54 -1586 0
49 -54 -1587 0
49 -52 -1589 0
49 -53 -1589 0
49 -53 -1590 0
49 -54 -1589 0
49 -54 -1590 0
49 -54 -1591 0
49 -55 58 0
49 -56 59 0
49 -57 60 0
49 -57 -63 0
49 -61 62 0
49 -63 66 0
49 -64 67 0
49 -65 68 0
49 -63 -1773 0
49 -63 -1774 0
49 -64 -1774 0
49 -69 70 0
49 -71 72 0
49 -73 74 0
49 -75 76 0
49 -77 87 0
49 -78 88 0
49 -79 89 0
49 -80 90 0
49 -81 91 0
49 -82 92 0
49 -83 93 0
49 -84 94 0
49 -85 95 0
49 -86 96 0
49 -77 -305 0
49 -77 -306 0
49 -78 -306 0
49 -78 -307 0
49 -79 -307 0
49 -87 -308 0
49 -87 -309 0
49 -88 -309 0
49 -88 -310 0
49 -89 -310 0
49 -97 98 0
49 -99 101 0
49 -100 102 0
49 -103 104 0
49 -105 106 0
49 -107 109 0
49 -108 110 0
49 -107 -114 0
49 -109 -116 0
49 -111 112 0
49 -113 115 0
49 -114 116 0
49 -113 -1918 0
49 -115 -1916 0
49 -117 121 0
49 -118 122 0
49 -119 123 0
49 -120 124 0
49 -117 -678 0
49 -117 -679 0
49 -117 -680 0
49 -118 -679 0
49 -118 -680 0
49 -119 -680 0
49 -120 -955 0
49 -121 -673 0
49 -121 -674 0
49 -121 -675 0
49 -122 -674 0
49 -122 -675 0
49 -123 -675 0
49 -124 -676 0
49 -125 126 0
49 -127 128 0
49 -129 130 0
49 -131 132 0
49 -133 135 0
49 -134 136 0
49 -137 138 0
49 -139 140 0
49 -141 142 0
49 -143 144 0
49 -145 146 0
49 -147 148 0
49 -149 150 0
49 -151 152 0
49 -153 154 0
49 -155 156 0
49 -157 158 0
49 -159 160 0
49 -161 162 0
49 -163 164 0
49 -165 170 0
49 -166 171 0
49 -167 172 0
49 -168 173 0
49 -169 174 0
49 -173 -216 0
49 -173 -217 0
49 -173 -218 0
49 -174 -218 0
49 -174 -219 0
49 -174 -220 0
49 -170 -1238 0
49 -170 -1239 0
49 -170 -1240 0
49 -171 -1238 0
49 -171 -1239 0
49 -171 -1240 0
49 -171 -1241 0
49 -172 -1238 0
49 -172 -1239 0
49 -172 -1240 0
49 -172 -1241 0
49 -172 -1242 0
49 -172 -1243 0
49 -175 176 0
49 -177 178 0
49 -179 180 0
49 -181 182 0
49 -183 188 0
49 -184 189 0
49 -185 190 0
49 -186 191 0
49 -187 192 0
49 -193 195 0
49 -194 196 0
49 -195 -896 0
49 -197 198 0
49 -199 202 0
49 -200 203 0
49 -201 204 0
49 -205 206 0
49 -207 208 0
49 -209 210 0
49 -211 212 0
49 -213 222 0
49 -214 223 0
49 -215 224 0
49 -216 225 0
49 -217 226 0
49 -218 227 0
49 -219 228 0
49 -220 229 0
49 -221 230 0
49 -222 -1240 0
49 -222 -1241 0
49 -222 -1242 0
49 -222 -1243 0
49 -222 -1244 0
49 -223 -1241 0
49 -223 -1242 0
49 -223 -1243 0
49 -223 -1244 0
49 -224 -1242 0
49 -224 -1243 0
49 -224 -1244 0
49 -225 -1243 0
49 -225 -1244 0
49 -226 -1244 0
49 -231 232 0
49 -233 234 0
49 -235 236 0
49 -237 245 0
49 -238 246 0
49 -239 247 0
49 -240 248 0
49 -241 249 0
49 -242 250 0
49 -243 251 0
49 -244 252 0
49 -253 254 0
49 -255 263 0
49 -256 264 0
49 -257 265 0
49 -258 266 0
49 -259 267 0
49 -260 268 0
49 -261 269 0
49 -262 270 0
49 -271 273 0
49 -272 274 0
49 -272 -1381 0
49 -274 -1383 0
49 -275 276 0
49 -277 278 0
49 -279 282 0
49 -280 283 0
49 -281 284 0
49 -280 -1257 0
49 -281 -1258 0
49 -283 -1260 0
49 -284 -1261 0
49 -285 286 0
49 -287 289 0
49 -288 290 0
49 -287 -818 0
49 -289 -820 0
49 -289 -870 0
49 -291 292 0
49 -293 294 0
49 -295 296 0
49 -297 298 0
49 -299 300 0
49 -301 302 0
49 -303 304 0
49 -305 308 0
49 -306 309 0
49 -307 310 0
49 -306 -1424 0
49 -307 -1424 0
49 -307 -1425 0
49 -311 312 0
49 -313 314 0
49 -315 316 0
49 -317 318 0
49 -319 320 0
49 -321 322 0
49 -323 324 0
49 -325 326 0
49 -327 328 0
49 -329 330 0
49 -331 332 0
49 -333 335 0
49 -334 336 0
49 -337 339 0
49 -338 340 0
49 -339 -345 0
49 -341 346 0
49 -342 347 0
49 -343 348 0
49 -344 349 0
49 -345 350 0
49 -351 352 0
49 -353 354 0
49 -355 356 0
49 -357 358 0
49 -359 360 0
49 -361 363 0
49 -362 364 0
49 -361 -406 0
49 -363 -404 0
49 -365 366 0
49 -367 368 0
49 -369 370 0
49 -371 374 0
49 -372 375 0
49 -373 376 0
49 -377 379 0
49 -378 380 0
49 -381 382 0
49 -383 384 0
49 -385 389 0
49 -386 390 0
49 -387 391 0
49 -388 392 0
49 -392 -1279 0
49 -393 394 0
49 -395 399 0
49 -396 400 0
49 -397 401 0
49 -398 402 0
49 -403 405 0
49 -404 406 0
49 -407 408 0
49 -409 420 0
49 -410 421 0
49 -411 422 0
49 -412 423 0
49 -413 424 0
49 -414 425 0
49 -415 426 0
49 -416 427 0
49 -417 428 0
49 -418 419 0
49 -409 -434 0
49 -409 -435 0
49 -409 -436 0
49 -409 -437 0
49 -409 -438 0
49 -409 -439 0
49 -410 -435 0
49 -410 -436 0
49 -410 -437 0
49 -410 -438 0
49 -410 -439 0
49 -411 -436 0
49 -411 -437 0
49 -411 -438 0
49 -411 -439 0
49 -412 -437 0
49 -412 -438 0
49 -412 -439 0
49 -413 -438 0
49 -413 -439 0
49 -414 -439 0
49 -419 -432 0
49 -419 -433 0
49 -419 -434 0
49 -419 -435 0
49 -419 -436 0
49 -419 -437 0
49 -419 -438 0
49 -419 -439 0
49 -419 -445 0
49 -419 -446 0
49 -419 -447 0
49 -419 -448 0
49 -429 430 0
49 -431 440 0
49 -432 441 0
49 -433 442 0
49 -434 443 0
49 -435 444 0
49 -436 445 0
49 -437 446 0
49 -438 447 0
49 -439 448 0
49 -449 450 0
49 -451 452 0
49 -453 454 0
49 -455 456 0
49 -457 458 0
49 -459 460 0
49 -461 463 0
49 -462 464 0
49 -465 466 0
49 -467 468 0
49 -469 471 0
49 -470 472 0
49 -470 -1341 0
49 -472 -1344 0
49 -473 475 0
49 -474 476 0
49 -473 -484 0
49 -475 -488 0
49 -477 478 0
49 -479 480 0
49 -481 485 0
49 -482 486 0
49 -483 487 0
49 -484 488 0
49 -489 490 0
49 -491 492 0
49 -493 494 0
49 -495 496 0
49 -497 499 0
49 -498 500 0
49 -501 502 0
49 -503 504 0
49 -505 506 0
49 -507 516 0
49 -508 517 0
49 -509 518 0
49 -510 519 0
49 -511 520 0
49 -512 521 0
49 -513 522 0
49 -514 523 0
49 -515 524 0
49 -512 -525 0
49 -513 -525 0
49 -513 -526 0
49 -514 -525 0
49 -514 -526 0
49 -514 -527 0
49 -515 -525 0
49 -515 -526 0
49 -515 -527 0
49 -515 -528 0
49 -510 -543 0
49 -511 -543 0
49 -511 -544 0
49 -512 -543 0
49 -512 -544 0
49 -512 -545 0
49 -513 -543 0
49 -513 -544 0
49 -513 -545 0
49 -513 -546 0
49 -514 -543 0
49 -514 -544 0
49 -514 -545 0
49 -514 -546 0
49 -514 -547 0
49 -515 -543 0
49 -515 -544 0
49 -515 -545 0
49 -515 -546 0
49 -515 -547 0
49 -515 -548 0
49 -515 -551 0
49 -524 -543 0
49 -525 531 0
49 -526 532 0
49 -527 533 0
49 -528 534 0
49 -529 535 0
49 -530 536 0
49 -537 540 0
49 -538 541 0
49 -539 542 0
49 -539 -1921 0
49 -543 551 0
49 -544 552 0
49 -545 553 0
49 -546 554 0
49 -547 555 0
49 -548 556 0
49 -549 557 0
49 -550 558 0
49 -559 560 0
49 -561 562 0
49 -563 564 0
49 -565 566 0
49 -567 568 0
49 -569 570 0
49 -571 572 0
49 -573 574 0
49 -575 576 0
49 -577 585 0
49 -578 586 0
49 -579 587 0
49 -580 588 0
49 -581 589 0
49 -582 590 0
49 -583 591 0
49 -584 592 0
49 -593 594 0
49 -595 596 0
49 -597 601 0
49 -598 602 0
49 -599 603 0
49 -600 604 0
49 -597 -1800 0
49 -597 -1801 0
49 -597 -1802 0
49 -598 -1801 0
49 -598 -1802 0
49 -599 -1802 0
49 -601 -1796 0
49 -601 -1797 0
49 -601 -1798 0
49 -602 -1797 0
49 -602 -1798 0
49 -603 -1798 0
49 -605 607 0
49 -606 608 0
49 -606 -611 0
49 -608 -609 0
49 -609 611 0
49 -610 612 0
49 -613 617 0
49 -614 618 0
49 -615 619 0
49 -616 620 0
49 -613 -1547 0
49 -614 -1689 0
49 -615 -1689 0
49 -615 -1690 0
49 -616 -1689 0
49 -616 -1690 0
49 -616 -1691 0
49 -613 -1703 0
49 -613 -1704 0
49 -614 -1704 0
49 -618 -1685 0
49 -619 -1685 0
49 -619 -1686 0
49 -620 -1685 0
49 -620 -1686 0
49 -620 -1687 0
49 -621 626 0
49 -622 627 0
49 -623 628 0
49 -624 629 0
49 -625 630 0
49 -631 632 0
49 -633 634 0
49 -635 636 0
49 -637 638 0
49 -639 640 0
49 -641 650 0
49 -642 651 0
49 -643 652 0
49 -644 653 0
49 -645 654 0
49 -646 655 0
49 -647 656 0
49 -648 657 0
49 -649 658 0
49 -641 -1052 0
49 -641 -1053 0
49 -641 -1054 0
49 -641 -1055 0
49 -642 -1053 0
49 -642 -1054 0
49 -642 -1055 0
49 -642 -1056 0
49 -643 -1053 0
49 -643 -1054 0
49 -643 -1055 0
49 -643 -1056 0
49 -643 -1057 0
49 -644 -1053 0
49 -644 -1054 0
49 -644 -1055 0
49 -644 -1056 0
49 -644 -1057 0
49 -644 -1058 0
49 -645 -1053 0
49 -645 -1054 0
49 -645 -1055 0
49 -645 -1056 0
49 -645 -1057 0
49 -645 -1058 0
49 -645 -1059 0
49 -646 -1054 0
49 -646 -1055 0
49 -646 -1056 0
49 -646 -1057 0
49 -646 -1058 0
49 -646 -1059 0
49 -646 -1060 0
49 -647 -1055 0
49 -647 -1056 0
49 -647 -1057 0
49 -647 -1058 0
49 -647 -1059 0
49 -647 -1060 0
49 -648 -1056 0
49 -648 -1057 0
49 -648 -1058 0
49 -648 -1059 0
49 -648 -1060 0
49 -649 -1057 0
49 -649 -1058 0
49 -649 -1059 0
49 -649 -1060 0
49 -650 -1045 0
49 -650 -1046 0
49 -650 -1047 0
49 -651 -1045 0
49 -651 -1046 0
49 -651 -1047 0
49 -651 -1048 0
49 -652 -1045 0
49 -652 -1046 0
49 -652 -1047 0
49 -652 -1048 0
49 -652 -1049 0
49 -653 -1045 0
49 -653 -1046 0
49 -653 -1047 0
49 -653 -1048 0
49 -653 -1049 0
49 -653 -1050 0
49 -654 -1045 0
49 -654 -1046 0
49 -654 -1047 0
49 -654 -1048 0
49 -654 -1049 0
49 -654 -1050 0
49 -654 -1051 0
49 -655 -1046 0
49 -655 -1047 0
49 -655 -1048 0
49 -655 -1049 0
49 -655 -1050 0
49 -655 -1051 0
49 -655 -1052 0
49 -656 -1047 0
49 -656 -1048 0
49 -656 -1049 0
49 -656 -1050 0
49 -656 -1051 0
49 -656 -1052 0
49 -657 -1048 0
49 -657 -1049 0
49 -657 -1050 0
49 -657 -1051 0
49 -657 -1052 0
49 -658 -1049 0
49 -658 -1050 0
49 -658 -1051 0
49 -658 -1052 0
49 -655 -1053 0
49 -655 -1054 0
49 -655 -1055 0
49 -656 -1053 0
49 -656 -1054 0
49 -656 -1055 0
49 -656 -1056 0
49 -657 -1053 0
49 -657 -1054 0
49 -657 -1055 0
49 -657 -1056 0
49 -657 -1057 0
49 -658 -1053 0
49 -658 -1054 0
49 -658 -1055 0
49 -658 -1056 0
49 -658 -1057 0
49 -658 -1058 0
49 -650 -1702 0
49 -650 -1703 0
49 -650 -1704 0
49 -651 -1703 0
49 -651 -1704 0
49 -652 -1704 0
49 -659 662 0
49 -660 663 0
49 -661 664 0
49 -659 -1696 0
49 -659 -1697 0
49 -660 -1697 0
49 -659 -1790 0
49 -662 -1700 0
49 -665 666 0
49 -667 669 0
49 -668 670 0
49 -671 676 0
49 -672 677 0
49 -673 678 0
49 -674 679 0
49 -675 680 0
49 -681 682 0
49 -683 684 0
49 -685 694 0
49 -686 695 0
49 -687 696 0
49 -688 697 0
49 -689 698 0
49 -690 699 0
49 -691 700 0
49 -692 701 0
49 -693 702 0
49 -703 706 0
49 -704 707 0
49 -705 708 0
49 -705 -1477 0
49 -709 710 0
49 -711 712 0
49 -713 714 0
49 -715 725 0
49 -716 726 0
49 -717 727 0
49 -718 728 0
49 -719 729 0
49 -720 730 0
49 -721 731 0
49 -722 732 0
49 -723 733 0
49 -724 734 0
49 -724 -735 0
49 -735 743 0
49 -736 744 0
49 -737 745 0
49 -738 746 0
49 -739 747 0
49 -740 748 0
49 -741 749 0
49 -742 750 0
49 -751 752 0
49 -753 755 0
49 -754 756 0
49 -757 758 0
49 -759 760 0
49 -761 762 0
49 -763 764 0
49 -765 769 0
49 -766 770 0
49 -767 771 0
49 -768 772 0
49 -773 774 0
49 -775 776 0
49 -777 778 0
49 -779 780 0
49 -781 784 0
49 -782 785 0
49 -783 786 0
49 -787 788 0
49 -789 790 0
49 -791 792 0
49 -793 794 0
49 -795 798 0
49 -796 799 0
49 -797 800 0
49 -801 803 0
49 -802 804 0
49 -805 806 0
49 -807 808 0
49 -809 810 0
49 -811 813 0
49 -812 814 0
49 -812 -1471 0
49 -815 816 0
49 -817 819 0
49 -818 820 0
49 -818 -871 0
49 -820 -869 0
49 -821 822 0
49 -823 824 0
49 -825 836 0
49 -826 837 0
49 -827 838 0
49 -828 839 0
49 -829 840 0
49 -830 841 0
49 -831 842 0
49 -832 843 0
49 -833 844 0
49 -834 845 0
49 -835 846 0
49 -836 -852 0
49 -836 -853 0
49 -837 -853 0
49 -847 848 0
49 -849 850 0
49 -851 854 0
49 -852 855 0
49 -853 856 0
49 -857 859 0
49 -858 860 0
49 -861 862 0
49 -863 864 0
49 -865 866 0
49 -867 868 0
49 -869 871 0
49 -870 872 0
49 -873 880 0
49 -874 881 0
49 -875 882 0
49 -876 883 0
49 -877 884 0
49 -878 885 0
49 -879 886 0
49 -873 -890 0
49 -887 889 0
49 -888 890 0
49 -891 892 0
49 -893 895 0
49 -894 896 0
49 -897 898 0
49 -899 900 0
49 -901 902 0
49 -903 907 0
49 -904 908 0
49 -905 909 0
49 -906 910 0
49 -903 -929 0
49 -903 -930 0
49 -904 -930 0
49 -911 912 0
49 -913 914 0
49 -915 916 0
49 -917 919 0
49 -918 920 0
49 -921 922 0
49 -923 924 0
49 -925 926 0
49 -927 931 0
49 -928 932 0
49 -929 933 0
49 -930 934 0
49 -935 936 0
49 -937 938 0
49 -939 947 0
49 -940 948 0
49 -941 949 0
49 -942 950 0
49 -943 951 0
49 -944 952 0
49 -945 953 0
49 -946 954 0
49 -939 -977 0
49 -939 -978 0
49 -939 -979 0
49 -940 -978 0
49 -940 -979 0
49 -941 -979 0
49 -942 -980 0
49 -943 -980 0
49 -943 -981 0
49 -944 -980 0
49 -944 -981 0
49 -944 -982 0
49 -945 -980 0
49 -945 -981 0
49 -945 -982 0
49 -945 -983 0
49 -946 -980 0
49 -946 -981 0
49 -946 -982 0
49 -946 -983 0
49 -946 -984 0
49 -939 -1002 0
49 -939 -1003 0
49 -939 -1004 0
49 -940 -1002 0
49 -940 -1003 0
49 -940 -1004 0
49 -940 -1005 0
49 -941 -1002 0
49 -941 -1003 0
49 -941 -1004 0
49 -941 -1005 0
49 -941 -1006 0
49 -942 -1003 0
49 -942 -1004 0
49 -942 -1005 0
49 -942 -1006 0
49 -942 -1007 0
49 -943 -1004 0
49 -943 -1005 0
49 -943 -1006 0
49 -943 -1007 0
49 -943 -1008 0
49 -944 -1005 0
49 -944 -1006 0
49 -944 -1007 0
49 -944 -1008 0
49 -944 -1009 0
49 -945 -1006 0
49 -945 -1007 0
49 -945 -1008 0
49 -945 -1009 0
49 -945 -1010 0
49 -946 -1007 0
49 -946 -1008 0
49 -946 -1009 0
49 -946 -1010 0
49 -946 -1011 0
49 -947 -969 0
49 -947 -970 0
49 -947 -971 0
49 -948 -969 0
49 -948 -970 0
49 -948 -971 0
49 -948 -972 0
49 -949 -969 0
49 -949 -970 0
49 -949 -971 0
49 -949 -972 0
49 -949 -973 0
49 -950 -970 0
49 -950 -971 0
49 -950 -972 0
49 -950 -973 0
49 -950 -974 0
49 -951 -971 0
49 -951 -972 0
49 -951 -973 0
49 -951 -974 0
49 -951 -975 0
49 -952 -972 0
49 -952 -973 0
49 -952 -974 0
49 -952 -975 0
49 -952 -976 0
49 -953 -973 0
49 -953 -974 0
49 -953 -975 0
49 -953 -976 0
49 -953 -977 0
49 -954 -974 0
49 -954 -975 0
49 -954 -976 0
49 -954 -977 0
49 -954 -978 0
49 -950 -1002 0
49 -951 -1002 0
49 -951 -1003 0
49 -952 -1002 0
49 -952 -1003 0
49 -952 -1004 0
49 -953 -1002 0
49 -953 -1003 0
49 -953 -1004 0
49 -953 -1005 0
49 -954 -1002 0
49 -954 -1003 0
49 -954 -1004 0
49 -954 -1005 0
49 -954 -1006 0
49 -955 959 0
49 -956 960 0
49 -957 961 0
49 -958 962 0
49 -955 -1580 0
49 -963 966 0
49 -964 967 0
49 -965 968 0
49 -966 -1398 0
49 -966 -1399 0
49 -967 -1399 0
49 -969 1002 0
49 -970 1003 0
49 -971 1004 0
49 -972 1005 0
49 -973 1006 0
49 -974 1007 0
49 -975 1008 0
49 -976 1009 0
49 -977 1010 0
49 -978 1011 0
49 -979 1012 0
49 -980 1024 0
49 -981 1025 0
49 -982 1026 0
49 -983 1027 0
49 -984 1028 0
49 -985 1029 0
49 -986 1030 0
49 -987 1031 0
49 -988 1032 0
49 -989 1033 0
49 -990 1034 0
49 -991 1013 0
49 -992 1014 0
49 -993 1015 0
49 -994 1016 0
49 -995 1017 0
49 -996 1018 0
49 -997 1019 0
49 -998 1020 0
49 -999 1021 0
49 -1000 1022 0
49 -1001 1023 0
49 -1035 1036 0
49 -1037 1038 0
49 -1039 1040 0
49 -1041 1043 0
49 -1042 1044 0
49 -1045 1053 0
49 -1046 1054 0
49 -1047 1055 0
49 -1048 1056 0
49 -1049 1057 0
49 -1050 1058 0
49 -1051 1059 0
49 -1052 1060 0
49 -1045 -1702 0
49 -1045 -1703 0
49 -1045 -1704 0
49 -1046 -1703 0
49 -1046 -1704 0
49 -1047 -1704 0
49 -1061 1062 0
49 -1063 1081 0
49 -1064 1091 0
49 -1065 1092 0
49 -1066 1093 0
49 -1067 1094 0
49 -1068 1095 0
49 -1069 1096 0
49 -1070 1097 0
49 -1071 1098 0
49 -1072 1082 0
49 -1073 1083 0
49 -1074 1084 0
49 -1075 1085 0
49 -1076 1086 0
49 -1077 1087 0
49 -1078 1088 0
49 -1079 1089 0
49 -1080 1090 0
49 -1063 -1099 0
49 -1063 -1100 0
49 -1063 -1101 0
49 -1063 -1102 0
49 -1063 -1103 0
49 -1063 -1104 0
49 -1063 -1105 0
49 -1063 -1106 0
49 -1063 -1107 0
49 -1063 -1108 0
49 -1063 -1109 0
49 -1063 -1110 0
49 -1063 -1111 0
49 -1063 -1112 0
49 -1063 -1113 0
49 -1063 -1114 0
49 -1063 -1115 0
49 -1064 -1107 0
49 -1064 -1108 0
49 -1064 -1109 0
49 -1064 -1110 0
49 -1064 -1111 0
49 -1064 -1112 0
49 -1064 -1113 0
49 -1064 -1114 0
49 -1064 -1115 0
49 -1064 -1116 0
49 -1064 -1117 0
49 -1064 -1118 0
49 -1064 -1119 0
49 -1064 -1120 0
49 -1064 -1121 0
49 -1064 -1122 0
49 -1064 -1123 0
49 -1064 -1124 0
49 -1065 -1107 0
49 -1065 -1108 0
49 -1065 -1109 0
49 -1065 -1110 0
49 -1065 -1111 0
49 -1065 -1112 0
49 -1065 -1113 0
49 -1065 -1114 0
49 -1065 -1115 0
49 -1065 -1116 0
49 -1065 -1117 0
49 -1065 -1118 0
49 -1065 -1119 0
49 -1065 -1120 0
49 -1065 -1121 0
49 -1065 -1122 0
49 -1065 -1123 0
49 -1065 -1124 0
49 -1066 -1107 0
49 -1066 -1108 0
49 -1066 -1109 0
49 -1066 -1110 0
49 -1066 -1111 0
49 -1066 -1112 0
49 -1066 -1113 0
49 -1066 -1114 0
49 -1066 -1115 0
49 -1066 -1116 0
49 -1066 -1117 0
49 -1066 -1118 0
49 -1066 -1119 0
49 -1066 -1120 0
49 -1066 -1121 0
49 -1066 -1122 0
49 -1066 -1123 0
49 -1066 -1124 0
49 -1067 -1107 0
49 -1067 -1108 0
49 -1067 -1109 0
49 -1067 -1110 0
49 -1067 -1111 0
49 -1067 -1112 0
49 -1067 -1113 0
49 -1067 -1114 0
49 -1067 -1115 0
49 -1067 -1116 0
49 -1067 -1117 0
49 -1067 -1118 0
49 -1067 -1119 0
49 -1067 -1120 0
49 -1067 -1121 0
49 -1067 -1122 0
49 -1067 -1123 0
49 -1067 -1124 0
49 -1068 -1107 0
49 -1068 -1108 0
49 -1068 -1109 0
49 -1068 -1110 0
49 -1068 -1111 0
49 -1068 -1112 0
49 -1068 -1113 0
49 -1068 -1114 0
49 -1068 -1115 0
49 -1068 -1116 0
49 -1068 -1117 0
49 -1068 -1118 0
49 -1068 -1119 0
49 -1068 -1120 0
49 -1068 -1121 0
49 -1068 -1122 0
49 -1068 -1123 0
49 -1068 -1124 0
49 -1069 -1107 0
49 -1069 -1108 0
49 -1069 -1109 0
49 -1069 -1110 0
49 -1069 -1111 0
49 -1069 -1112 0
49 -1069 -1113 0
49 -1069 -1114 0
49 -1069 -1115 0
49 -1069 -1116 0
49 -1069 -1117 0
49 -1069 -1118 0
49 -1069 -1119 0
49 -1069 -1120 0
49 -1069 -1121 0
49 -1069 -1122 0
49 -1069 -1123 0
49 -1069 -1124 0
49 -1070 -1107 0
49 -1070 -1108 0
49 -1070 -1109 0
49 -1070 -1110 0
49 -1070 -1111 0
49 -1070 -1112 0
49 -1070 -1113 0
49 -1070 -1114 0
49 -1070 -1115 0
49 -1070 -1116 0
49 -1070 -1117 0
49 -1070 -1118 0
49 -1070 -1119 0
49 -1070 -1120 0
49 -1070 -1121 0
49 -1070 -1122 0
49 -1070 -1123 0
49 -1070 -1124 0
49 -1071 -1108 0
49 -1071 -1109 0
49 -1071 -1110 0
49 -1071 -1111 0
49 -1071 -1112 0
49 -1071 -1113 0
49 -1071 -1114 0
49 -1071 -1115 0
49 -1071 -1116 0
49 -1071 -1117 0
49 -1071 -1118 0
49 -1071 -1119 0
49 -1071 -1120 0
49 -1071 -1121 0
49 -1071 -1122 0
49 -1071 -1123 0
49 -1071 -1124 0
49 -1072 -1116 0
49 -1072 -1117 0
49 -1072 -1118 0
49 -1072 -1119 0
49 -1072 -1120 0
49 -1072 -1121 0
49 -1072 -1122 0
49 -1072 -1123 0
49 -1072 -1124 0
49 -1073 -1116 0
49 -1073 -1117 0
49 -1073 -1118 0
49 -1073 -1119 0
49 -1073 -1120 0
49 -1073 -1121 0
49 -1073 -1122 0
49 -1073 -1123 0
49 -1073 -1124 0
49 -1074 -1117 0
49 -1074 -1118 0
49 -1074 -1119 0
49 -1074 -1120 0
49 -1074 -1121 0
49 -1074 -1122 0
49 -1074 -1123 0
49 -1074 -1124 0
49 -1075 -1118 0
49 -1075 -1119 0
49 -1075 -1120 0
49 -1075 -1121 0
49 -1075 -1122 0
49 -1075 -1123 0
49 -1075 -1124 0
49 -1076 -1119 0
49 -1076 -1120 0
49 -1076 -1121 0
49 -1076 -1122 0
49 -1076 -1123 0
49 -1076 -1124 0
49 -1077 -1120 0
49 -1077 -1121 0
49 -1077 -1122 0
49 -1077 -1123 0
49 -1077 -1124 0
49 -1078 -1121 0
49 -1078 -1122 0
49 -1078 -1123 0
49 -1078 -1124 0
49 -1079 -1122 0
49 -1079 -1123 0
49 -1079 -1124 0
49 -1080 -1123 0
49 -1080 -1124 0
49 -1063 -1125 0
49 -1063 -1126 0
49 -1063 -1127 0
49 -1063 -1128 0
49 -1063 -1129 0
49 -1063 -1130 0
49 -1063 -1131 0
49 -1063 -1132 0
49 -1063 -1133 0
49 -1063 -1134 0
49 -1063 -1135 0
49 -1063 -1136 0
49 -1063 -1137 0
49 -1063 -1138 0
49 -1063 -1139 0
49 -1063 -1140 0
49 -1063 -1141 0
49 -1064 -1126 0
49 -1064 -1127 0
49 -1064 -1128 0
49 -1064 -1129 0
49 -1064 -1130 0
49 -1064 -1131 0
49 -1064 -1132 0
49 -1064 -1133 0
49 -1064 -1134 0
49 -1064 -1135 0
49 -1064 -1136 0
49 -1064 -1137 0
49 -1064 -1138 0
49 -1064 -1139 0
49 -1064 -1140 0
49 -1064 -1141 0
49 -1064 -1142 0
49 -1064 -1143 0
49 -1064 -1144 0
49 -1064 -1145 0
49 -1064 -1146 0
49 -1064 -1147 0
49 -1064 -1148 0
49 -1064 -1149 0
49 -1064 -1150 0
49 -1065 -1127 0
49 -1065 -1128 0
49 -1065 -1129 0
49 -1065 -1130 0
49 -1065 -1131 0
49 -1065 -1132 0
49 -1065 -1133 0
49 -1065 -1134 0
49 -1065 -1135 0
49 -1065 -1136 0
49 -1065 -1137 0
49 -1065 -1138 0
49 -1065 -1139 0
49 -1065 -1140 0
49 -1065 -1141 0
49 -1065 -1142 0
49 -1065 -1143 0
49 -1065 -1144 0
49 -1065 -1145 0
49 -1065 -1146 0
49 -1065 -1147 0
49 -1065 -1148 0
49 -1065 -1149 0
49 -1065 -1150 0
49 -1066 -1128 0
49 -1066 -1129 0
49 -1066 -1130 0
49 -1066 -1131 0
49 -1066 -1132 0
49 -1066 -1133 0
49 -1066 -1134 0
49 -1066 -1135 0
49 -1066 -1136 0
49 -1066 -1137 0
49 -1066 -1138 0
49 -1066 -1139 0
49 -1066 -1140 0
49 -1066 -1141 0
49 -1066 -1142 0
49 -1066 -1143 0
49 -1066 -1144 0
49 -1066 -1145 0
49 -1066 -1146 0
49 -1066 -1147 0
49 -1066 -1148 0
49 -1066 -1149 0
49 -1066 -1150 0
49 -1067 -1129 0
49 -1067 -1130 0
49 -1067 -1131 0
49 -1067 -1132 0
49 -1067 -1133 0
49 -1067 -1134 0
49 -1067 -1135 0
49 -1067 -1136 0
49 -1067 -1137 0
49 -1067 -1138 0
49 -1067 -1139 0
49 -1067 -1140 0
49 -1067 -1141 0
49 -1067 -1142 0
49 -1067 -1143 0
49 -1067 -1144 0
49 -1067 -1145 0
49 -1067 -1146 0
49 -1067 -1147 0
49 -1067 -1148 0
49 -1067 -1149 0
49 -1067 -1150 0
49 -1068 -1130 0
49 -1068 -1131 0
49 -1068 -1132 0
49 -1068 -1133 0
49 -1068 -1134 0
49 -1068 -1135 0
49 -1068 -1136 0
49 -1068 -1137 0
49 -1068 -1138 0
49 -1068 -1139 0
49 -1068 -1140 0
49 -1068 -1141 0
49 -1068 -1142 0
49 -1068 -1143 0
49 -1068 -1144 0
49 -1068 -1145 0
49 -1068 -1146 0
49 -1068 -1147 0
49 -1068 -1148 0
49 -1068 -1149 0
49 -1068 -1150 0
49 -1069 -1131 0
49 -1069 -1132 0
49 -1069 -1133 0
49 -1069 -1134 0
49 -1069 -1135 0
49 -1069 -1136 0
49 -1069 -1137 0
49 -1069 -1138 0
49 -1069 -1139 0
49 -1069 -1140 0
49 -1069 -1141 0
49 -1069 -1142 0
49 -1069 -1143 0
49 -1069 -1144 0
49 -1069 -1145 0
49 -1069 -1146 0
49 -1069 -1147 0
49 -1069 -1148 0
49 -1069 -1149 0
49 -1069 -1150 0
49 -1070 -1132 0
49 -1070 -1133 0
49 -1070 -1134 0
49 -1070 -1135 0
49 -1070 -1136 0
49 -1070 -1137 0
49 -1070 -1138 0
49 -1070 -1139 0
49 -1070 -1140 0
49 -1070 -1141 0
49 -1070 -1142 0
49 -1070 -1143 0
49 -1070 -1144 0
49 -1070 -1145 0
49 -1070 -1146 0
49 -1070 -1147 0
49 -1070 -1148 0
49 -1070 -1149 0
49 -1070 -1150 0
49 -1071 -1133 0
49 -1071 -1134 0
49 -1071 -1135 0
49 -1071 -1136 0
49 -1071 -1137 0
49 -1071 -1138 0
49 -1071 -1139 0
49 -1071 -1140 0
49 -1071 -1141 0
49 -1071 -1142 0
49 -1071 -1143 0
49 -1071 -1144 0
49 -1071 -1145 0
49 -1071 -1146 0
49 -1071 -1147 0
49 -1071 -1148 0
49 -1071 -1149 0
49 -1071 -1150 0
49 -1072 -1134 0
49 -1072 -1135 0
49 -1072 -1136 0
49 -1072 -1137 0
49 -1072 -1138 0
49 -1072 -1139 0
49 -1072 -1140 0
49 -1072 -1141 0
49 -1072 -1142 0
49 -1072 -1143 0
49 -1072 -1144 0
49 -1072 -1145 0
49 -1072 -1146 0
49 -1072 -1147 0
49 -1072 -1148 0
49 -1072 -1149 0
49 -1072 -1150 0
49 -1073 -1135 0
49 -1073 -1136 0
49 -1073 -1137 0
49 -1073 -1138 0
49 -1073 -1139 0
49 -1073 -1140 0
49 -1073 -1141 0
49 -1073 -1142 0
49 -1073 -1143 0
49 -1073 -1144 0
49 -1073 -1145 0
49 -1073 -1146 0
49 -1073 -1147 0
49 -1073 -1148 0
49 -1073 -1149 0
49 -1073 -1150 0
49 -1074 -1136 0
49 -1074 -1137 0
49 -1074 -1138 0
49 -1074 -1139 0
49 -1074 -1140 0
49 -1074 -1141 0
49 -1074 -1142 0
49 -1074 -1143 0
49 -1074 -1144 0
49 -1074 -1145 0
49 -1074 -1146 0
49 -1074 -1147 0
49 -1074 -1148 0
49 -1074 -1149 0
49 -1074 -1150 0
49 -1075 -1137 0
49 -1075 -1138 0
49 -1075 -1139 0
49 -1075 -1140 0
49 -1075 -1141 0
49 -1075 -1142 0
49 -1075 -1143 0
49 -1075 -1144 0
49 -1075 -1145 0
49 -1075 -1146 0
49 -1075 -1147 0
49 -1075 -1148 0
49 -1075 -1149 0
49 -1075 -1150 0
49 -1076 -1138 0
49 -1076 -1139 0
49 -1076 -1140 0
49 -1076 -1141 0
49 -1076 -1142 0
49 -1076 -1143 0
49 -1076 -1144 0
49 -1076 -1145 0
49 -1076 -1146 0
49 -1076 -1147 0
49 -1076 -1148 0
49 -1076 -1149 0
49 -1076 -1150 0
49 -1077 -1139 0
49 -1077 -1140 0
49 -1077 -1141 0
49 -1077 -1142 0
49 -1077 -1143 0
49 -1077 -1144 0
49 -1077 -1145 0
49 -1077 -1146 0
49 -1077 -1147 0
49 -1077 -1148 0
49 -1077 -1149 0
49 -1077 -1150 0
49 -1078 -1140 0
49 -1078 -1141 0
49 -1078 -1142 0
49 -1078 -1143 0
49 -1078 -1144 0
49 -1078 -1145 0
49 -1078 -1146 0
49 -1078 -1147 0
49 -1078 -1148 0
49 -1078 -1149 0
49 -1078 -1150 0
49 -1079 -1141 0
49 -1079 -1142 0
49 -1079 -1143 0
49 -1079 -1144 0
49 -1079 -1145 0
49 -1079 -1146 0
49 -1079 -1147 0
49 -1079 -1148 0
49 -1079 -1149 0
49 -1079 -1150 0
49 -1080 -1142 0
49 -1080 -1143 0
49 -1080 -1144 0
49 -1080 -1145 0
49 -1080 -1146 0
49 -1080 -1147 0
49 -1080 -1148 0
49 -1080 -1149 0
49 -1080 -1150 0
49 -1081 -1109 0
49 -1081 -1110 0
49 -1081 -1111 0
49 -1081 -1112 0
49 -1081 -1113 0
49 -1081 -1114 0
49 -1081 -1115 0
49 -1081 -1116 0
49 -1081 -1117 0
49 -1081 -1118 0
49 -1082 -1113 0
49 -1082 -1114 0
49 -1082 -1115 0
49 -1082 -1116 0
49 -1082 -1117 0
49 -1082 -1118 0
49 -1082 -1119 0
49 -1082 -1120 0
49 -1082 -1121 0
49 -1082 -1122 0
49 -1083 -1114 0
49 -1083 -1115 0
49 -1083 -1116 0
49 -1083 -1117 0
49 -1083 -1118 0
49 -1083 -1119 0
49 -1083 -1120 0
49 -1083 -1121 0
49 -1083 -1122 0
49 -1083 -1123 0
49 -1084 -1115 0
49 -1084 -1116 0
49 -1084 -1117 0
49 -1084 -1118 0
49 -1084 -1119 0
49 -1084 -1120 0
49 -1084 -1121 0
49 -1084 -1122 0
49 -1084 -1123 0
49 -1084 -1124 0
49 -1085 -1116 0
49 -1085 -1117 0
49 -1085 -1118 0
49 -1085 -1119 0
49 -1085 -1120 0
49 -1085 -1121 0
49 -1085 -1122 0
49 -1085 -1123 0
49 -1085 -1124 0
49 -1086 -1116 0
49 -1086 -1117 0
49 -1086 -1118 0
49 -1086 -1119 0
49 -1086 -1120 0
49 -1086 -1121 0
49 -1086 -1122 0
49 -1086 -1123 0
49 -1086 -1124 0
49 -1087 -1116 0
49 -1087 -1117 0
49 -1087 -1118 0
49 -1087 -1119 0
49 -1087 -1120 0
49 -1087 -1121 0
49 -1087 -1122 0
49 -1087 -1123 0
49 -1087 -1124 0
49 -1088 -1116 0
49 -1088 -1117 0
49 -1088 -1118 0
49 -1088 -1119 0
49 -1088 -1120 0
49 -1088 -1121 0
49 -1088 -1122 0
49 -1088 -1123 0
49 -1088 -1124 0
49 -1089 -1117 0
49 -1089 -1118 0
49 -1089 -1119 0
49 -1089 -1120 0
49 -1089 -1121 0
49 -1089 -1122 0
49 -1089 -1123 0
49 -1089 -1124 0
49 -1090 -1118 0
49 -1090 -1119 0
49 -1090 -1120 0
49 -1090 -1121 0
49 -1090 -1122 0
49 -1090 -1123 0
49 -1090 -1124 0
49 -1081 -1132 0
49 -1081 -1133 0
49 -1081 -1134 0
49 -1081 -1135 0
49 -1081 -1136 0
49 -1081 -1137 0
49 -1081 -1138 0
49 -1081 -1139 0
49 -1081 -1140 0
49 -1081 -1141 0
49 -1082 -1134 0
49 -1082 -1135 0
49 -1082 -1136 0
49 -1082 -1137 0
49 -1082 -1138 0
49 -1082 -1139 0
49 -1082 -1140 0
49 -1082 -1141 0
49 -1082 -1142 0
49 -1082 -1143 0
49 -1083 -1134 0
49 -1083 -1135 0
49 -1083 -1136 0
49 -1083 -1137 0
49 -1083 -1138 0
49 -1083 -1139 0
49 -1083 -1140 0
49 -1083 -1141 0
49 -1083 -1142 0
49 -1083 -1143 0
49 -1083 -1144 0
49 -1084 -1134 0
49 -1084 -1135 0
49 -1084 -1136 0
49 -1084 -1137 0
49 -1084 -1138 0
49 -1084 -1139 0
49 -1084 -1140 0
49 -1084 -1141 0
49 -1084 -1142 0
49 -1084 -1143 0
49 -1084 -1144 0
49 -1084 -1145 0
49 -1085 -1134 0
49 -1085 -1135 0
49 -1085 -1136 0
49 -1085 -1137 0
49 -1085 -1138 0
49 -1085 -1139 0
49 -1085 -1140 0
49 -1085 -1141 0
49 -1085 -1142 0
49 -1085 -1143 0
49 -1085 -1144 0
49 -1085 -1145 0
49 -1085 -1146 0
49 -1086 -1134 0
49 -1086 -1135 0
49 -1086 -1136 0
49 -1086 -1137 0
49 -1086 -1138 0
49 -1086 -1139 0
49 -1086 -1140 0
49 -1086 -1141 0
49 -1086 -1142 0
49 -1086 -1143 0
49 -1086 -1144 0
49 -1086 -1145 0
49 -1086 -1146 0
49 -1086 -1147 0
49 -1087 -1134 0
49 -1087 -1135 0
49 -1087 -1136 0
49 -1087 -1137 0
49 -1087 -1138 0
49 -1087 -1139 0
49 -1087 -1140 0
49 -1087 -1141 0
49 -1087 -1142 0
49 -1087 -1143 0
49 -1087 -1144 0
49 -1087 -1145 0
49 -1087 -1146 0
49 -1087 -1147 0
49 -1087 -1148 0
49 -1088 -1134 0
49 -1088 -1135 0
49 -1088 -1136 0
49 -1088 -1137 0
49 -1088 -1138 0
49 -1088 -1139 0
49 -1088 -1140 0
49 -1088 -1141 0
49 -1088 -1142 0
49 -1088 -1143 0
49 -1088 -1144 0
49 -1088 -1145 0
49 -1088 -1146 0
49 -1088 -1147 0
49 -1088 -1148 0
49 -1088 -1149 0
49 -1089 -1134 0
49 -1089 -1135 0
49 -1089 -1136 0
49 -1089 -1137 0
49 -1089 -1138 0
49 -1089 -1139 0
49 -1089 -1140 0
49 -1089 -1141 0
49 -1089 -1142 0
49 -1089 -1143 0
49 -1089 -1144 0
49 -1089 -1145 0
49 -1089 -1146 0
49 -1089 -1147 0
49 -1089 -1148 0
49 -1089 -1149 0
49 -1089 -1150 0
49 -1090 -1135 0
49 -1090 -1136 0
49 -1090 -1137 0
49 -1090 -1138 0
49 -1090 -1139 0
49 -1090 -1140 0
49 -1090 -1141 0
49 -1090 -1142 0
49 -1090 -1143 0
49 -1090 -1144 0
49 -1090 -1145 0
49 -1090 -1146 0
49 -1090 -1147 0
49 -1090 -1148 0
49 -1090 -1149 0
49 -1090 -1150 0
49 -1091 -1142 0
49 -1091 -1143 0
49 -1091 -1144 0
49 -1091 -1145 0
49 -1091 -1146 0
49 -1091 -1147 0
49 -1091 -1148 0
49 -1091 -1149 0
49 -1091 -1150 0
49 -1092 -1142 0
49 -1092 -1143 0
49 -1092 -1144 0
49 -1092 -1145 0
49 -1092 -1146 0
49 -1092 -1147 0
49 -1092 -1148 0
49 -1092 -1149 0
49 -1092 -1150 0
49 -1093 -1142 0
49 -1093 -1143 0
49 -1093 -1144 0
49 -1093 -1145 0
49 -1093 -1146 0
49 -1093 -1147 0
49 -1093 -1148 0
49 -1093 -1149 0
49 -1093 -1150 0
49 -1094 -1142 0
49 -1094 -1143 0
49 -1094 -1144 0
49 -1094 -1145 0
49 -1094 -1146 0
49 -1094 -1147 0
49 -1094 -1148 0
49 -1094 -1149 0
49 -1094 -1150 0
49 -1095 -1142 0
49 -1095 -1143 0
49 -1095 -1144 0
49 -1095 -1145 0
49 -1095 -1146 0
49 -1095 -1147 0
49 -1095 -1148 0
49 -1095 -1149 0
49 -1095 -1150 0
49 -1096 -1142 0
49 -1096 -1143 0
49 -1096 -1144 0
49 -1096 -1145 0
49 -1096 -1146 0
49 -1096 -1147 0
49 -1096 -1148 0
49 -1096 -1149 0
49 -1096 -1150 0
49 -1097 -1142 0
49 -1097 -1143 0
49 -1097 -1144 0
49 -1097 -1145 0
49 -1097 -1146 0
49 -1097 -1147 0
49 -1097 -1148 0
49 -1097 -1149 0
49 -1097 -1150 0
49 -1098 -1142 0
49 -1098 -1143 0
49 -1098 -1144 0
49 -1098 -1145 0
49 -1098 -1146 0
49 -1098 -1147 0
49 -1098 -1148 0
49 -1098 -1149 0
49 -1098 -1150 0
49 -1099 1134 0
49 -1100 1135 0
49 -1101 1136 0
49 -1102 1137 0
49 -1103 1138 0
49 -1104 1139 0
49 -1105 1140 0
49 -1106 1141 0
49 -1107 1125 0
49 -1108 1126 0
49 -1109 1127 0
49 -1110 1128 0
49 -1111 1129 0
49 -1112 1130 0
49 -1113 1131 0
49 -1114 1132 0
49 -1115 1133 0
49 -1116 1142 0
49 -1117 1143 0
49 -1118 1144 0
49 -1119 1145 0
49 -1120 1146 0
49 -1121 1147 0
49 -1122 1148 0
49 -1123 1149 0
49 -1124 1150 0
49 -1099 -1151 0
49 -1099 -1152 0
49 -1099 -1153 0
49 -1099 -1154 0
49 -1099 -1155 0
49 -1099 -1156 0
49 -1099 -1157 0
49 -1099 -1158 0
49 -1099 -1159 0
49 -1100 -1151 0
49 -1100 -1152 0
49 -1100 -1153 0
49 -1100 -1154 0
49 -1100 -1155 0
49 -1100 -1156 0
49 -1100 -1157 0
49 -1100 -1158 0
49 -1100 -1159 0
49 -1101 -1151 0
49 -1101 -1152 0
49 -1101 -1153 0
49 -1101 -1154 0
49 -1101 -1155 0
49 -1101 -1156 0
49 -1101 -1157 0
49 -1101 -1158 0
49 -1101 -1159 0
49 -1102 -1151 0
49 -1102 -1152 0
49 -1102 -1153 0
49 -1102 -1154 0
49 -1102 -1155 0
49 -1102 -1156 0
49 -1102 -1157 0
49 -1102 -1158 0
49 -1102 -1159 0
49 -1103 -1151 0
49 -1103 -1152 0
49 -1103 -1153 0
49 -1103 -1154 0
49 -1103 -1155 0
49 -1103 -1156 0
49 -1103 -1157 0
49 -1103 -1158 0
49 -1103 -1159 0
49 -1104 -1151 0
49 -1104 -1152 0
49 -1104 -1153 0
49 -1104 -1154 0
49 -1104 -1155 0
49 -1104 -1156 0
49 -1104 -1157 0
49 -1104 -1158 0
49 -1104 -1159 0
49 -1105 -1151 0
49 -1105 -1152 0
49 -1105 -1153 0
49 -1105 -1154 0
49 -1105 -1155 0
49 -1105 -1156 0
49 -1105 -1157 0
49 -1105 -1158 0
49 -1105 -1159 0
49 -1106 -1151 0
49 -1106 -1152 0
49 -1106 -1153 0
49 -1106 -1154 0
49 -1106 -1155 0
49 -1106 -1156 0
49 -1106 -1157 0
49 -1106 -1158 0
49 -1106 -1159 0
49 -1107 -1160 0
49 -1107 -1161 0
49 -1107 -1162 0
49 -1107 -1163 0
49 -1107 -1164 0
49 -1107 -1165 0
49 -1107 -1166 0
49 -1107 -1167 0
49 -1108 -1160 0
49 -1108 -1161 0
49 -1108 -1162 0
49 -1108 -1163 0
49 -1108 -1164 0
49 -1108 -1165 0
49 -1108 -1166 0
49 -1108 -1167 0
49 -1109 -1160 0
49 -1109 -1161 0
49 -1109 -1162 0
49 -1109 -1163 0
49 -1109 -1164 0
49 -1109 -1165 0
49 -1109 -1166 0
49 -1109 -1167 0
49 -1110 -1160 0
49 -1110 -1161 0
49 -1110 -1162 0
49 -1110 -1163 0
49 -1110 -1164 0
49 -1110 -1165 0
49 -1110 -1166 0
49 -1110 -1167 0
49 -1111 -1160 0
49 -1111 -1161 0
49 -1111 -1162 0
49 -1111 -1163 0
49 -1111 -1164 0
49 -1111 -1165 0
49 -1111 -1166 0
49 -1111 -1167 0
49 -1112 -1160 0
49 -1112 -1161 0
49 -1112 -1162 0
49 -1112 -1163 0
49 -1112 -1164 0
49 -1112 -1165 0
49 -1112 -1166 0
49 -1112 -1167 0
49 -1113 -1160 0
49 -1113 -1161 0
49 -1113 -1162 0
49 -1113 -1163 0
49 -1113 -1164 0
49 -1113 -1165 0
49 -1113 -1166 0
49 -1113 -1167 0
49 -1114 -1160 0
49 -1114 -1161 0
49 -1114 -1162 0
49 -1114 -1163 0
49 -1114 -1164 0
49 -1114 -1165 0
49 -1114 -1166 0
49 -1114 -1167 0
49 -1115 -1160 0
49 -1115 -1161 0
49 -1115 -1162 0
49 -1115 -1163 0
49 -1115 -1164 0
49 -1115 -1165 0
49 -1115 -1166 0
49 -1115 -1167 0
49 -1116 -1163 0
49 -1116 -1164 0
49 -1116 -1165 0
49 -1116 -1166 0
49 -1116 -1167 0
49 -1117 -1164 0
49 -1117 -1165 0
49 -1117 -1166 0
49 -1117 -1167 0
49 -1118 -1165 0
49 -1118 -1166 0
49 -1118 -1167 0
49 -1119 -1166 0
49 -1119 -1167 0
49 -1120 -1167 0
49 -1099 -1170 0
49 -1099 -1171 0
49 -1099 -1172 0
49 -1099 -1173 0
49 -1099 -1174 0
49 -1100 -1170 0
49 -1100 -1171 0
49 -1100 -1172 0
49 -1100 -1173 0
49 -1100 -1174 0
49 -1100 -1175 0
49 -1101 -1170 0
49 -1101 -1171 0
49 -1101 -1172 0
49 -1101 -1173 0
49 -1101 -1174 0
49 -1101 -1175 0
49 -1101 -1176 0
49 -1102 -1170 0
49 -1102 -1171 0
49 -1102 -1172 0
49 -1102 -1173 0
49 -1102 -1174 0
49 -1102 -1175 0
49 -1102 -1176 0
49 -1102 -1177 0
49 -1103 -1170 0
49 -1103 -1171 0
49 -1103 -1172 0
49 -1103 -1173 0
49 -1103 -1174 0
49 -1103 -1175 0
49 -1103 -1176 0
49 -1103 -1177 0
49 -1104 -1171 0
49 -1104 -1172 0
49 -1104 -1173 0
49 -1104 -1174 0
49 -1104 -1175 0
49 -1104 -1176 0
49 -1104 -1177 0
49 -1105 -1172 0
49 -1105 -1173 0
49 -1105 -1174 0
49 -1105 -1175 0
49 -1105 -1176 0
49 -1105 -1177 0
49 -1106 -1173 0
49 -1106 -1174 0
49 -1106 -1175 0
49 -1106 -1176 0
49 -1106 -1177 0
49 -1107 -1178 0
49 -1107 -1179 0
49 -1107 -1180 0
49 -1107 -1181 0
49 -1107 -1182 0
49 -1108 -1178 0
49 -1108 -1179 0
49 -1108 -1180 0
49 -1108 -1181 0
49 -1108 -1182 0
49 -1108 -1183 0
49 -1109 -1178 0
49 -1109 -1179 0
49 -1109 -1180 0
49 -1109 -1181 0
49 -1109 -1182 0
49 -1109 -1183 0
49 -1109 -1184 0
49 -1110 -1178 0
49 -1110 -1179 0
49 -1110 -1180 0
49 -1110 -1181 0
49 -1110 -1182 0
49 -1110 -1183 0
49 -1110 -1184 0
49 -1110 -1185 0
49 -1111 -1178 0
49 -1111 -1179 0
49 -1111 -1180 0
49 -1111 -1181 0
49 -1111 -1182 0
49 -1111 -1183 0
49 -1111 -1184 0
49 -1111 -1185 0
49 -1111 -1186 0
49 -1112 -1179 0
49 -1112 -1180 0
49 -1112 -1181 0
49 -1112 -1182 0
49 -1112 -1183 0
49 -1112 -1184 0
49 -1112 -1185 0
49 -1112 -1186 0
49 -1113 -1180 0
49 -1113 -1181 0
49 -1113 -1182 0
49 -1113 -1183 0
49 -1113 -1184 0
49 -1113 -1185 0
49 -1113 -1186 0
49 -1114 -1181 0
49 -1114 -1182 0
49 -1114 -1183 0
49 -1114 -1184 0
49 -1114 -1185 0
49 -1114 -1186 0
49 -1115 -1182 0
49 -1115 -1183 0
49 -1115 -1184 0
49 -1115 -1185 0
49 -1115 -1186 0
49 -1115 -1187 0
49 -1116 -1186 0
49 -1116 -1187 0
49 -1116 -1188 0
49 -1117 -1187 0
49 -1117 -1188 0
49 -1118 -1187 0
49 -1118 -1188 0
49 -1119 -1187 0
49 -1119 -1188 0
49 -1120 -1187 0
49 -1120 -1188 0
49 -1121 -1188 0
49 -1125 -1151 0
49 -1125 -1152 0
49 -1125 -1153 0
49 -1125 -1154 0
49 -1125 -1155 0
49 -1126 -1151 0
49 -1126 -1152 0
49 -1126 -1153 0
49 -1126 -1154 0
49 -1126 -1155 0
49 -1126 -1156 0
49 -1127 -1151 0
49 -1127 -1152 0
49 -1127 -1153 0
49 -1127 -1154 0
49 -1127 -1155 0
49 -1127 -1156 0
49 -1127 -1157 0
49 -1128 -1151 0
49 -1128 -1152 0
49 -1128 -1153 0
49 -1128 -1154 0
49 -1128 -1155 0
49 -1128 -1156 0
49 -1128 -1157 0
49 -1128 -1158 0
49 -1129 -1151 0
49 -1129 -1152 0
49 -1129 -1153 0
49 -1129 -1154 0
49 -1129 -1155 0
49 -1129 -1156 0
49 -1129 -1157 0
49 -1129 -1158 0
49 -1129 -1159 0
49 -1130 -1152 0
49 -1130 -1153 0
49 -1130 -1154 0
49 -1130 -1155 0
49 -1130 -1156 0
49 -1130 -1157 0
49 -1130 -1158 0
49 -1130 -1159 0
49 -1131 -1153 0
49 -1131 -1154 0
49 -1131 -1155 0
49 -1131 -1156 0
49 -1131 -1157 0
49 -1131 -1158 0
49 -1131 -1159 0
49 -1132 -1154 0
49 -1132 -1155 0
49 -1132 -1156 0
49 -1132 -1157 0
49 -1132 -1158 0
49 -1132 -1159 0
49 -1133 -1155 0
49 -1133 -1156 0
49 -1133 -1157 0
49 -1133 -1158 0
49 -1133 -1159 0
49 -1134 -1160 0
49 -1134 -1161 0
49 -1134 -1162 0
49 -1134 -1163 0
49 -1134 -1164 0
49 -1135 -1160 0
49 -1135 -1161 0
49 -1135 -1162 0
49 -1135 -1163 0
49 -1135 -1164 0
49 -1135 -1165 0
49 -1136 -1160 0
49 -1136 -1161 0
49 -1136 -1162 0
49 -1136 -1163 0
49 -1136 -1164 0
49 -1136 -1165 0
49 -1136 -1166 0
49 -1137 -1160 0
49 -1137 -1161 0
49 -1137 -1162 0
49 -1137 -1163 0
49 -1137 -1164 0
49 -1137 -1165 0
49 -1137 -1166 0
49 -1137 -1167 0
49 -1138 -1160 0
49 -1138 -1161 0
49 -1138 -1162 0
49 -1138 -1163 0
49 -1138 -1164 0
49 -1138 -1165 0
49 -1138 -1166 0
49 -1138 -1167 0
49 -1139 -1161 0
49 -1139 -1162 0
49 -1139 -1163 0
49 -1139 -1164 0
49 -1139 -1165 0
49 -1139 -1166 0
49 -1139 -1167 0
49 -1140 -1162 0
49 -1140 -1163 0
49 -1140 -1164 0
49 -1140 -1165 0
49 -1140 -1166 0
49 -1140 -1167 0
49 -1141 -1163 0
49 -1141 -1164 0
49 -1141 -1165 0
49 -1141 -1166 0
49 -1141 -1167 0
49 -1142 -1168 0
49 -1142 -1169 0
49 -1143 -1168 0
49 -1143 -1169 0
49 -1144 -1168 0
49 -1144 -1169 0
49 -1145 -1168 0
49 -1145 -1169 0
49 -1146 -1168 0
49 -1146 -1169 0
49 -1147 -1169 0
49 -1125 -1170 0
49 -1125 -1171 0
49 -1125 -1172 0
49 -1125 -1173 0
49 -1125 -1174 0
49 -1125 -1175 0
49 -1125 -1176 0
49 -1125 -1177 0
49 -1126 -1170 0
49 -1126 -1171 0
49 -1126 -1172 0
49 -1126 -1173 0
49 -1126 -1174 0
49 -1126 -1175 0
49 -1126 -1176 0
49 -1126 -1177 0
49 -1126 -1178 0
49 -1127 -1170 0
49 -1127 -1171 0
49 -1127 -1172 0
49 -1127 -1173 0
49 -1127 -1174 0
49 -1127 -1175 0
49 -1127 -1176 0
49 -1127 -1177 0
49 -1127 -1178 0
49 -1127 -1179 0
49 -1128 -1170 0
49 -1128 -1171 0
49 -1128 -1172 0
49 -1128 -1173 0
49 -1128 -1174 0
49 -1128 -1175 0
49 -1128 -1176 0
49 -1128 -1177 0
49 -1128 -1178 0
49 -1128 -1179 0
49 -1128 -1180 0
49 -1129 -1170 0
49 -1129 -1171 0
49 -1129 -1172 0
49 -1129 -1173 0
49 -1129 -1174 0
49 -1129 -1175 0
49 -1129 -1176 0
49 -1129 -1177 0
49 -1129 -1178 0
49 -1129 -1179 0
49 -1129 -1180 0
49 -1129 -1181 0
49 -1130 -1170 0
49 -1130 -1171 0
49 -1130 -1172 0
49 -1130 -1173 0
49 -1130 -1174 0
49 -1130 -1175 0
49 -1130 -1176 0
49 -1130 -1177 0
49 -1130 -1178 0
49 -1130 -1179 0
49 -1130 -1180 0
49 -1130 -1181 0
49 -1130 -1182 0
49 -1131 -1170 0
49 -1131 -1171 0
49 -1131 -1172 0
49 -1131 -1173 0
49 -1131 -1174 0
49 -1131 -1175 0
49 -1131 -1176 0
49 -1131 -1177 0
49 -1131 -1178 0
49 -1131 -1179 0
49 -1131 -1180 0
49 -1131 -1181 0
49 -1131 -1182 0
49 -1131 -1183 0
49 -1132 -1170 0
49 -1132 -1171 0
49 -1132 -1172 0
49 -1132 -1173 0
49 -1132 -1174 0
49 -1132 -1175 0
49 -1132 -1176 0
49 -1132 -1177 0
49 -1132 -1178 0
49 -1132 -1179 0
49 -1132 -1180 0
49 -1132 -1181 0
49 -1132 -1182 0
49 -1132 -1183 0
49 -1132 -1184 0
49 -1133 -1170 0
49 -1133 -1171 0
49 -1133 -1172 0
49 -1133 -1173 0
49 -1133 -1174 0
49 -1133 -1175 0
49 -1133 -1176 0
49 -1133 -1177 0
49 -1133 -1178 0
49 -1133 -1179 0
49 -1133 -1180 0
49 -1133 -1181 0
49 -1133 -1182 0
49 -1133 -1183 0
49 -1133 -1184 0
49 -1133 -1185 0
49 -1134 -1171 0
49 -1134 -1172 0
49 -1134 -1173 0
49 -1134 -1174 0
49 -1134 -1175 0
49 -1134 -1176 0
49 -1134 -1177 0
49 -1134 -1178 0
49 -1134 -1179 0
49 -1134 -1180 0
49 -1134 -1181 0
49 -1134 -1182 0
49 -1134 -1183 0
49 -1134 -1184 0
49 -1134 -1185 0
49 -1134 -1186 0
49 -1134 -1187 0
49 -1134 -1188 0
49 -1135 -1172 0
49 -1135 -1173 0
49 -1135 -1174 0
49 -1135 -1175 0
49 -1135 -1176 0
49 -1135 -1177 0
49 -1135 -1178 0
49 -1135 -1179 0
49 -1135 -1180 0
49 -1135 -1181 0
49 -1135 -1182 0
49 -1135 -1183 0
49 -1135 -1184 0
49 -1135 -1185 0
49 -1135 -1186 0
49 -1135 -1187 0
49 -1135 -1188 0
49 -1136 -1173 0
49 -1136 -1174 0
49 -1136 -1175 0
49 -1136 -1176 0
49 -1136 -1177 0
49 -1136 -1178 0
49 -1136 -1179 0
49 -1136 -1180 0
49 -1136 -1181 0
49 -1136 -1182 0
49 -1136 -1183 0
49 -1136 -1184 0
49 -1136 -1185 0
49 -1136 -1186 0
49 -1136 -1187 0
49 -1136 -1188 0
49 -1137 -1174 0
49 -1137 -1175 0
49 -1137 -1176 0
49 -1137 -1177 0
49 -1137 -1178 0
49 -1137 -1179 0
49 -1137 -1180 0
49 -1137 -1181 0
49 -1137 -1182 0
49 -1137 -1183 0
49 -1137 -1184 0
49 -1137 -1185 0
49 -1137 -1186 0
49 -1137 -1187 0
49 -1137 -1188 0
49 -1138 -1175 0
49 -1138 -1176 0
49 -1138 -1177 0
49 -1138 -1178 0
49 -1138 -1179 0
49 -1138 -1180 0
49 -1138 -1181 0
49 -1138 -1182 0
49 -1138 -1183 0
49 -1138 -1184 0
49 -1138 -1185 0
49 -1138 -1186 0
49 -1138 -1187 0
49 -1138 -1188 0
49 -1139 -1176 0
49 -1139 -1177 0
49 -1139 -1178 0
49 -1139 -1179 0
49 -1139 -1180 0
49 -1139 -1181 0
49 -1139 -1182 0
49 -1139 -1183 0
49 -1139 -1184 0
49 -1139 -1185 0
49 -1139 -1186 0
49 -1139 -1187 0
49 -1139 -1188 0
49 -1140 -1177 0
49 -1140 -1178 0
49 -1140 -1179 0
49 -1140 -1180 0
49 -1140 -1181 0
49 -1140 -1182 0
49 -1140 -1183 0
49 -1140 -1184 0
49 -1140 -1185 0
49 -1140 -1186 0
49 -1140 -1187 0
49 -1140 -1188 0
49 -1141 -1178 0
49 -1141 -1179 0
49 -1141 -1180 0
49 -1141 -1181 0
49 -1141 -1182 0
49 -1141 -1183 0
49 -1141 -1184 0
49 -1141 -1185 0
49 -1141 -1186 0
49 -1141 -1187 0
49 -1141 -1188 0
49 -1142 -1188 0
49 -1151 1178 0
49 -1152 1179 0
49 -1153 1180 0
49 -1154 1181 0
49 -1155 1182 0
49 -1156 1183 0
49 -1157 1184 0
49 -1158 1185 0
49 -1159 1186 0
49 -1160 1170 0
49 -1161 1171 0
49 -1162 1172 0
49 -1163 1173 0
49 -1164 1174 0
49 -1165 1175 0
49 -1166 1176 0
49 -1167 1177 0
49 -1168 1187 0
49 -1169 1188 0
49 -1189 1190 0
49 -1191 1199 0
49 -1192 1200 0
49 -1193 1201 0
49 -1194 1202 0
49 -1195 1203 0
49 -1196 1204 0
49 -1197 1205 0
49 -1198 1206 0
49 -1196 -1207 0
49 -1197 -1207 0
49 -1197 -1208 0
49 -1198 -1207 0
49 -1198 -1208 0
49 -1198 -1209 0
49 -1200 -1207 0
49 -1201 -1207 0
49 -1201 -1208 0
49 -1202 -1207 0
49 -1202 -1208 0
49 -1202 -1209 0
49 -1203 -1207 0
49 -1203 -1208 0
49 -1203 -1209 0
49 -1204 -1207 0
49 -1204 -1208 0
49 -1204 -1209 0
49 -1205 -1207 0
49 -1205 -1208 0
49 -1205 -1209 0
49 -1206 -1207 0
49 -1206 -1208 0
49 -1206 -1209 0
49 -1204 -1219 0
49 -1205 -1219 0
49 -1205 -1220 0
49 -1206 -1219 0
49 -1206 -1220 0
49 -1206 -1221 0
49 -1207 1228 0
49 -1208 1229 0
49 -1209 1230 0
49 -1210 1219 0
49 -1211 1220 0
49 -1212 1221 0
49 -1213 1222 0
49 -1214 1223 0
49 -1215 1224 0
49 -1216 1225 0
49 -1217 1226 0
49 -1218 1227 0
49 -1207 -1240 0
49 -1207 -1241 0
49 -1207 -1242 0
49 -1207 -1243 0
49 -1207 -1244 0
49 -1208 -1241 0
49 -1208 -1242 0
49 -1208 -1243 0
49 -1208 -1244 0
49 -1209 -1242 0
49 -1209 -1243 0
49 -1209 -1244 0
49 -1219 -1244 0
49 -1231 1238 0
49 -1232 1239 0
49 -1233 1240 0
49 -1234 1241 0
49 -1235 1242 0
49 -1236 1243 0
49 -1237 1244 0
49 -1245 1246 0
49 -1247 1248 0
49 -1249 1253 0
49 -1250 1254 0
49 -1251 1255 0
49 -1252 1256 0
49 -1253 -1958 0
49 -1253 -1959 0
49 -1253 -1960 0
49 -1254 -1959 0
49 -1254 -1960 0
49 -1255 -1960 0
49 -1257 1260 0
49 -1258 1261 0
49 -1259 1262 0
49 -1263 1264 0
49 -1265 1266 0
49 -1267 1268 0
49 -1269 1270 0
49 -1271 1272 0
49 -1273 1274 0
49 -1275 1279 0
49 -1276 1280 0
49 -1277 1281 0
49 -1278 1282 0
49 -1283 1284 0
49 -1285 1286 0
49 -1287 1291 0
49 -1288 1292 0
49 -1289 1293 0
49 -1290 1294 0
49 -1295 1301 0
49 -1296 1302 0
49 -1297 1303 0
49 -1298 1304 0
49 -1299 1305 0
49 -1300 1306 0
49 -1307 1311 0
49 -1308 1312 0
49 -1309 1313 0
49 -1310 1314 0
49 -1315 1316 0
49 -1317 1318 0
49 -1319 1321 0
49 -1320 1322 0
49 -1323 1327 0
49 -1324 1328 0
49 -1325 1329 0
49 -1326 1330 0
49 -1331 1333 0
49 -1332 1334 0
49 -1331 -1386 0
49 -1335 1338 0
49 -1336 1339 0
49 -1337 1340 0
49 -1341 1344 0
49 -1342 1345 0
49 -1343 1346 0
49 -1345 -1347 0
49 -1346 -1347 0
49 -1346 -1348 0
49 -1347 1352 0
49 -1348 1353 0
49 -1349 1354 0
49 -1350 1355 0
49 -1351 1356 0
49 -1357 1359 0
49 -1358 1360 0
49 -1361 1365 0
49 -1362 1366 0
49 -1363 1367 0
49 -1364 1368 0
49 -1369 1373 0
49 -1370 1374 0
49 -1371 1375 0
49 -1372 1376 0
49 -1377 1379 0
49 -1378 1380 0
49 -1381 1383 0
49 -1382 1384 0
49 -1385 1387 0
49 -1386 1388 0
49 -1389 1390 0
49 -1391 1393 0
49 -1392 1394 0
49 -1395 1396 0
49 -1397 1400 0
49 -1398 1401 0
49 -1399 1402 0
49 -1403 1405 0
49 -1404 1406 0
49 -1407 1409 0
49 -1408 1410 0
49 -1411 1412 0
49 -1413 1416 0
49 -1414 1417 0
49 -1415 1418 0
49 -1419 1424 0
49 -1420 1425 0
49 -1421 1426 0
49 -1422 1427 0
49 -1423 1428 0
49 -1424 -1435 0
49 -1424 -1436 0
49 -1425 -1436 0
49 -1429 1437 0
49 -1430 1438 0
49 -1431 1439 0
49 -1432 1440 0
49 -1433 1441 0
49 -1434 1442 0
49 -1435 1443 0
49 -1436 1444 0
49 -1434 -1445 0
49 -1435 -1445 0
49 -1435 -1446 0
49 -1436 -1445 0
49 -1436 -1446 0
49 -1436 -1447 0
49 -1445 1449 0
49 -1446 1450 0
49 -1447 1451 0
49 -1448 1452 0
49 -1445 -1458 0
49 -1445 -1459 0
49 -1445 -1460 0
49 -1446 -1459 0
49 -1446 -1460 0
49 -1447 -1460 0
49 -1449 -1454 0
49 -1449 -1455 0
49 -1449 -1456 0
49 -1450 -1455 0
49 -1450 -1456 0
49 -1451 -1456 0
49 -1453 1457 0
49 -1454 1458 0
49 -1455 1459 0
49 -1456 1460 0
49 -1461 1465 0
49 -1462 1466 0
49 -1463 1467 0
49 -1464 1468 0
49 -1469 1471 0
49 -1470 1472 0
49 -1470 -1473 0
49 -1472 -1475 0
49 -1473 1475 0
49 -1474 1476 0
49 -1477 1480 0
49 -1478 1481 0
49 -1479 1482 0
49 -1477 -1484 0
49 -1477 -1485 0
49 -1478 -1485 0
49 -1480 -1487 0
49 -1480 -1488 0
49 -1481 -1488 0
49 -1483 1486 0
49 -1484 1487 0
49 -1485 1488 0
49 -1483 -1493 0
49 -1483 -1494 0
49 -1484 -1494 0
49 -1489 1492 0
49 -1490 1493 0
49 -1491 1494 0
49 -1489 -1499 0
49 -1489 -1500 0
49 -1490 -1500 0
49 -1492 -1497 0
49 -1493 -1501 0
49 -1494 -1501 0
49 -1494 -1502 0
49 -1495 1498 0
49 -1496 1499 0
49 -1497 1500 0
49 -1501 1507 0
49 -1502 1508 0
49 -1503 1509 0
49 -1504 1510 0
49 -1505 1511 0
49 -1506 1512 0
49 -1513 1514 0
49 -1515 1521 0
49 -1516 1522 0
49 -1517 1523 0
49 -1518 1524 0
49 -1519 1525 0
49 -1520 1526 0
49 -1527 1529 0
49 -1528 1530 0
49 -1531 1533 0
49 -1532 1534 0
49 -1532 -1535 0
49 -1534 -1539 0
49 -1535 1539 0
49 -1536 1540 0
49 -1537 1541 0
49 -1538 1542 0
49 -1543 1548 0
49 -1544 1549 0
49 -1545 1550 0
49 -1546 1551 0
49 -1547 1552 0
49 -1545 -1701 0
49 -1546 -1701 0
49 -1546 -1702 0
49 -1547 -1701 0
49 -1547 -1702 0
49 -1547 -1703 0
49 -1543 -1708 0
49 -1550 -1705 0
49 -1551 -1705 0
49 -1551 -1706 0
49 -1552 -1705 0
49 -1552 -1706 0
49 -1552 -1707 0
49 -1553 1554 0
49 -1555 1556 0
49 -1557 1558 0
49 -1559 1567 0
49 -1560 1568 0
49 -1561 1569 0
49 -1562 1570 0
49 -1563 1571 0
49 -1564 1572 0
49 -1565 1573 0
49 -1566 1574 0
49 -1575 1578 0
49 -1576 1579 0
49 -1577 1580 0
49 -1579 -1581 0
49 -1580 -1581 0
49 -1580 -1582 0
49 -1581 1589 0
49 -1582 1590 0
49 -1583 1591 0
49 -1584 1592 0
49 -1585 1593 0
49 -1586 1594 0
49 -1587 1595 0
49 -1588 1596 0
49 -1581 -1859 0
49 -1581 -1860 0
49 -1582 -1860 0
49 -1581 -1870 0
49 -1582 -1870 0
49 -1583 -1870 0
49 -1584 -1870 0
49 -1585 -1870 0
49 -1586 -1870 0
49 -1587 -1870 0
49 -1597 1602 0
49 -1598 1603 0
49 -1599 1604 0
49 -1600 1605 0
49 -1601 1606 0
49 -1597 -1608 0
49 -1597 -1609 0
49 -1597 -1610 0
49 -1597 -1611 0
49 -1597 -1612 0
49 -1598 -1609 0
49 -1598 -1610 0
49 -1598 -1611 0
49 -1598 -1612 0
49 -1599 -1610 0
49 -1599 -1611 0
49 -1599 -1612 0
49 -1600 -1611 0
49 -1600 -1612 0
49 -1597 -1618 0
49 -1597 -1638 0
49 -1597 -1639 0
49 -1598 -1639 0
49 -1599 -1639 0
49 -1600 -1639 0
49 -1597 -1722 0
49 -1597 -1723 0
49 -1597 -1724 0
49 -1598 -1723 0
49 -1598 -1724 0
49 -1599 -1724 0
49 -1602 -1612 0
49 -1602 -1634 0
49 -1607 1613 0
49 -1608 1614 0
49 -1609 1615 0
49 -1610 1616 0
49 -1611 1617 0
49 -1612 1618 0
49 -1611 -1619 0
49 -1611 -1620 0
49 -1612 -1619 0
49 -1612 -1620 0
49 -1612 -1621 0
49 -1609 -1627 0
49 -1610 -1627 0
49 -1610 -1628 0
49 -1611 -1627 0
49 -1611 -1628 0
49 -1611 -1629 0
49 -1611 -1630 0
49 -1611 -1631 0
49 -1611 -1632 0
49 -1612 -1627 0
49 -1612 -1628 0
49 -1612 -1629 0
49 -1612 -1630 0
49 -1612 -1631 0
49 -1612 -1632 0
49 -1612 -1633 0
49 -1607 -1720 0
49 -1608 -1720 0
49 -1608 -1721 0
49 -1609 -1720 0
49 -1609 -1721 0
49 -1609 -1722 0
49 -1610 -1720 0
49 -1610 -1721 0
49 -1610 -1722 0
49 -1610 -1723 0
49 -1611 -1721 0
49 -1611 -1722 0
49 -1611 -1723 0
49 -1611 -1724 0
49 -1612 -1721 0
49 -1612 -1722 0
49 -1612 -1723 0
49 -1612 -1724 0
49 -1617 -1627 0
49 -1617 -1628 0
49 -1618 -1627 0
49 -1618 -1628 0
49 -1618 -1629 0
49 -1613 -1715 0
49 -1614 -1715 0
49 -1614 -1716 0
49 -1615 -1715 0
49 -1615 -1716 0
49 -1615 -1717 0
49 -1616 -1715 0
49 -1616 -1716 0
49 -1616 -1717 0
49 -1616 -1718 0
49 -1617 -1716 0
49 -1617 -1717 0
49 -1617 -1718 0
49 -1617 -1719 0
49 -1618 -1716 0
49 -1618 -1717 0
49 -1618 -1718 0
49 -1618 -1719 0
49 -1614 -1720 0
49 -1615 -1720 0
49 -1616 -1720 0
49 -1617 -1720 0
49 -1618 -1720 0
49 -1618 -1721 0
49 -1619 1627 0
49 -1620 1628 0
49 -1621 1629 0
49 -1622 1630 0
49 -1623 1631 0
49 -1624 1632 0
49 -1625 1633 0
49 -1626 1634 0
49 -1619 -1649 0
49 -1619 -1650 0
49 -1619 -1651 0
49 -1619 -1652 0
49 -1619 -1653 0
49 -1620 -1650 0
49 -1620 -1651 0
49 -1620 -1652 0
49 -1620 -1653 0
49 -1621 -1651 0
49 -1621 -1652 0
49 -1621 -1653 0
49 -1622 -1651 0
49 -1622 -1652 0
49 -1622 -1653 0
49 -1623 -1651 0
49 -1623 -1652 0
49 -1623 -1653 0
49 -1624 -1652 0
49 -1624 -1653 0
49 -1625 -1653 0
49 -1619 -1654 0
49 -1619 -1655 0
49 -1619 -1656 0
49 -1619 -1657 0
49 -1619 -1658 0
49 -1619 -1659 0
49 -1620 -1654 0
49 -1620 -1655 0
49 -1620 -1656 0
49 -1620 -1657 0
49 -1620 -1658 0
49 -1620 -1659 0
49 -1620 -1660 0
49 -1621 -1655 0
49 -1621 -1656 0
49 -1621 -1657 0
49 -1621 -1658 0
49 -1621 -1659 0
49 -1621 -1660 0
49 -1621 -1661 0
49 -1622 -1656 0
49 -1622 -1657 0
49 -1622 -1658 0
49 -1622 -1659 0
49 -1622 -1660 0
49 -1622 -1661 0
49 -1622 -1662 0
49 -1623 -1657 0
49 -1623 -1658 0
49 -1623 -1659 0
49 -1623 -1660 0
49 -1623 -1661 0
49 -1623 -1662 0
49 -1624 -1658 0
49 -1624 -1659 0
49 -1624 -1660 0
49 -1624 -1661 0
49 -1624 -1662 0
49 -1625 -1659 0
49 -1625 -1660 0
49 -1625 -1661 0
49 -1625 -1662 0
49 -1626 -1660 0
49 -1626 -1661 0
49 -1626 -1662 0
49 -1619 -1667 0
49 -1619 -1668 0
49 -1619 -1669 0
49 -1619 -1670 0
49 -1619 -1671 0
49 -1619 -1672 0
49 -1619 -1673 0
49 -1620 -1668 0
49 -1620 -1669 0
49 -1620 -1670 0
49 -1620 -1671 0
49 -1620 -1672 0
49 -1620 -1673 0
49 -1621 -1669 0
49 -1621 -1670 0
49 -1621 -1671 0
49 -1621 -1672 0
49 -1621 -1673 0
49 -1622 -1670 0
49 -1622 -1671 0
49 -1622 -1672 0
49 -1622 -1673 0
49 -1623 -1671 0
49 -1623 -1672 0
49 -1623 -1673 0
49 -1624 -1672 0
49 -1624 -1673 0
49 -1625 -1673 0
49 -1619 -1674 0
49 -1619 -1675 0
49 -1619 -1676 0
49 -1619 -1677 0
49 -1619 -1678 0
49 -1619 -1679 0
49 -1619 -1680 0
49 -1620 -1675 0
49 -1620 -1676 0
49 -1620 -1677 0
49 -1620 -1678 0
49 -1620 -1679 0
49 -1620 -1680 0
49 -1620 -1681 0
49 -1621 -1676 0
49 -1621 -1677 0
49 -1621 -1678 0
49 -1621 -1679 0
49 -1621 -1680 0
49 -1621 -1681 0
49 -1621 -1682 0
49 -1622 -1677 0
49 -1622 -1678 0
49 -1622 -1679 0
49 -1622 -1680 0
49 -1622 -1681 0
49 -1622 -1682 0
49 -1622 -1683 0
49 -1623 -1678 0
49 -1623 -1679 0
49 -1623 -1680 0
49 -1623 -1681 0
49 -1623 -1682 0
49 -1623 -1683 0
49 -1623 -1684 0
49 -1624 -1679 0
49 -1624 -1680 0
49 -1624 -1681 0
49 -1624 -1682 0
49 -1624 -1683 0
49 -1624 -1684 0
49 -1625 -1680 0
49 -1625 -1681 0
49 -1625 -1682 0
49 -1625 -1683 0
49 -1625 -1684 0
49 -1626 -1681 0
49 -1626 -1682 0
49 -1626 -1683 0
49 -1626 -1684 0
49 -1627 -1636 0
49 -1627 -1637 0
49 -1627 -1638 0
49 -1627 -1639 0
49 -1628 -1637 0
49 -1628 -1638 0
49 -1628 -1639 0
49 -1629 -1638 0
49 -1629 -1639 0
49 -1630 -1639 0
49 -1631 -1639 0
49 -1632 -1639 0
49 -1633 -1639 0
49 -1627 -1645 0
49 -1627 -1646 0
49 -1627 -1647 0
49 -1627 -1648 0
49 -1627 -1649 0
49 -1627 -1650 0
49 -1628 -1645 0
49 -1628 -1646 0
49 -1628 -1647 0
49 -1628 -1648 0
49 -1628 -1649 0
49 -1628 -1650 0
49 -1628 -1651 0
49 -1629 -1646 0
49 -1629 -1647 0
49 -1629 -1648 0
49 -1629 -1649 0
49 -1629 -1650 0
49 -1629 -1651 0
49 -1629 -1652 0
49 -1630 -1647 0
49 -1630 -1648 0
49 -1630 -1649 0
49 -1630 -1650 0
49 -1630 -1651 0
49 -1630 -1652 0
49 -1630 -1653 0
49 -1631 -1648 0
49 -1631 -1649 0
49 -1631 -1650 0
49 -1631 -1651 0
49 -1631 -1652 0
49 -1631 -1653 0
49 -1632 -1649 0
49 -1632 -1650 0
49 -1632 -1651 0
49 -1632 -1652 0
49 -1632 -1653 0
49 -1633 -1650 0
49 -1633 -1651 0
49 -1633 -1652 0
49 -1633 -1653 0
49 -1634 -1651 0
49 -1634 -1652 0
49 -1634 -1653 0
49 -1633 -1654 0
49 -1634 -1654 0
49 -1634 -1655 0
49 -1627 -1663 0
49 -1627 -1664 0
49 -1627 -1665 0
49 -1627 -1666 0
49 -1627 -1667 0
49 -1627 -1668 0
49 -1627 -1669 0
49 -1628 -1664 0
49 -1628 -1665 0
49 -1628 -1666 0
49 -1628 -1667 0
49 -1628 -1668 0
49 -1628 -1669 0
49 -1628 -1670 0
49 -1629 -1665 0
49 -1629 -1666 0
49 -1629 -1667 0
49 -1629 -1668 0
49 -1629 -1669 0
49 -1629 -1670 0
49 -1629 -1671 0
49 -1630 -1666 0
49 -1630 -1667 0
49 -1630 -1668 0
49 -1630 -1669 0
49 -1630 -1670 0
49 -1630 -1671 0
49 -1630 -1672 0
49 -1631 -1667 0
49 -1631 -1668 0
49 -1631 -1669 0
49 -1631 -1670 0
49 -1631 -1671 0
49 -1631 -1672 0
49 -1631 -1673 0
49 -1632 -1668 0
49 -1632 -1669 0
49 -1632 -1670 0
49 -1632 -1671 0
49 -1632 -1672 0
49 -1632 -1673 0
49 -1633 -1669 0
49 -1633 -1670 0
49 -1633 -1671 0
49 -1633 -1672 0
49 -1633 -1673 0
49 -1634 -1670 0
49 -1634 -1671 0
49 -1634 -1672 0
49 -1634 -1673 0
49 -1632 -1674 0
49 -1633 -1674 0
49 -1633 -1675 0
49 -1634 -1674 0
49 -1634 -1675 0
49 -1634 -1676 0
49 -1627 -1721 0
49 -1627 -1722 0
49 -1627 -1723 0
49 -1627 -1724 0
49 -1628 -1722 0
49 -1628 -1723 0
49 -1628 -1724 0
49 -1629 -1723 0
49 -1629 -1724 0
49 -1630 -1724 0
49 -1635 1640 0
49 -1636 1641 0
49 -1637 1642 0
49 -1638 1643 0
49 -1639 1644 0
49 -1637 -1645 0
49 -1638 -1645 0
49 -1638 -1646 0
49 -1639 -1645 0
49 -1639 -1646 0
49 -1639 -1647 0
49 -1639 -1648 0
49 -1639 -1649 0
49 -1639 -1650 0
49 -1637 -1663 0
49 -1638 -1663 0
49 -1638 -1664 0
49 -1639 -1663 0
49 -1639 -1664 0
49 -1639 -1665 0
49 -1639 -1666 0
49 -1639 -1667 0
49 -1639 -1668 0
49 -1635 -1719 0
49 -1635 -1720 0
49 -1636 -1720 0
49 -1636 -1721 0
49 -1637 -1720 0
49 -1637 -1721 0
49 -1637 -1722 0
49 -1638 -1720 0
49 -1638 -1721 0
49 -1638 -1722 0
49 -1638 -1723 0
49 -1639 -1721 0
49 -1639 -1722 0
49 -1639 -1723 0
49 -1639 -1724 0
49 -1640 -1715 0
49 -1641 -1715 0
49 -1641 -1716 0
49 -1642 -1715 0
49 -1642 -1716 0
49 -1642 -1717 0
49 -1643 -1715 0
49 -1643 -1716 0
49 -1643 -1717 0
49 -1643 -1718 0
49 -1644 -1716 0
49 -1644 -1717 0
49 -1644 -1718 0
49 -1644 -1719 0
49 -1641 -1720 0
49 -1642 -1720 0
49 -1643 -1720 0
49 -1644 -1720 0
49 -1645 1654 0
49 -1646 1655 0
49 -1647 1656 0
49 -1648 1657 0
49 -1649 1658 0
49 -1650 1659 0
49 -1651 1660 0
49 -1652 1661 0
49 -1653 1662 0
49 -1645 -1663 0
49 -1646 -1664 0
49 -1647 -1665 0
49 -1648 -1666 0
49 -1649 -1667 0
49 -1650 -1668 0
49 -1651 -1671 0
49 -1652 -1672 0
49 -1653 -1673 0
49 -1649 -1674 0
49 -1650 -1674 0
49 -1650 -1675 0
49 -1651 -1674 0
49 -1651 -1675 0
49 -1651 -1676 0
49 -1651 -1677 0
49 -1651 -1678 0
49 -1652 -1674 0
49 -1652 -1675 0
49 -1652 -1676 0
49 -1652 -1677 0
49 -1652 -1678 0
49 -1652 -1679 0
49 -1653 -1674 0
49 -1653 -1675 0
49 -1653 -1676 0
49 -1653 -1677 0
49 -1653 -1678 0
49 -1653 -1679 0
49 -1653 -1680 0
49 -1645 -1722 0
49 -1645 -1723 0
49 -1645 -1724 0
49 -1646 -1723 0
49 -1646 -1724 0
49 -1647 -1724 0
49 -1654 -1668 0
49 -1654 -1669 0
49 -1654 -1670 0
49 -1654 -1671 0
49 -1654 -1672 0
49 -1654 -1673 0
49 -1655 -1669 0
49 -1655 -1670 0
49 -1655 -1671 0
49 -1655 -1672 0
49 -1655 -1673 0
49 -1656 -1670 0
49 -1656 -1671 0
49 -1656 -1672 0
49 -1656 -1673 0
49 -1657 -1671 0
49 -1657 -1672 0
49 -1657 -1673 0
49 -1658 -1672 0
49 -1658 -1673 0
49 -1659 -1673 0
49 -1654 -1674 0
49 -1655 -1675 0
49 -1656 -1676 0
49 -1657 -1677 0
49 -1658 -1678 0
49 -1659 -1679 0
49 -1660 -1682 0
49 -1661 -1683 0
49 -1662 -1684 0
49 -1663 1674 0
49 -1664 1675 0
49 -1665 1676 0
49 -1666 1677 0
49 -1667 1678 0
49 -1668 1679 0
49 -1669 1680 0
49 -1670 1681 0
49 -1671 1682 0
49 -1672 1683 0
49 -1673 1684 0
49 -1663 -1722 0
49 -1663 -1723 0
49 -1663 -1724 0
49 -1664 -1723 0
49 -1664 -1724 0
49 -1665 -1724 0
49 -1685 1689 0
49 -1686 1690 0
49 -1687 1691 0
49 -1688 1692 0
49 -1689 -1704 0
49 -1693 1694 0
49 -1695 1698 0
49 -1696 1699 0
49 -1697 1700 0
49 -1695 -1789 0
49 -1695 -1790 0
49 -1696 -1790 0
49 -1701 1705 0
49 -1702 1706 0
49 -1703 1707 0
49 -1704 1708 0
49 -1709 1712 0
49 -1710 1713 0
49 -1711 1714 0
49 -1710 -1749 0
49 -1711 -1749 0
49 -1711 -1750 0
49 -1709 -1774 0
49 -1709 -1849 0
49 -1709 -1850 0
49 -1710 -1850 0
49 -1713 -1745 0
49 -1714 -1745 0
49 -1714 -1746 0
49 -1715 1720 0
49 -1716 1721 0
49 -1717 1722 0
49 -1718 1723 0
49 -1719 1724 0
49 -1725 1726 0
49 -1727 1736 0
49 -1728 1737 0
49 -1729 1738 0
49 -1730 1739 0
49 -1731 1740 0
49 -1732 1741 0
49 -1733 1742 0
49 -1734 1743 0
49 -1735 1744 0
49 -1727 -1893 0
49 -1727 -1894 0
49 -1727 -1895 0
49 -1727 -1896 0
49 -1727 -1897 0
49 -1728 -1893 0
49 -1728 -1894 0
49 -1728 -1895 0
49 -1728 -1896 0
49 -1728 -1897 0
49 -1728 -1898 0
49 -1729 -1893 0
49 -1729 -1894 0
49 -1729 -1895 0
49 -1729 -1896 0
49 -1729 -1897 0
49 -1729 -1898 0
49 -1729 -1899 0
49 -1730 -1894 0
49 -1730 -1895 0
49 -1730 -1896 0
49 -1730 -1897 0
49 -1730 -1898 0
49 -1730 -1899 0
49 -1730 -1900 0
49 -1731 -1895 0
49 -1731 -1896 0
49 -1731 -1897 0
49 -1731 -1898 0
49 -1731 -1899 0
49 -1731 -1900 0
49 -1731 -1901 0
49 -1732 -1896 0
49 -1732 -1897 0
49 -1732 -1898 0
49 -1732 -1899 0
49 -1732 -1900 0
49 -1732 -1901 0
49 -1732 -1902 0
49 -1733 -1897 0
49 -1733 -1898 0
49 -1733 -1899 0
49 -1733 -1900 0
49 -1733 -1901 0
49 -1733 -1902 0
49 -1733 -1903 0
49 -1734 -1898 0
49 -1734 -1899 0
49 -1734 -1900 0
49 -1734 -1901 0
49 -1734 -1902 0
49 -1734 -1903 0
49 -1735 -1899 0
49 -1735 -1900 0
49 -1735 -1901 0
49 -1735 -1902 0
49 -1735 -1903 0
49 -1735 -1904 0
49 -1736 -1897 0
49 -1736 -1898 0
49 -1736 -1899 0
49 -1736 -1900 0
49 -1736 -1901 0
49 -1736 -1902 0
49 -1736 -1903 0
49 -1737 -1898 0
49 -1737 -1899 0
49 -1737 -1900 0
49 -1737 -1901 0
49 -1737 -1902 0
49 -1737 -1903 0
49 -1738 -1899 0
49 -1738 -1900 0
49 -1738 -1901 0
49 -1738 -1902 0
49 -1738 -1903 0
49 -1739 -1900 0
49 -1739 -1901 0
49 -1739 -1902 0
49 -1739 -1903 0
49 -1740 -1901 0
49 -1740 -1902 0
49 -1740 -1903 0
49 -1741 -1902 0
49 -1741 -1903 0
49 -1742 -1903 0
49 -1745 1749 0
49 -1746 1750 0
49 -1747 1751 0
49 -1748 1752 0
49 -1753 1756 0
49 -1754 1757 0
49 -1755 1758 0
49 -1753 -1913 0
49 -1753 -1914 0
49 -1754 -1914 0
49 -1759 1767 0
49 -1760 1768 0
49 -1761 1769 0
49 -1762 1770 0
49 -1763 1771 0
49 -1764 1772 0
49 -1765 1773 0
49 -1766 1774 0
49 -1775 1783 0
49 -1776 1784 0
49 -1777 1785 0
49 -1778 1786 0
49 -1779 1787 0
49 -1780 1788 0
49 -1781 1789 0
49 -1782 1790 0
49 -1788 -1888 0
49 -1789 -1888 0
49 -1789 -1889 0
49 -1790 -1888 0
49 -1790 -1889 0
49 -1790 -1890 0
49 -1791 1793 0
49 -1792 1794 0
49 -1792 -1871 0
49 -1794 -1873 0
49 -1795 1799 0
49 -1796 1800 0
49 -1797 1801 0
49 -1798 1802 0
49 -1803 1811 0
49 -1804 1812 0
49 -1805 1813 0
49 -1806 1814 0
49 -1807 1815 0
49 -1808 1816 0
49 -1809 1817 0
49 -1810 1818 0
49 -1803 -1819 0
49 -1803 -1820 0
49 -1803 -1821 0
49 -1803 -1822 0
49 -1804 -1819 0
49 -1804 -1820 0
49 -1804 -1821 0
49 -1804 -1822 0
49 -1804 -1823 0
49 -1805 -1819 0
49 -1805 -1820 0
49 -1805 -1821 0
49 -1805 -1822 0
49 -1805 -1823 0
49 -1805 -1824 0
49 -1806 -1819 0
49 -1806 -1820 0
49 -1806 -1821 0
49 -1806 -1822 0
49 -1806 -1823 0
49 -1806 -1824 0
49 -1806 -1825 0
49 -1807 -1820 0
49 -1807 -1821 0
49 -1807 -1822 0
49 -1807 -1823 0
49 -1807 -1824 0
49 -1807 -1825 0
49 -1807 -1826 0
49 -1808 -1821 0
49 -1808 -1822 0
49 -1808 -1823 0
49 -1808 -1824 0
49 -1808 -1825 0
49 -1808 -1826 0
49 -1809 -1822 0
49 -1809 -1823 0
49 -1809 -1824 0
49 -1809 -1825 0
49 -1809 -1826 0
49 -1810 -1823 0
49 -1810 -1824 0
49 -1810 -1825 0
49 -1810 -1826 0
49 -1804 -1827 0
49 -1805 -1827 0
49 -1805 -1828 0
49 -1806 -1827 0
49 -1806 -1828 0
49 -1806 -1829 0
49 -1807 -1827 0
49 -1807 -1828 0
49 -1807 -1829 0
49 -1807 -1830 0
49 -1808 -1827 0
49 -1808 -1828 0
49 -1808 -1829 0
49 -1808 -1830 0
49 -1808 -1831 0
49 -1809 -1827 0
49 -1809 -1828 0
49 -1809 -1829 0
49 -1809 -1830 0
49 -1809 -1831 0
49 -1809 -1832 0
49 -1810 -1827 0
49 -1810 -1828 0
49 -1810 -1829 0
49 -1810 -1830 0
49 -1810 -1831 0
49 -1810 -1832 0
49 -1810 -1833 0
49 -1803 -1848 0
49 -1803 -1849 0
49 -1803 -1850 0
49 -1804 -1849 0
49 -1804 -1850 0
49 -1805 -1850 0
49 -1811 -1826 0
49 -1811 -1827 0
49 -1811 -1828 0
49 -1811 -1829 0
49 -1811 -1830 0
49 -1812 -1827 0
49 -1812 -1828 0
49 -1812 -1829 0
49 -1812 -1830 0
49 -1812 -1831 0
49 -1813 -1827 0
49 -1813 -1828 0
49 -1813 -1829 0
49 -1813 -1830 0
49 -1813 -1831 0
49 -1813 -1832 0
49 -1814 -1827 0
49 -1814 -1828 0
49 -1814 -1829 0
49 -1814 -1830 0
49 -1814 -1831 0
49 -1814 -1832 0
49 -1814 -1833 0
49 -1815 -1828 0
49 -1815 -1829 0
49 -1815 -1830 0
49 -1815 -1831 0
49 -1815 -1832 0
49 -1815 -1833 0
49 -1815 -1834 0
49 -1816 -1829 0
49 -1816 -1830 0
49 -1816 -1831 0
49 -1816 -1832 0
49 -1816 -1833 0
49 -1816 -1834 0
49 -1817 -1830 0
49 -1817 -1831 0
49 -1817 -1832 0
49 -1817 -1833 0
49 -1817 -1834 0
49 -1818 -1831 0
49 -1818 -1832 0
49 -1818 -1833 0
49 -1818 -1834 0
49 -1819 1827 0
49 -1820 1828 0
49 -1821 1829 0
49 -1822 1830 0
49 -1823 1831 0
49 -1824 1832 0
49 -1825 1833 0
49 -1826 1834 0
49 -1819 -1845 0
49 -1819 -1846 0
49 -1819 -1847 0
49 -1819 -1848 0
49 -1819 -1849 0
49 -1819 -1850 0
49 -1820 -1846 0
49 -1820 -1847 0
49 -1820 -1848 0
49 -1820 -1849 0
49 -1820 -1850 0
49 -1821 -1847 0
49 -1821 -1848 0
49 -1821 -1849 0
49 -1821 -1850 0
49 -1822 -1848 0
49 -1822 -1849 0
49 -1822 -1850 0
49 -1823 -1850 0
49 -1835 1843 0
49 -1836 1844 0
49 -1837 1845 0
49 -1838 1846 0
49 -1839 1847 0
49 -1840 1848 0
49 -1841 1849 0
49 -1842 1850 0
49 -1851 1870 0
49 -1852 1861 0
49 -1853 1862 0
49 -1854 1863 0
49 -1855 1864 0
49 -1856 1865 0
49 -1857 1866 0
49 -1858 1867 0
49 -1859 1868 0
49 -1860 1869 0
49 -1871 1873 0
49 -1872 1874 0
49 -1871 -1882 0
49 -1873 -1878 0
49 -1875 1879 0
49 -1876 1880 0
49 -1877 1881 0
49 -1878 1882 0
49 -1882 -1888 0
49 -1883 1888 0
49 -1884 1889 0
49 -1885 1890 0
49 -1886 1891 0
49 -1887 1892 0
49 -1893 1904 0
49 -1894 1905 0
49 -1895 1906 0
49 -1896 1907 0
49 -1897 1908 0
49 -1898 1909 0
49 -1899 1910 0
49 -1900 1911 0
49 -1901 1912 0
49 -1902 1913 0
49 -1903 1914 0
49 -1915 1917 0
49 -1916 1918 0
49 -1919 1920 0
49 -1921 1930 0
49 -1922 1931 0
49 -1923 1932 0
49 -1924 1933 0
49 -1925 1934 0
49 -1926 1935 0
49 -1927 1936 0
49 -1928 1937 0
49 -1929 1938 0
49 -1939 1950 0
49 -1940 1951 0
49 -1941 1952 0
49 -1942 1953 0
49 -1943 1954 0
49 -1944 1955 0
49 -1945 1956 0
49 -1946 1957 0
49 -1947 1958 0
49 -1948 1959 0
49 -1949 1960 0
49 -1 6182 0
49 -2 6170 0
49 -3 6155 0
49 -4 6156 0
49 -5 6157 0
49 -6 6158 0
49 -7 6142 0
49 -8 6143 0
49 -9 6144 0
49 -10 6145 0
49 -11 6185 0
49 -12 6174 0
49 -13 6141 0
49 -14 6154 0
49 -15 6141 0
49 -16 6154 0
49 -17 6155 0
49 -18 6156 0
49 -19 6157 0
49 -20 6158 0
49 -21 6159 0
49 -22 6160 0
49 -23 6142 0
49 -24 6143 0
49 -25 6144 0
49 -26 6145 0
49 -27 6146 0
49 -28 6147 0
49 -29 6149 0
49 -30 6162 0
49 -31 6185 0
49 -32 6174 0
49 -33 6141 0
49 -34 6142 0
49 -35 6143 0
49 -36 6144 0
49 -37 6145 0
49 -38 6146 0
49 -39 6147 0
49 -40 6148 0
49 -41 6149 0
49 -42 6150 0
49 -43 6151 0
49 -44 6154 0
49 -45 6155 0
49 -46 6156 0
49 -47 6157 0
49 -48 6158 0
49 -49 6159 0
49 -50 6160 0
49 -51 6161 0
49 -52 6162 0
49 -53 6163 0
49 -54 6164 0
49 -55 6162 0
49 -56 6163 0
49 -57 6164 0
49 -58 6149 0
49 -59 6150 0
49 -60 6151 0
49 -61 6187 0
49 -62 6176 0
49 -63 6166 0
49 -64 6167 0
49 -65 6168 0
49 -66 6178 0
49 -67 6179 0
49 -68 6180 0
49 -69 6141 0
49 -70 6154 0
49 -71 6178 0
49 -72 6166 0
49 -73 6175 0
49 -74 6186 0
49 -75 6157 0
49 -76 6144 0
49 -77 6166 0
49 -78 6168 0
49 -79 6169 0
49 -80 6170 0
49 -81 6172 0
49 -82 6173 0
49 -83 6174 0
49 -84 6175 0
49 -85 6176 0
49 -86 6177 0
49 -87 6178 0
49 -88 6180 0
49 -89 6181 0
49 -90 6182 0
49 -91 6183 0
49 -92 6184 0
49 -93 6185 0
49 -94 6186 0
49 -95 6187 0
49 -96 6188 0
49 -97 6149 0
49 -98 6162 0
49 -99 6141 0
49 -100 6142 0
49 -101 6154 0
49 -102 6155 0
49 -103 6142 0
49 -104 6155 0
49 -105 6182 0
49 -106 6170 0
49 -107 6150 0
49 -108 6151 0
49 -109 6163 0
49 -110 6164 0
49 -111 6178 0
49 -112 6166 0
49 -113 6145 0
49 -114 6146 0
49 -115 6158 0
49 -116 6159 0
49 -117 6161 0
49 -118 6162 0
49 -119 6163 0
49 -120 6164 0
49 -121 6148 0
49 -122 6149 0
49 -123 6150 0
49 -124 6151 0
49 -125 6142 0
49 -126 6155 0
49 -127 6187 0
49 -128 6176 0
49 -129 6145 0
49 -130 6158 0
49 -131 6151 0
49 -132 6164 0
49 -133 6150 0
49 -134 6151 0
49 -135 6163 0
49 -136 6164 0
49 -137 6176 0
49 -138 6187 0
49 -139 6150 0
49 -140 6163 0
49 -141 6164 0
49 -142 6151 0
49 -143 6183 0
49 -144 6172 0
49 -145 6177 0
49 -146 6188 0
49 -147 6157 0
49 -148 6144 0
49 -149 6178 0
49 -150 6166 0
49 -151 6177 0
49 -152 6188 0
49 -153 6177 0
49 -154 6188 0
49 -155 6150 0
49 -156 6163 0
49 -157 6148 0
49 -158 6161 0
49 -159 6150 0
49 -160 6163 0
49 -161 6143 0
49 -162 6156 0
49 -163 6178 0
49 -164 6166 0
49 -165 6154 0
49 -166 6155 0
49 -167 6157 0
49 -168 6173 0
49 -169 6175 0
49 -170 6141 0
49 -171 6142 0
49 -172 6144 0
49 -173 6184 0
49 -174 6186 0
49 -175 6157 0
49 -176 6144 0
49 -177 6151 0
49 -178 6164 0
49 -179 6146 0
49 -180 6159 0
49 -181 6170 0
49 -182 6182 0
49 -183 6156 0
49 -184 6157 0
49 -185 6158 0
49 -186 6159 0
49 -187 6160 0
49 -188 6143 0
49 -189 6144 0
49 -190 6145 0
49 -191 6146 0
49 -192 6147 0
49 -193 6174 0
49 -194 6175 0
49 -195 6185 0
49 -196 6186 0
49 -197 6178 0
49 -198 6166 0
49 -199 6154 0
49 -200 6155 0
49 -201 6157 0
49 -202 6141 0
49 -203 6142 0
49 -204 6144 0
49 -205 6175 0
49 -206 6186 0
49 -207 6170 0
49 -208 6182 0
49 -209 6146 0
49 -210 6159 0
49 -211 6159 0
49 -212 6146 0
49 -213 6180 0
49 -214 6181 0
49 -215 6182 0
49 -216 6183 0
49 -217 6184 0
49 -218 6185 0
49 -219 6186 0
49 -220 6187 0
49 -221 6188 0
49 -222 6168 0
49 -223 6169 0
49 -224 6170 0
49 -225 6172 0
49 -226 6173 0
49 -227 6174 0
49 -228 6175 0
49 -229 6176 0
49 -230 6177 0
49 -231 6155 0
49 -232 6142 0
49 -233 6150 0
49 -234 6163 0
49 -235 6186 0
49 -236 6175 0
49 -237 6141 0
49 -238 6142 0
49 -239 6143 0
49 -240 6144 0
49 -241 6145 0
49 -242 6146 0
49 -243 6147 0
49 -244 6148 0
49 -245 6154 0
49 -246 6155 0
49 -247 6156 0
49 -248 6157 0
49 -249 6158 0
49 -250 6159 0
49 -251 6160 0
49 -252 6161 0
49 -253 6145 0
49 -254 6158 0
49 -255 6181 0
49 -256 6182 0
49 -257 6183 0
49 -258 6184 0
49 -259 6185 0
49 -260 6186 0
49 -261 6187 0
49 -262 6188 0
49 -263 6169 0
49 -264 6170 0
49 -265 6172 0
49 -266 6173 0
49 -267 6174 0
49 -268 6175 0
49 -269 6176 0
49 -270 6177 0
49 -271 6166 0
49 -272 6167 0
49 -273 6178 0
49 -274 6179 0
49 -275 6186 0
49 -276 6175 0
49 -277 6178 0
49 -278 6166 0
49 -279 6142 0
49 -280 6143 0
49 -281 6144 0
49 -282 6155 0
49 -283 6156 0
49 -284 6157 0
49 -285 6158 0
49 -286 6145 0
49 -287 6187 0
49 -288 6188 0
49 -289 6176 0
49 -290 6177 0
49 -291 6145 0
49 -292 6158 0
49 -293 6145 0
49 -294 6158 0
49 -295 6173 0
49 -296 6184 0
49 -297 6188 0
49 -298 6177 0
49 -299 6177 0
49 -300 6188 0
49 -301 6164 0
49 -302 6151 0
49 -303 6184 0
49 -304 6173 0
49 -305 6166 0
49 -306 6167 0
49 -307 6168 0
49 -308 6178 0
49 -309 6179 0
49 -310 6180 0
49 -311 6174 0
49 -312 6185 0
49 -313 6152 0
49 -314 6165 0
49 -315 6177 0
49 -316 6188 0
49 -317 6142 0
49 -318 6155 0
49 -319 6176 0
49 -320 6187 0
49 -321 6163 0
49 -322 6150 0
49 -323 6143 0
49 -324 6156 0
49 -325 6169 0
49 -326 6181 0
49 -327 6188 0
49 -328 6177 0
49 -329 6164 0
49 -330 6151 0
49 -331 6182 0
49 -332 6170 0
49 -333 6170 0
49 -334 6172 0
49 -335 6182 0
49 -336 6183 0
49 -337 6178 0
49 -338 6179 0
49 -339 6166 0
49 -340 6167 0
49 -341 6154 0
49 -342 6155 0
49 -343 6156 0
49 -344 6157 0
49 -345 6158 0
49 -346 6141 0
49 -347 6142 0
49 -348 6143 0
49 -349 6144 0
49 -350 6145 0
49 -351 6164 0
49 -352 6151 0
49 -353 6154 0
49 -354 6141 0
49 -355 6151 0
49 -356 6164 0
49 -357 6151 0
49 -358 6164 0
49 -359 6163 0
49 -360 6150 0
49 -361 6161 0
49 -362 6162 0
49 -363 6148 0
49 -364 6149 0
49 -365 6185 0
49 -366 6174 0
49 -367 6188 0
49 -368 6177 0
49 -369 6174 0
49 -370 6185 0
49 -371 6186 0
49 -372 6187 0
49 -373 6188 0
49 -374 6175 0
49 -375 6176 0
49 -376 6177 0
49 -377 6175 0
49 -378 6176 0
49 -379 6186 0
49 -380 6187 0
49 -381 6176 0
49 -382 6187 0
49 -383 6164 0
49 -384 6151 0
49 -385 6148 0
49 -386 6149 0
49 -387 6150 0
49 -388 6151 0
49 -389 6161 0
49 -390 6162 0
49 -391 6163 0
49 -392 6164 0
49 -393 6169 0
49 -394 6181 0
49 -395 6142 0
49 -396 6143 0
49 -397 6144 0
49 -398 6145 0
49 -399 6155 0
49 -400 6156 0
49 -401 6157 0
49 -402 6158 0
49 -403 6142 0
49 -404 6143 0
49 -405 6155 0
49 -406 6156 0
49 -407 6144 0
49 -408 6157 0
49 -409 6167 0
49 -410 6168 0
49 -411 6169 0
49 -412 6170 0
49 -413 6172 0
49 -414 6173 0
49 -415 6174 0
49 -416 6175 0
49 -417 6176 0
49 -418 6187 0
49 -419 6176 0
49 -420 6179 0
49 -421 6180 0
49 -422 6181 0
49 -423 6182 0
49 -424 6183 0
49 -425 6184 0
49 -426 6185 0
49 -427 6186 0
49 -428 6187 0
49 -429 6156 0
49 -430 6143 0
49 -431 6155 0
49 -432 6156 0
49 -433 6157 0
49 -434 6158 0
49 -435 6159 0
49 -436 6160 0
49 -437 6161 0
49 -438 6162 0
49 -439 6163 0
49 -440 6142 0
49 -441 6143 0
49 -442 6144 0
49 -443 6145 0
49 -444 6146 0
49 -445 6147 0
49 -446 6148 0
49 -447 6149 0
49 -448 6150 0
49 -449 6173 0
49 -450 6184 0
49 -451 6162 0
49 -452 6149 0
49 -453 6167 0
49 -454 6179 0
49 -455 6186 0
49 -456 6175 0
49 -457 6156 0
49 -458 6143 0
49 -459 6185 0
49 -460 6174 0
49 -461 6180 0
49 -462 6181 0
49 -463 6168 0
49 -464 6169 0
49 -465 6187 0
49 -466 6176 0
49 -467 6176 0
49 -468 6187 0
49 -469 6142 0
49 -470 6143 0
49 -471 6155 0
49 -472 6156 0
49 -473 6161 0
49 -474 6162 0
49 -475 6148 0
49 -476 6149 0
49 -477 6160 0
49 -478 6147 0
49 -479 6167 0
49 -480 6179 0
49 -481 6154 0
49 -482 6155 0
49 -483 6156 0
49 -484 6157 0
49 -485 6141 0
49 -486 6142 0
49 -487 6143 0
49 -488 6144 0
49 -489 6181 0
49 -490 6169 0
49 -491 6149 0
49 -492 6162 0
49 -493 6187 0
49 -494 6176 0
49 -495 6162 0
49 -496 6149 0
49 -497 6181 0
49 -498 6182 0
49 -499 6169 0
49 -500 6170 0
49 -501 6168 0
49 -502 6180 0
49 -503 6156 0
49 -504 6143 0
49 -505 6169 0
49 -506 6181 0
49 -507 6155 0
49 -508 6156 0
49 -509 6157 0
49 -510 6158 0
49 -511 6159 0
49 -512 6160 0
49 -513 6161 0
49 -514 6162 0
49 -515 6163 0
49 -516 6142 0
49 -517 6143 0
49 -518 6144 0
49 -519 6145 0
49 -520 6146 0
49 -521 6147 0
49 -522 6148 0
49 -523 6149 0
49 -524 6150 0
49 -525 6170 0
49 -526 6172 0
49 -527 6173 0
49 -528 6174 0
49 -529 6175 0
49 -530 6176 0
49 -531 6182 0
49 -532 6183 0
49 -533 6184 0
49 -534 6185 0
49 -535 6186 0
49 -536 6187 0
49 -537 6161 0
49 -538 6162 0
49 -539 6163 0
49 -540 6148 0
49 -541 6149 0
49 -542 6150 0
49 -543 6168 0
49 -544 6169 0
49 -545 6170 0
49 -546 6172 0
49 -547 6173 0
49 -548 6174 0
49 -549 6175 0
49 -550 6176 0
49 -551 6180 0
49 -552 6181 0
49 -553 6182 0
49 -554 6183 0
49 -555 6184 0
49 -556 6185 0
49 -557 6186 0
49 -558 6187 0
49 -559 6180 0
49 -560 6168 0
49 -561 6160 0
49 -562 6147 0
49 -563 6148 0
49 -564 6161 0
49 -565 6168 0
49 -566 6180 0
49 -567 6185 0
49 -568 6174 0
49 -569 6179 0
49 -570 6167 0
49 -571 6187 0
49 -572 6176 0
49 -573 6151 0
49 -574 6164 0
49 -575 6178 0
49 -576 6166 0
49 -577 6180 0
49 -578 6181 0
49 -579 6182 0
49 -580 6183 0
49 -581 6184 0
49 -582 6185 0
49 -583 6186 0
49 -584 6187 0
49 -585 6168 0
49 -586 6169 0
49 -587 6170 0
49 -588 6172 0
49 -589 6173 0
49 -590 6174 0
49 -591 6175 0
49 -592 6176 0
49 -593 6143 0
49 -594 6156 0
49 -595 6161 0
49 -596 6148 0
49 -597 6173 0
49 -598 6174 0
49 -599 6175 0
49 -600 6176 0
49 -601 6184 0
49 -602 6185 0
49 -603 6186 0
49 -604 6187 0
49 -605 6155 0
49 -606 6156 0
49 -607 6142 0
49 -608 6143 0
49 -609 6149 0
49 -610 6150 0
49 -611 6162 0
49 -612 6163 0
49 -613 6167 0
49 -614 6168 0
49 -615 6169 0
49 -616 6170 0
49 -617 6179 0
49 -618 6180 0
49 -619 6181 0
49 -620 6182 0
49 -621 6154 0
49 -622 6155 0
49 -623 6156 0
49 -624 6157 0
49 -625 6158 0
49 -626 6141 0
49 -627 6142 0
49 -628 6143 0
49 -629 6144 0
49 -630 6145 0
49 -631 6187 0
49 -632 6176 0
49 -633 6169 0
49 -634 6181 0
49 -635 6176 0
49 -636 6187 0
49 -637 6172 0
49 -638 6183 0
49 -639 6176 0
49 -640 6187 0
49 -641 6178 0
49 -642 6179 0
49 -643 6180 0
49 -644 6181 0
49 -645 6182 0
49 -646 6185 0
49 -647 6186 0
49 -648 6187 0
49 -649 6188 0
49 -650 6166 0
49 -651 6167 0
49 -652 6168 0
49 -653 6169 0
49 -654 6170 0
49 -655 6174 0
49 -656 6175 0
49 -657 6176 0
49 -658 6177 0
49 -659 6174 0
49 -660 6175 0
49 -661 6176 0
49 -662 6185 0
49 -663 6186 0
49 -664 6187 0
49 -665 6176 0
49 -666 6187 0
49 -667 6179 0
49 -668 6180 0
49 -669 6167 0
49 -670 6168 0
49 -671 6141 0
49 -672 6142 0
49 -673 6143 0
49 -674 6144 0
49 -675 6145 0
49 -676 6154 0
49 -677 6155 0
49 -678 6156 0
49 -679 6157 0
49 -680 6158 0
49 -681 6163 0
49 -682 6150 0
49 -683 6149 0
49 -684 6162 0
49 -685 6155 0
49 -686 6156 0
49 -687 6157 0
49 -688 6158 0
49 -689 6159 0
49 -690 6160 0
49 -691 6161 0
49 -692 6162 0
49 -693 6163 0
49 -694 6142 0
49 -695 6143 0
49 -696 6144 0
49 -697 6145 0
49 -698 6146 0
49 -699 6147 0
49 -700 6148 0
49 -701 6149 0
49 -702 6150 0
49 -703 6161 0
49 -704 6162 0
49 -705 6163 0
49 -706 6148 0
49 -707 6149 0
49 -708 6150 0
49 -709 6183 0
49 -710 6172 0
49 -711 6157 0
49 -712 6144 0
49 -713 6162 0
49 -714 6149 0
49 -715 6154 0
49 -716 6155 0
49 -717 6156 0
49 -718 6157 0
49 -719 6158 0
49 -720 6159 0
49 -721 6160 0
49 -722 6161 0
49 -723 6162 0
49 -724 6163 0
49 -725 6141 0
49 -726 6142 0
49 -727 6143 0
49 -728 6144 0
49 -729 6145 0
49 -730 6146 0
49 -731 6147 0
49 -732 6148 0
49 -733 6149 0
49 -734 6150 0
49 -735 6166 0
49 -736 6167 0
49 -737 6168 0
49 -738 6169 0
49 -739 6170 0
49 -740 6172 0
49 -741 6173 0
49 -742 6174 0
49 -743 6178 0
49 -744 6179 0
49 -745 6180 0
49 -746 6181 0
49 -747 6182 0
49 -748 6183 0
49 -749 6184 0
49 -750 6185 0
49 -751 6182 0
49 -752 6170 0
49 -753 6187 0
49 -754 6188 0
49 -755 6176 0
49 -756 6177 0
49 -757 6160 0
49 -758 6147 0
49 -759 6166 0
49 -760 6178 0
49 -761 6160 0
49 -762 6147 0
49 -763 6158 0
49 -764 6145 0
49 -765 6141 0
49 -766 6142 0
49 -767 6143 0
49 -768 6144 0
49 -769 6154 0
49 -770 6155 0
49 -771 6156 0
49 -772 6157 0
49 -773 6151 0
49 -774 6164 0
49 -775 6179 0
49 -776 6167 0
49 -777 6163 0
49 -778 6150 0
49 -779 6169 0
49 -780 6181 0
49 -781 6155 0
49 -782 6156 0
49 -783 6157 0
49 -784 6142 0
49 -785 6143 0
49 -786 6144 0
49 -787 6162 0
49 -788 6149 0
49 -789 6150 0
49 -790 6163 0
49 -791 6181 0
49 -792 6169 0
49 -793 6160 0
49 -794 6147 0
49 -795 6185 0
49 -796 6186 0
49 -797 6187 0
49 -798 6174 0
49 -799 6175 0
49 -800 6176 0
49 -801 6142 0
49 -802 6143 0
49 -803 6155 0
49 -804 6156 0
49 -805 6167 0
49 -806 6179 0
49 -807 6183 0
49 -808 6172 0
49 -809 6188 0
49 -810 6177 0
49 -811 6167 0
49 -812 6168 0
49 -813 6179 0
49 -814 6180 0
49 -815 6177 0
49 -816 6188 0
49 -817 6180 0
49 -818 6181 0
49 -819 6168 0
49 -820 6169 0
49 -821 6186 0
49 -822 6175 0
49 -823 6164 0
49 -824 6151 0
49 -825 6178 0
49 -826 6179 0
49 -827 6180 0
49 -828 6181 0
49 -829 6182 0
49 -830 6183 0
49 -831 6184 0
49 -832 6185 0
49 -833 6186 0
49 -834 6187 0
49 -835 6188 0
49 -836 6166 0
49 -837 6167 0
49 -838 6168 0
49 -839 6169 0
49 -840 6170 0
49 -841 6172 0
49 -842 6173 0
49 -843 6174 0
49 -844 6175 0
49 -845 6176 0
49 -846 6177 0
49 -847 6186 0
49 -848 6175 0
49 -849 6149 0
49 -850 6162 0
49 -851 6161 0
49 -852 6162 0
49 -853 6163 0
49 -854 6148 0
49 -855 6149 0
49 -856 6150 0
49 -857 6174 0
49 -858 6175 0
49 -859 6185 0
49 -860 6186 0
49 -861 6176 0
49 -862 6187 0
49 -863 6187 0
49 -864 6176 0
49 -865 6148 0
49 -866 6161 0
49 -867 6180 0
49 -868 6168 0
49 -869 6175 0
49 -870 6176 0
49 -871 6186 0
49 -872 6187 0
49 -873 6170 0
49 -874 6172 0
49 -875 6173 0
49 -876 6174 0
49 -877 6175 0
49 -878 6176 0
49 -879 6177 0
49 -880 6182 0
49 -881 6183 0
49 -882 6184 0
49 -883 6185 0
49 -884 6186 0
49 -885 6187 0
49 -886 6188 0
49 -887 6149 0
49 -888 6150 0
49 -889 6162 0
49 -890 6163 0
49 -891 6176 0
49 -892 6187 0
49 -893 6170 0
49 -894 6172 0
49 -895 6182 0
49 -896 6183 0
49 -897 6142 0
49 -898 6155 0
49 -899 6150 0
49 -900 6163 0
49 -901 6187 0
49 -902 6176 0
49 -903 6169 0
49 -904 6170 0
49 -905 6172 0
49 -906 6173 0
49 -907 6181 0
49 -908 6182 0
49 -909 6183 0
49 -910 6184 0
49 -911 6162 0
49 -912 6149 0
49 -913 6155 0
49 -914 6142 0
49 -915 6179 0
49 -916 6167 0
49 -917 6142 0
49 -918 6143 0
49 -919 6155 0
49 -920 6156 0
49 -921 6167 0
49 -922 6179 0
49 -923 6149 0
49 -924 6162 0
49 -925 6155 0
49 -926 6142 0
49 -927 6158 0
49 -928 6159 0
49 -929 6160 0
49 -930 6161 0
49 -931 6145 0
49 -932 6146 0
49 -933 6147 0
49 -934 6148 0
49 -935 6143 0
49 -936 6156 0
49 -937 6146 0
49 -938 6159 0
49 -939 6154 0
49 -940 6155 0
49 -941 6156 0
49 -942 6157 0
49 -943 6158 0
49 -944 6159 0
49 -945 6160 0
49 -946 6161 0
49 -947 6141 0
49 -948 6142 0
49 -949 6143 0
49 -950 6144 0
49 -951 6145 0
49 -952 6146 0
49 -953 6147 0
49 -954 6148 0
49 -955 6170 0
49 -956 6172 0
49 -957 6173 0
49 -958 6174 0
49 -959 6182 0
49 -960 6183 0
49 -961 6184 0
49 -962 6185 0
49 -963 6168 0
49 -964 6169 0
49 -965 6170 0
49 -966 6180 0
49 -967 6181 0
49 -968 6182 0
49 -969 6141 0
49 -970 6142 0
49 -971 6143 0
49 -972 6144 0
49 -973 6145 0
49 -974 6146 0
49 -975 6147 0
49 -976 6148 0
49 -977 6149 0
49 -978 6150 0
49 -979 6151 0
49 -980 6166 0
49 -981 6167 0
49 -982 6168 0
49 -983 6169 0
49 -984 6170 0
49 -985 6172 0
49 -986 6173 0
49 -987 6174 0
49 -988 6175 0
49 -989 6176 0
49 -990 6177 0
49 -991 6178 0
49 -992 6179 0
49 -993 6180 0
49 -994 6181 0
49 -995 6182 0
49 -996 6183 0
49 -997 6184 0
49 -998 6185 0
49 -999 6186 0
49 -1000 6187 0
49 -1001 6188 0
49 -1002 6154 0
49 -1003 6155 0
49 -1004 6156 0
49 -1005 6157 0
49 -1006 6158 0
49 -1007 6159 0
49 -1008 6160 0
49 -1009 6161 0
49 -1010 6162 0
49 -1011 6163 0
49 -1012 6164 0
49 -1013 6166 0
49 -1014 6167 0
49 -1015 6168 0
49 -1016 6169 0
49 -1017 6170 0
49 -1018 6172 0
49 -1019 6173 0
49 -1020 6174 0
49 -1021 6175 0
49 -1022 6176 0
49 -1023 6177 0
49 -1024 6178 0
49 -1025 6179 0
49 -1026 6180 0
49 -1027 6181 0
49 -1028 6182 0
49 -1029 6183 0
49 -1030 6184 0
49 -1031 6185 0
49 -1032 6186 0
49 -1033 6187 0
49 -1034 6188 0
49 -1035 6160 0
49 -1036 6147 0
49 -1037 6141 0
49 -1038 6154 0
49 -1039 6164 0
49 -1040 6151 0
49 -1041 6162 0
49 -1042 6164 0
49 -1043 6149 0
49 -1044 6151 0
49 -1045 6168 0
49 -1046 6169 0
49 -1047 6170 0
49 -1048 6172 0
49 -1049 6173 0
49 -1050 6174 0
49 -1051 6175 0
49 -1052 6176 0
49 -1053 6180 0
49 -1054 6181 0
49 -1055 6182 0
49 -1056 6183 0
49 -1057 6184 0
49 -1058 6185 0
49 -1059 6186 0
49 -1060 6187 0
49 -1061 6145 0
49 -1062 6158 0
49 -1063 6150 0
49 -1064 6168 0
49 -1065 6169 0
49 -1066 6170 0
49 -1067 6172 0
49 -1068 6173 0
49 -1069 6174 0
49 -1070 6175 0
49 -1071 6176 0
49 -1072 6179 0
49 -1073 6180 0
49 -1074 6181 0
49 -1075 6182 0
49 -1076 6183 0
49 -1077 6184 0
49 -1078 6185 0
49 -1079 6186 0
49 -1080 6187 0
49 -1081 6163 0
49 -1082 6167 0
49 -1083 6168 0
49 -1084 6169 0
49 -1085 6170 0
49 -1086 6172 0
49 -1087 6173 0
49 -1088 6174 0
49 -1089 6175 0
49 -1090 6176 0
49 -1091 6180 0
49 -1092 6181 0
49 -1093 6182 0
49 -1094 6183 0
49 -1095 6184 0
49 -1096 6185 0
49 -1097 6186 0
49 -1098 6187 0
49 -1099 6142 0
49 -1100 6143 0
49 -1101 6144 0
49 -1102 6145 0
49 -1103 6146 0
49 -1104 6147 0
49 -1105 6148 0
49 -1106 6149 0
49 -1107 6155 0
49 -1108 6156 0
49 -1109 6157 0
49 -1110 6158 0
49 -1111 6159 0
49 -1112 6160 0
49 -1113 6161 0
49 -1114 6162 0
49 -1115 6163 0
49 -1116 6167 0
49 -1117 6168 0
49 -1118 6169 0
49 -1119 6170 0
49 -1120 6172 0
49 -1121 6173 0
49 -1122 6174 0
49 -1123 6175 0
49 -1124 6176 0
49 -1125 6142 0
49 -1126 6143 0
49 -1127 6144 0
49 -1128 6145 0
49 -1129 6146 0
49 -1130 6147 0
49 -1131 6148 0
49 -1132 6149 0
49 -1133 6150 0
49 -1134 6155 0
49 -1135 6156 0
49 -1136 6157 0
49 -1137 6158 0
49 -1138 6159 0
49 -1139 6160 0
49 -1140 6161 0
49 -1141 6162 0
49 -1142 6179 0
49 -1143 6180 0
49 -1144 6181 0
49 -1145 6182 0
49 -1146 6183 0
49 -1147 6184 0
49 -1148 6185 0
49 -1149 6186 0
49 -1150 6187 0
49 -1151 6142 0
49 -1152 6143 0
49 -1153 6144 0
49 -1154 6145 0
49 -1155 6146 0
49 -1156 6147 0
49 -1157 6148 0
49 -1158 6149 0
49 -1159 6150 0
49 -1160 6155 0
49 -1161 6156 0
49 -1162 6157 0
49 -1163 6158 0
49 -1164 6159 0
49 -1165 6160 0
49 -1166 6161 0
49 -1167 6162 0
49 -1168 6179 0
49 -1169 6180 0
49 -1170 6142 0
49 -1171 6143 0
49 -1172 6144 0
49 -1173 6145 0
49 -1174 6146 0
49 -1175 6147 0
49 -1176 6148 0
49 -1177 6149 0
49 -1178 6155 0
49 -1179 6156 0
49 -1180 6157 0
49 -1181 6158 0
49 -1182 6159 0
49 -1183 6160 0
49 -1184 6161 0
49 -1185 6162 0
49 -1186 6163 0
49 -1187 6167 0
49 -1188 6168 0
49 -1189 6173 0
49 -1190 6184 0
49 -1191 6142 0
49 -1192 6143 0
49 -1193 6144 0
49 -1194 6145 0
49 -1195 6146 0
49 -1196 6147 0
49 -1197 6148 0
49 -1198 6149 0
49 -1199 6155 0
49 -1200 6156 0
49 -1201 6157 0
49 -1202 6158 0
49 -1203 6159 0
49 -1204 6160 0
49 -1205 6161 0
49 -1206 6162 0
49 -1207 6174 0
49 -1208 6175 0
49 -1209 6176 0
49 -1210 6179 0
49 -1211 6180 0
49 -1212 6181 0
49 -1213 6182 0
49 -1214 6183 0
49 -1215 6184 0
49 -1216 6185 0
49 -1217 6186 0
49 -1218 6187 0
49 -1219 6167 0
49 -1220 6168 0
49 -1221 6169 0
49 -1222 6170 0
49 -1223 6172 0
49 -1224 6173 0
49 -1225 6174 0
49 -1226 6175 0
49 -1227 6176 0
49 -1228 6185 0
49 -1229 6186 0
49 -1230 6187 0
49 -1231 6142 0
49 -1232 6143 0
49 -1233 6144 0
49 -1234 6145 0
49 -1235 6146 0
49 -1236 6147 0
49 -1237 6148 0
49 -1238 6155 0
49 -1239 6156 0
49 -1240 6157 0
49 -1241 6158 0
49 -1242 6159 0
49 -1243 6160 0
49 -1244 6161 0
49 -1245 6173 0
49 -1246 6184 0
49 -1247 6147 0
49 -1248 6160 0
49 -1249 6180 0
49 -1250 6181 0
49 -1251 6182 0
49 -1252 6183 0
49 -1253 6168 0
49 -1254 6169 0
49 -1255 6170 0
49 -1256 6172 0
49 -1257 6143 0
49 -1258 6144 0
49 -1259 6145 0
49 -1260 6156 0
49 -1261 6157 0
49 -1262 6158 0
49 -1263 6151 0
49 -1264 6164 0
49 -1265 6145 0
49 -1266 6158 0
49 -1267 6145 0
49 -1268 6158 0
49 -1269 6182 0
49 -1270 6170 0
49 -1271 6164 0
49 -1272 6151 0
49 -1273 6188 0
49 -1274 6177 0
49 -1275 6184 0
49 -1276 6185 0
49 -1277 6186 0
49 -1278 6187 0
49 -1279 6173 0
49 -1280 6174 0
49 -1281 6175 0
49 -1282 6176 0
49 -1283 6176 0
49 -1284 6187 0
49 -1285 6176 0
49 -1286 6187 0
49 -1287 6183 0
49 -1288 6184 0
49 -1289 6185 0
49 -1290 6186 0
49 -1291 6172 0
49 -1292 6173 0
49 -1293 6174 0
49 -1294 6175 0
49 -1295 6170 0
49 -1296 6172 0
49 -1297 6173 0
49 -1298 6174 0
49 -1299 6175 0
49 -1300 6176 0
49 -1301 6182 0
49 -1302 6183 0
49 -1303 6184 0
49 -1304 6185 0
49 -1305 6186 0
49 -1306 6187 0
49 -1307 6155 0
49 -1308 6156 0
49 -1309 6157 0
49 -1310 6158 0
49 -1311 6142 0
49 -1312 6143 0
49 -1313 6144 0
49 -1314 6145 0
49 -1315 6179 0
49 -1316 6167 0
49 -1317 6188 0
49 -1318 6177 0
49 -1319 6142 0
49 -1320 6143 0
49 -1321 6155 0
49 -1322 6156 0
49 -1323 6142 0
49 -1324 6143 0
49 -1325 6144 0
49 -1326 6145 0
49 -1327 6155 0
49 -1328 6156 0
49 -1329 6157 0
49 -1330 6158 0
49 -1331 6182 0
49 -1332 6183 0
49 -1333 6170 0
49 -1334 6172 0
49 -1335 6155 0
49 -1336 6156 0
49 -1337 6157 0
49 -1338 6142 0
49 -1339 6143 0
49 -1340 6144 0
49 -1341 6148 0
49 -1342 6149 0
49 -1343 6150 0
49 -1344 6161 0
49 -1345 6162 0
49 -1346 6163 0
49 -1347 6172 0
49 -1348 6173 0
49 -1349 6174 0
49 -1350 6175 0
49 -1351 6176 0
49 -1352 6183 0
49 -1353 6184 0
49 -1354 6185 0
49 -1355 6186 0
49 -1356 6187 0
49 -1357 6167 0
49 -1358 6168 0
49 -1359 6179 0
49 -1360 6180 0
49 -1361 6173 0
49 -1362 6174 0
49 -1363 6175 0
49 -1364 6176 0
49 -1365 6184 0
49 -1366 6185 0
49 -1367 6186 0
49 -1368 6187 0
49 -1369 6155 0
49 -1370 6156 0
49 -1371 6157 0
49 -1372 6158 0
49 -1373 6142 0
49 -1374 6143 0
49 -1375 6144 0
49 -1376 6145 0
49 -1377 6142 0
49 -1378 6143 0
49 -1379 6155 0
49 -1380 6156 0
49 -1381 6175 0
49 -1382 6176 0
49 -1383 6186 0
49 -1384 6187 0
49 -1385 6178 0
49 -1386 6179 0
49 -1387 6166 0
49 -1388 6167 0
49 -1389 6159 0
49 -1390 6146 0
49 -1391 6179 0
49 -1392 6180 0
49 -1393 6167 0
49 -1394 6168 0
49 -1395 6164 0
49 -1396 6151 0
49 -1397 6178 0
49 -1398 6179 0
49 -1399 6180 0
49 -1400 6166 0
49 -1401 6167 0
49 -1402 6168 0
49 -1403 6155 0
49 -1404 6156 0
49 -1405 6142 0
49 -1406 6143 0
49 -1407 6155 0
49 -1408 6156 0
49 -1409 6142 0
49 -1410 6143 0
49 -1411 6145 0
49 -1412 6158 0
49 -1413 6142 0
49 -1414 6143 0
49 -1415 6144 0
49 -1416 6155 0
49 -1417 6156 0
49 -1418 6157 0
49 -1419 6183 0
49 -1420 6184 0
49 -1421 6185 0
49 -1422 6186 0
49 -1423 6187 0
49 -1424 6172 0
49 -1425 6173 0
49 -1426 6174 0
49 -1427 6175 0
49 -1428 6176 0
49 -1429 6155 0
49 -1430 6156 0
49 -1431 6157 0
49 -1432 6158 0
49 -1433 6160 0
49 -1434 6161 0
49 -1435 6162 0
49 -1436 6163 0
49 -1437 6142 0
49 -1438 6143 0
49 -1439 6144 0
49 -1440 6145 0
49 -1441 6147 0
49 -1442 6148 0
49 -1443 6149 0
49 -1444 6150 0
49 -1445 6173 0
49 -1446 6174 0
49 -1447 6175 0
49 -1448 6176 0
49 -1449 6184 0
49 -1450 6185 0
49 -1451 6186 0
49 -1452 6187 0
49 -1453 6179 0
49 -1454 6180 0
49 -1455 6181 0
49 -1456 6182 0
49 -1457 6167 0
49 -1458 6168 0
49 -1459 6169 0
49 -1460 6170 0
49 -1461 6155 0
49 -1462 6156 0
49 -1463 6162 0
49 -1464 6163 0
49 -1465 6142 0
49 -1466 6143 0
49 -1467 6149 0
49 -1468 6150 0
49 -1469 6181 0
49 -1470 6182 0
49 -1471 6169 0
49 -1472 6170 0
49 -1473 6186 0
49 -1474 6187 0
49 -1475 6175 0
49 -1476 6176 0
49 -1477 6174 0
49 -1478 6175 0
49 -1479 6176 0
49 -1480 6185 0
49 -1481 6186 0
49 -1482 6187 0
49 -1483 6167 0
49 -1484 6168 0
49 -1485 6169 0
49 -1486 6179 0
49 -1487 6180 0
49 -1488 6181 0
49 -1489 6148 0
49 -1490 6149 0
49 -1491 6150 0
49 -1492 6161 0
49 -1493 6162 0
49 -1494 6163 0
49 -1495 6154 0
49 -1496 6155 0
49 -1497 6156 0
49 -1498 6141 0
49 -1499 6142 0
49 -1500 6143 0
49 -1501 6170 0
49 -1502 6172 0
49 -1503 6173 0
49 -1504 6174 0
49 -1505 6175 0
49 -1506 6176 0
49 -1507 6182 0
49 -1508 6183 0
49 -1509 6184 0
49 -1510 6185 0
49 -1511 6186 0
49 -1512 6187 0
49 -1513 6150 0
49 -1514 6163 0
49 -1515 6170 0
49 -1516 6172 0
49 -1517 6173 0
49 -1518 6174 0
49 -1519 6175 0
49 -1520 6176 0
49 -1521 6182 0
49 -1522 6183 0
49 -1523 6184 0
49 -1524 6185 0
49 -1525 6186 0
49 -1526 6187 0
49 -1527 6159 0
49 -1528 6160 0
49 -1529 6146 0
49 -1530 6147 0
49 -1531 6179 0
49 -1532 6180 0
49 -1533 6167 0
49 -1534 6168 0
49 -1535 6184 0
49 -1536 6185 0
49 -1537 6186 0
49 -1538 6187 0
49 -1539 6173 0
49 -1540 6174 0
49 -1541 6175 0
49 -1542 6176 0
49 -1543 6155 0
49 -1544 6156 0
49 -1545 6157 0
49 -1546 6158 0
49 -1547 6159 0
49 -1548 6142 0
49 -1549 6143 0
49 -1550 6144 0
49 -1551 6145 0
49 -1552 6146 0
49 -1553 6174 0
49 -1554 6185 0
49 -1555 6141 0
49 -1556 6154 0
49 -1557 6154 0
49 -1558 6141 0
49 -1559 6169 0
49 -1560 6170 0
49 -1561 6172 0
49 -1562 6173 0
49 -1563 6174 0
49 -1564 6175 0
49 -1565 6176 0
49 -1566 6177 0
49 -1567 6181 0
49 -1568 6182 0
49 -1569 6183 0
49 -1570 6184 0
49 -1571 6185 0
49 -1572 6186 0
49 -1573 6187 0
49 -1574 6188 0
49 -1575 6148 0
49 -1576 6149 0
49 -1577 6150 0
49 -1578 6161 0
49 -1579 6162 0
49 -1580 6163 0
49 -1581 6168 0
49 -1582 6169 0
49 -1583 6170 0
49 -1584 6172 0
49 -1585 6173 0
49 -1586 6174 0
49 -1587 6175 0
49 -1588 6176 0
49 -1589 6180 0
49 -1590 6181 0
49 -1591 6182 0
49 -1592 6183 0
49 -1593 6184 0
49 -1594 6185 0
49 -1595 6186 0
49 -1596 6187 0
49 -1597 6167 0
49 -1598 6168 0
49 -1599 6169 0
49 -1600 6170 0
49 -1601 6177 0
49 -1602 6179 0
49 -1603 6180 0
49 -1604 6181 0
49 -1605 6182 0
49 -1606 6188 0
49 -1607 6154 0
49 -1608 6155 0
49 -1609 6156 0
49 -1610 6157 0
49 -1611 6161 0
49 -1612 6162 0
49 -1613 6141 0
49 -1614 6142 0
49 -1615 6143 0
49 -1616 6144 0
49 -1617 6148 0
49 -1618 6149 0
49 -1619 6181 0
49 -1620 6182 0
49 -1621 6183 0
49 -1622 6184 0
49 -1623 6185 0
49 -1624 6186 0
49 -1625 6187 0
49 -1626 6188 0
49 -1627 6169 0
49 -1628 6170 0
49 -1629 6172 0
49 -1630 6173 0
49 -1631 6174 0
49 -1632 6175 0
49 -1633 6176 0
49 -1634 6177 0
49 -1635 6154 0
49 -1636 6155 0
49 -1637 6156 0
49 -1638 6157 0
49 -1639 6161 0
49 -1640 6141 0
49 -1641 6142 0
49 -1642 6143 0
49 -1643 6144 0
49 -1644 6148 0
49 -1645 6166 0
49 -1646 6167 0
49 -1647 6168 0
49 -1648 6169 0
49 -1649 6170 0
49 -1650 6172 0
49 -1651 6175 0
49 -1652 6176 0
49 -1653 6177 0
49 -1654 6178 0
49 -1655 6179 0
49 -1656 6180 0
49 -1657 6181 0
49 -1658 6182 0
49 -1659 6183 0
49 -1660 6186 0
49 -1661 6187 0
49 -1662 6188 0
49 -1663 6166 0
49 -1664 6167 0
49 -1665 6168 0
49 -1666 6169 0
49 -1667 6170 0
49 -1668 6172 0
49 -1669 6173 0
49 -1670 6174 0
49 -1671 6175 0
49 -1672 6176 0
49 -1673 6177 0
49 -1674 6178 0
49 -1675 6179 0
49 -1676 6180 0
49 -1677 6181 0
49 -1678 6182 0
49 -1679 6183 0
49 -1680 6184 0
49 -1681 6185 0
49 -1682 6186 0
49 -1683 6187 0
49 -1684 6188 0
49 -1685 6184 0
49 -1686 6185 0
49 -1687 6186 0
49 -1688 6187 0
49 -1689 6173 0
49 -1690 6174 0
49 -1691 6175 0
49 -1692 6176 0
49 -1693 6188 0
49 -1694 6177 0
49 -1695 6166 0
49 -1696 6167 0
49 -1697 6168 0
49 -1698 6178 0
49 -1699 6179 0
49 -1700 6180 0
49 -1701 6160 0
49 -1702 6161 0
49 -1703 6162 0
49 -1704 6163 0
49 -1705 6147 0
49 -1706 6148 0
49 -1707 6149 0
49 -1708 6150 0
49 -1709 6167 0
49 -1710 6168 0
49 -1711 6169 0
49 -1712 6179 0
49 -1713 6180 0
49 -1714 6181 0
49 -1715 6141 0
49 -1716 6148 0
49 -1717 6149 0
49 -1718 6150 0
49 -1719 6151 0
49 -1720 6154 0
49 -1721 6161 0
49 -1722 6162 0
49 -1723 6163 0
49 -1724 6164 0
49 -1725 6177 0
49 -1726 6188 0
49 -1727 6142 0
49 -1728 6143 0
49 -1729 6144 0
49 -1730 6145 0
49 -1731 6146 0
49 -1732 6147 0
49 -1733 6148 0
49 -1734 6149 0
49 -1735 6150 0
49 -1736 6155 0
49 -1737 6156 0
49 -1738 6157 0
49 -1739 6158 0
49 -1740 6159 0
49 -1741 6160 0
49 -1742 6161 0
49 -1743 6162 0
49 -1744 6163 0
49 -1745 6184 0
49 -1746 6185 0
49 -1747 6186 0
49 -1748 6187 0
49 -1749 6173 0
49 -1750 6174 0
49 -1751 6175 0
49 -1752 6176 0
49 -1753 6174 0
49 -1754 6175 0
49 -1755 6176 0
49 -1756 6185 0
49 -1757 6186 0
49 -1758 6187 0
49 -1759 6142 0
49 -1760 6143 0
49 -1761 6144 0
49 -1762 6145 0
49 -1763 6146 0
49 -1764 6147 0
49 -1765 6148 0
49 -1766 6149 0
49 -1767 6155 0
49 -1768 6156 0
49 -1769 6157 0
49 -1770 6158 0
49 -1771 6159 0
49 -1772 6160 0
49 -1773 6161 0
49 -1774 6162 0
49 -1775 6142 0
49 -1776 6143 0
49 -1777 6144 0
49 -1778 6145 0
49 -1779 6146 0
49 -1780 6147 0
49 -1781 6148 0
49 -1782 6149 0
49 -1783 6155 0
49 -1784 6156 0
49 -1785 6157 0
49 -1786 6158 0
49 -1787 6159 0
49 -1788 6160 0
49 -1789 6161 0
49 -1790 6162 0
49 -1791 6155 0
49 -1792 6156 0
49 -1793 6142 0
49 -1794 6143 0
49 -1795 6179 0
49 -1796 6180 0
49 -1797 6181 0
49 -1798 6182 0
49 -1799 6167 0
49 -1800 6168 0
49 -1801 6169 0
49 -1802 6170 0
49 -1803 6167 0
49 -1804 6168 0
49 -1805 6169 0
49 -1806 6170 0
49 -1807 6173 0
49 -1808 6174 0
49 -1809 6175 0
49 -1810 6176 0
49 -1811 6179 0
49 -1812 6180 0
49 -1813 6181 0
49 -1814 6182 0
49 -1815 6184 0
49 -1816 6185 0
49 -1817 6186 0
49 -1818 6187 0
49 -1819 6167 0
49 -1820 6168 0
49 -1821 6169 0
49 -1822 6170 0
49 -1823 6173 0
49 -1824 6174 0
49 -1825 6175 0
49 -1826 6176 0
49 -1827 6179 0
49 -1828 6180 0
49 -1829 6181 0
49 -1830 6182 0
49 -1831 6184 0
49 -1832 6185 0
49 -1833 6186 0
49 -1834 6187 0
49 -1835 6142 0
49 -1836 6143 0
49 -1837 6144 0
49 -1838 6145 0
49 -1839 6146 0
49 -1840 6147 0
49 -1841 6148 0
49 -1842 6149 0
49 -1843 6155 0
49 -1844 6156 0
49 -1845 6157 0
49 -1846 6158 0
49 -1847 6159 0
49 -1848 6160 0
49 -1849 6161 0
49 -1850 6162 0
49 -1851 6142 0
49 -1852 6155 0
49 -1853 6156 0
49 -1854 6157 0
49 -1855 6158 0
49 -1856 6159 0
49 -1857 6160 0
49 -1858 6161 0
49 -1859 6162 0
49 -1860 6163 0
49 -1861 6142 0
49 -1862 6143 0
49 -1863 6144 0
49 -1864 6145 0
49 -1865 6146 0
49 -1866 6147 0
49 -1867 6148 0
49 -1868 6149 0
49 -1869 6150 0
49 -1870 6155 0
49 -1871 6162 0
49 -1872 6163 0
49 -1873 6149 0
49 -1874 6150 0
49 -1875 6142 0
49 -1876 6143 0
49 -1877 6144 0
49 -1878 6145 0
49 -1879 6155 0
49 -1880 6156 0
49 -1881 6157 0
49 -1882 6158 0
49 -1883 6180 0
49 -1884 6181 0
49 -1885 6182 0
49 -1886 6183 0
49 -1887 6184 0
49 -1888 6168 0
49 -1889 6169 0
49 -1890 6170 0
49 -1891 6172 0
49 -1892 6173 0
49 -1893 6141 0
49 -1894 6142 0
49 -1895 6143 0
49 -1896 6144 0
49 -1897 6145 0
49 -1898 6146 0
49 -1899 6147 0
49 -1900 6148 0
49 -1901 6149 0
49 -1902 6150 0
49 -1903 6151 0
49 -1904 6154 0
49 -1905 6155 0
49 -1906 6156 0
49 -1907 6157 0
49 -1908 6158 0
49 -1909 6159 0
49 -1910 6160 0
49 -1911 6161 0
49 -1912 6162 0
49 -1913 6163 0
49 -1914 6164 0
49 -1915 6154 0
49 -1916 6155 0
49 -1917 6141 0
49 -1918 6142 0
49 -1919 6155 0
49 -1920 6142 0
49 -1921 6167 0
49 -1922 6168 0
49 -1923 6169 0
49 -1924 6170 0
49 -1925 6172 0
49 -1926 6173 0
49 -1927 6174 0
49 -1928 6175 0
49 -1929 6176 0
49 -1930 6179 0
49 -1931 6180 0
49 -1932 6181 0
49 -1933 6182 0
49 -1934 6183 0
49 -1935 6184 0
49 -1936 6185 0
49 -1937 6186 0
49 -1938 6187 0
49 -1939 6141 0
49 -1940 6142 0
49 -1941 6143 0
49 -1942 6144 0
49 -1943 6145 0
49 -1944 6146 0
49 -1945 6147 0
49 -1946 6148 0
49 -1947 6149 0
49 -1948 6150 0
49 -1949 6151 0
49 -1950 6154 0
49 -1951 6155 0
49 -1952 6156 0
49 -1953 6157 0
49 -1954 6158 0
49 -1955 6159 0
49 -1956 6160 0
49 -1957 6161 0
49 -1958 6162 0
49 -1959 6163 0
49 -1960 6164 0
