c Dataset: TUD200.4
c Encoding: DSE
c DecisionVars: 624
c OrderVars: 0
c CardinalityAuxVars: 1812
c LabelVars: 48
c TotalVars: 2484
c OrderClauses: 0
c CardinalityClauses: 6230
c DistanceClauses: 4675
c LabelLinkClauses: 624
c SoftClauses: 48
c HardClauses: 11529
c TotalClauses: 11577
p wcnf 2484 11577 49
1 -2437 0
1 -2438 0
1 -2439 0
1 -2440 0
1 -2441 0
1 -2442 0
1 -2443 0
1 -2444 0
1 -2445 0
1 -2446 0
1 -2447 0
1 -2448 0
1 -2449 0
1 -2450 0
1 -2451 0
1 -2452 0
1 -2453 0
1 -2454 0
1 -2455 0
1 -2456 0
1 -2457 0
1 -2458 0
1 -2459 0
1 -2460 0
1 -2461 0
1 -2462 0
1 -2463 0
1 -2464 0
1 -2465 0
1 -2466 0
1 -2467 0
1 -2468 0
1 -2469 0
1 -2470 0
1 -2471 0
1 -2472 0
1 -2473 0
1 -2474 0
1 -2475 0
1 -2476 0
1 -2477 0
1 -2478 0
1 -2479 0
1 -2480 0
1 -2481 0
1 -2482 0
1 -2483 0
1 -2484 0
49 1 0
49 2 0
49 3 0
49 4 0
49 5 6 7 8 9 10 11 12 13 14 15 16 17 18 19 20 21 22 23 24 25 26 27 28 29 30 31 32 33 34 35 36 0
49 -673 625 0
49 -674 626 0
49 -675 627 0
49 -676 628 0
49 -677 629 0
49 -678 630 0
49 -679 631 0
49 -680 632 0
49 -681 633 0
49 -682 634 0
49 -683 635 0
49 -684 636 0
49 -685 637 0
49 -686 638 0
49 -687 639 0
49 -688 640 0
49 -657 625 0
49 -658 626 0
49 -659 627 0
49 -660 628 0
49 -661 629 0
49 -662 630 0
49 -663 631 0
49 -664 632 0
49 -665 633 0
49 -666 634 0
49 -667 635 0
49 -668 636 0
49 -669 637 0
49 -670 638 0
49 -671 639 0
49 -672 640 0
49 -657 -673 626 0
49 -657 -674 627 0
49 -657 -675 628 0
49 -657 -676 629 0
49 -657 -677 630 0
49 -657 -678 631 0
49 -657 -679 632 0
49 -657 -680 633 0
49 -657 -681 634 0
49 -657 -682 635 0
49 -657 -683 636 0
49 -657 -684 637 0
49 -657 -685 638 0
49 -657 -686 639 0
49 -657 -687 640 0
49 -657 -688 641 0
49 -658 -673 627 0
49 -658 -674 628 0
49 -658 -675 629 0
49 -658 -676 630 0
49 -658 -677 631 0
49 -658 -678 632 0
49 -658 -679 633 0
49 -658 -680 634 0
49 -658 -681 635 0
49 -658 -682 636 0
49 -658 -683 637 0
49 -658 -684 638 0
49 -658 -685 639 0
49 -658 -686 640 0
49 -658 -687 641 0
49 -658 -688 642 0
49 -659 -673 628 0
49 -659 -674 629 0
49 -659 -675 630 0
49 -659 -676 631 0
49 -659 -677 632 0
49 -659 -678 633 0
49 -659 -679 634 0
49 -659 -680 635 0
49 -659 -681 636 0
49 -659 -682 637 0
49 -659 -683 638 0
49 -659 -684 639 0
49 -659 -685 640 0
49 -659 -686 641 0
49 -659 -687 642 0
49 -659 -688 643 0
49 -660 -673 629 0
49 -660 -674 630 0
49 -660 -675 631 0
49 -660 -676 632 0
49 -660 -677 633 0
49 -660 -678 634 0
49 -660 -679 635 0
49 -660 -680 636 0
49 -660 -681 637 0
49 -660 -682 638 0
49 -660 -683 639 0
49 -660 -684 640 0
49 -660 -685 641 0
49 -660 -686 642 0
49 -660 -687 643 0
49 -660 -688 644 0
49 -661 -673 630 0
49 -661 -674 631 0
49 -661 -675 632 0
49 -661 -676 633 0
49 -661 -677 634 0
49 -661 -678 635 0
49 -661 -679 636 0
49 -661 -680 637 0
49 -661 -681 638 0
49 -661 -682 639 0
49 -661 -683 640 0
49 -661 -684 641 0
49 -661 -685 642 0
49 -661 -686 643 0
49 -661 -687 644 0
49 -661 -688 645 0
49 -662 -673 631 0
49 -662 -674 632 0
49 -662 -675 633 0
49 -662 -676 634 0
49 -662 -677 635 0
49 -662 -678 636 0
49 -662 -679 637 0
49 -662 -680 638 0
49 -662 -681 639 0
49 -662 -682 640 0
49 -662 -683 641 0
49 -662 -684 642 0
49 -662 -685 643 0
49 -662 -686 644 0
49 -662 -687 645 0
49 -662 -688 646 0
49 -663 -673 632 0
49 -663 -674 633 0
49 -663 -675 634 0
49 -663 -676 635 0
49 -663 -677 636 0
49 -663 -678 637 0
49 -663 -679 638 0
49 -663 -680 639 0
49 -663 -681 640 0
49 -663 -682 641 0
49 -663 -683 642 0
49 -663 -684 643 0
49 -663 -685 644 0
49 -663 -686 645 0
49 -663 -687 646 0
49 -663 -688 647 0
49 -664 -673 633 0
49 -664 -674 634 0
49 -664 -675 635 0
49 -664 -676 636 0
49 -664 -677 637 0
49 -664 -678 638 0
49 -664 -679 639 0
49 -664 -680 640 0
49 -664 -681 641 0
49 -664 -682 642 0
49 -664 -683 643 0
49 -664 -684 644 0
49 -664 -685 645 0
49 -664 -686 646 0
49 -664 -687 647 0
49 -664 -688 648 0
49 -665 -673 634 0
49 -665 -674 635 0
49 -665 -675 636 0
49 -665 -676 637 0
49 -665 -677 638 0
49 -665 -678 639 0
49 -665 -679 640 0
49 -665 -680 641 0
49 -665 -681 642 0
49 -665 -682 643 0
49 -665 -683 644 0
49 -665 -684 645 0
49 -665 -685 646 0
49 -665 -686 647 0
49 -665 -687 648 0
49 -665 -688 649 0
49 -666 -673 635 0
49 -666 -674 636 0
49 -666 -675 637 0
49 -666 -676 638 0
49 -666 -677 639 0
49 -666 -678 640 0
49 -666 -679 641 0
49 -666 -680 642 0
49 -666 -681 643 0
49 -666 -682 644 0
49 -666 -683 645 0
49 -666 -684 646 0
49 -666 -685 647 0
49 -666 -686 648 0
49 -666 -687 649 0
49 -666 -688 650 0
49 -667 -673 636 0
49 -667 -674 637 0
49 -667 -675 638 0
49 -667 -676 639 0
49 -667 -677 640 0
49 -667 -678 641 0
49 -667 -679 642 0
49 -667 -680 643 0
49 -667 -681 644 0
49 -667 -682 645 0
49 -667 -683 646 0
49 -667 -684 647 0
49 -667 -685 648 0
49 -667 -686 649 0
49 -667 -687 650 0
49 -667 -688 651 0
49 -668 -673 637 0
49 -668 -674 638 0
49 -668 -675 639 0
49 -668 -676 640 0
49 -668 -677 641 0
49 -668 -678 642 0
49 -668 -679 643 0
49 -668 -680 644 0
49 -668 -681 645 0
49 -668 -682 646 0
49 -668 -683 647 0
49 -668 -684 648 0
49 -668 -685 649 0
49 -668 -686 650 0
49 -668 -687 651 0
49 -668 -688 652 0
49 -669 -673 638 0
49 -669 -674 639 0
49 -669 -675 640 0
49 -669 -676 641 0
49 -669 -677 642 0
49 -669 -678 643 0
49 -669 -679 644 0
49 -669 -680 645 0
49 -669 -681 646 0
49 -669 -682 647 0
49 -669 -683 648 0
49 -669 -684 649 0
49 -669 -685 650 0
49 -669 -686 651 0
49 -669 -687 652 0
49 -669 -688 653 0
49 -670 -673 639 0
49 -670 -674 640 0
49 -670 -675 641 0
49 -670 -676 642 0
49 -670 -677 643 0
49 -670 -678 644 0
49 -670 -679 645 0
49 -670 -680 646 0
49 -670 -681 647 0
49 -670 -682 648 0
49 -670 -683 649 0
49 -670 -684 650 0
49 -670 -685 651 0
49 -670 -686 652 0
49 -670 -687 653 0
49 -670 -688 654 0
49 -671 -673 640 0
49 -671 -674 641 0
49 -671 -675 642 0
49 -671 -676 643 0
49 -671 -677 644 0
49 -671 -678 645 0
49 -671 -679 646 0
49 -671 -680 647 0
49 -671 -681 648 0
49 -671 -682 649 0
49 -671 -683 650 0
49 -671 -684 651 0
49 -671 -685 652 0
49 -671 -686 653 0
49 -671 -687 654 0
49 -671 -688 655 0
49 -672 -673 641 0
49 -672 -674 642 0
49 -672 -675 643 0
49 -672 -676 644 0
49 -672 -677 645 0
49 -672 -678 646 0
49 -672 -679 647 0
49 -672 -680 648 0
49 -672 -681 649 0
49 -672 -682 650 0
49 -672 -683 651 0
49 -672 -684 652 0
49 -672 -685 653 0
49 -672 -686 654 0
49 -672 -687 655 0
49 -672 -688 656 0
49 -697 673 0
49 -698 674 0
49 -699 675 0
49 -700 676 0
49 -701 677 0
49 -702 678 0
49 -703 679 0
49 -704 680 0
49 -689 673 0
49 -690 674 0
49 -691 675 0
49 -692 676 0
49 -693 677 0
49 -694 678 0
49 -695 679 0
49 -696 680 0
49 -689 -697 674 0
49 -689 -698 675 0
49 -689 -699 676 0
49 -689 -700 677 0
49 -689 -701 678 0
49 -689 -702 679 0
49 -689 -703 680 0
49 -689 -704 681 0
49 -690 -697 675 0
49 -690 -698 676 0
49 -690 -699 677 0
49 -690 -700 678 0
49 -690 -701 679 0
49 -690 -702 680 0
49 -690 -703 681 0
49 -690 -704 682 0
49 -691 -697 676 0
49 -691 -698 677 0
49 -691 -699 678 0
49 -691 -700 679 0
49 -691 -701 680 0
49 -691 -702 681 0
49 -691 -703 682 0
49 -691 -704 683 0
49 -692 -697 677 0
49 -692 -698 678 0
49 -692 -699 679 0
49 -692 -700 680 0
49 -692 -701 681 0
49 -692 -702 682 0
49 -692 -703 683 0
49 -692 -704 684 0
49 -693 -697 678 0
49 -693 -698 679 0
49 -693 -699 680 0
49 -693 -700 681 0
49 -693 -701 682 0
49 -693 -702 683 0
49 -693 -703 684 0
49 -693 -704 685 0
49 -694 -697 679 0
49 -694 -698 680 0
49 -694 -699 681 0
49 -694 -700 682 0
49 -694 -701 683 0
49 -694 -702 684 0
49 -694 -703 685 0
49 -694 -704 686 0
49 -695 -697 680 0
49 -695 -698 681 0
49 -695 -699 682 0
49 -695 -700 683 0
49 -695 -701 684 0
49 -695 -702 685 0
49 -695 -703 686 0
49 -695 -704 687 0
49 -696 -697 681 0
49 -696 -698 682 0
49 -696 -699 683 0
49 -696 -700 684 0
49 -696 -701 685 0
49 -696 -702 686 0
49 -696 -703 687 0
49 -696 -704 688 0
49 -709 697 0
49 -710 698 0
49 -711 699 0
49 -712 700 0
49 -705 697 0
49 -706 698 0
49 -707 699 0
49 -708 700 0
49 -705 -709 698 0
49 -705 -710 699 0
49 -705 -711 700 0
49 -705 -712 701 0
49 -706 -709 699 0
49 -706 -710 700 0
49 -706 -711 701 0
49 -706 -712 702 0
49 -707 -709 700 0
49 -707 -710 701 0
49 -707 -711 702 0
49 -707 -712 703 0
49 -708 -709 701 0
49 -708 -710 702 0
49 -708 -711 703 0
49 -708 -712 704 0
49 -715 709 0
49 -716 710 0
49 -713 709 0
49 -714 710 0
49 -713 -715 710 0
49 -713 -716 711 0
49 -714 -715 711 0
49 -714 -716 712 0
49 -36 715 0
49 -35 715 0
49 -35 -36 716 0
49 -34 713 0
49 -33 713 0
49 -33 -34 714 0
49 -719 705 0
49 -720 706 0
49 -717 705 0
49 -718 706 0
49 -717 -719 706 0
49 -717 -720 707 0
49 -718 -719 707 0
49 -718 -720 708 0
49 -32 719 0
49 -31 719 0
49 -31 -32 720 0
49 -30 717 0
49 -29 717 0
49 -29 -30 718 0
49 -725 689 0
49 -726 690 0
49 -727 691 0
49 -728 692 0
49 -721 689 0
49 -722 690 0
49 -723 691 0
49 -724 692 0
49 -721 -725 690 0
49 -721 -726 691 0
49 -721 -727 692 0
49 -721 -728 693 0
49 -722 -725 691 0
49 -722 -726 692 0
49 -722 -727 693 0
49 -722 -728 694 0
49 -723 -725 692 0
49 -723 -726 693 0
49 -723 -727 694 0
49 -723 -728 695 0
49 -724 -725 693 0
49 -724 -726 694 0
49 -724 -727 695 0
49 -724 -728 696 0
49 -731 725 0
49 -732 726 0
49 -729 725 0
49 -730 726 0
49 -729 -731 726 0
49 -729 -732 727 0
49 -730 -731 727 0
49 -730 -732 728 0
49 -28 731 0
49 -27 731 0
49 -27 -28 732 0
49 -26 729 0
49 -25 729 0
49 -25 -26 730 0
49 -735 721 0
49 -736 722 0
49 -733 721 0
49 -734 722 0
49 -733 -735 722 0
49 -733 -736 723 0
49 -734 -735 723 0
49 -734 -736 724 0
49 -24 735 0
49 -23 735 0
49 -23 -24 736 0
49 -22 733 0
49 -21 733 0
49 -21 -22 734 0
49 -745 657 0
49 -746 658 0
49 -747 659 0
49 -748 660 0
49 -749 661 0
49 -750 662 0
49 -751 663 0
49 -752 664 0
49 -737 657 0
49 -738 658 0
49 -739 659 0
49 -740 660 0
49 -741 661 0
49 -742 662 0
49 -743 663 0
49 -744 664 0
49 -737 -745 658 0
49 -737 -746 659 0
49 -737 -747 660 0
49 -737 -748 661 0
49 -737 -749 662 0
49 -737 -750 663 0
49 -737 -751 664 0
49 -737 -752 665 0
49 -738 -745 659 0
49 -738 -746 660 0
49 -738 -747 661 0
49 -738 -748 662 0
49 -738 -749 663 0
49 -738 -750 664 0
49 -738 -751 665 0
49 -738 -752 666 0
49 -739 -745 660 0
49 -739 -746 661 0
49 -739 -747 662 0
49 -739 -748 663 0
49 -739 -749 664 0
49 -739 -750 665 0
49 -739 -751 666 0
49 -739 -752 667 0
49 -740 -745 661 0
49 -740 -746 662 0
49 -740 -747 663 0
49 -740 -748 664 0
49 -740 -749 665 0
49 -740 -750 666 0
49 -740 -751 667 0
49 -740 -752 668 0
49 -741 -745 662 0
49 -741 -746 663 0
49 -741 -747 664 0
49 -741 -748 665 0
49 -741 -749 666 0
49 -741 -750 667 0
49 -741 -751 668 0
49 -741 -752 669 0
49 -742 -745 663 0
49 -742 -746 664 0
49 -742 -747 665 0
49 -742 -748 666 0
49 -742 -749 667 0
49 -742 -750 668 0
49 -742 -751 669 0
49 -742 -752 670 0
49 -743 -745 664 0
49 -743 -746 665 0
49 -743 -747 666 0
49 -743 -748 667 0
49 -743 -749 668 0
49 -743 -750 669 0
49 -743 -751 670 0
49 -743 -752 671 0
49 -744 -745 665 0
49 -744 -746 666 0
49 -744 -747 667 0
49 -744 -748 668 0
49 -744 -749 669 0
49 -744 -750 670 0
49 -744 -751 671 0
49 -744 -752 672 0
49 -757 745 0
49 -758 746 0
49 -759 747 0
49 -760 748 0
49 -753 745 0
49 -754 746 0
49 -755 747 0
49 -756 748 0
49 -753 -757 746 0
49 -753 -758 747 0
49 -753 -759 748 0
49 -753 -760 749 0
49 -754 -757 747 0
49 -754 -758 748 0
49 -754 -759 749 0
49 -754 -760 750 0
49 -755 -757 748 0
49 -755 -758 749 0
49 -755 -759 750 0
49 -755 -760 751 0
49 -756 -757 749 0
49 -756 -758 750 0
49 -756 -759 751 0
49 -756 -760 752 0
49 -763 757 0
49 -764 758 0
49 -761 757 0
49 -762 758 0
49 -761 -763 758 0
49 -761 -764 759 0
49 -762 -763 759 0
49 -762 -764 760 0
49 -20 763 0
49 -19 763 0
49 -19 -20 764 0
49 -18 761 0
49 -17 761 0
49 -17 -18 762 0
49 -767 753 0
49 -768 754 0
49 -765 753 0
49 -766 754 0
49 -765 -767 754 0
49 -765 -768 755 0
49 -766 -767 755 0
49 -766 -768 756 0
49 -16 767 0
49 -15 767 0
49 -15 -16 768 0
49 -14 765 0
49 -13 765 0
49 -13 -14 766 0
49 -773 737 0
49 -774 738 0
49 -775 739 0
49 -776 740 0
49 -769 737 0
49 -770 738 0
49 -771 739 0
49 -772 740 0
49 -769 -773 738 0
49 -769 -774 739 0
49 -769 -775 740 0
49 -769 -776 741 0
49 -770 -773 739 0
49 -770 -774 740 0
49 -770 -775 741 0
49 -770 -776 742 0
49 -771 -773 740 0
49 -771 -774 741 0
49 -771 -775 742 0
49 -771 -776 743 0
49 -772 -773 741 0
49 -772 -774 742 0
49 -772 -775 743 0
49 -772 -776 744 0
49 -779 773 0
49 -780 774 0
49 -777 773 0
49 -778 774 0
49 -777 -779 774 0
49 -777 -780 775 0
49 -778 -779 775 0
49 -778 -780 776 0
49 -12 779 0
49 -11 779 0
49 -11 -12 780 0
49 -10 777 0
49 -9 777 0
49 -9 -10 778 0
49 -783 769 0
49 -784 770 0
49 -781 769 0
49 -782 770 0
49 -781 -783 770 0
49 -781 -784 771 0
49 -782 -783 771 0
49 -782 -784 772 0
49 -8 783 0
49 -7 783 0
49 -7 -8 784 0
49 -6 781 0
49 -5 781 0
49 -5 -6 782 0
49 -626 0
49 37 38 39 40 41 42 43 44 45 46 47 48 49 50 51 52 53 54 55 56 57 58 59 60 61 62 63 64 65 66 67 68 0
49 -833 785 0
49 -834 786 0
49 -835 787 0
49 -836 788 0
49 -837 789 0
49 -838 790 0
49 -839 791 0
49 -840 792 0
49 -841 793 0
49 -842 794 0
49 -843 795 0
49 -844 796 0
49 -845 797 0
49 -846 798 0
49 -847 799 0
49 -848 800 0
49 -817 785 0
49 -818 786 0
49 -819 787 0
49 -820 788 0
49 -821 789 0
49 -822 790 0
49 -823 791 0
49 -824 792 0
49 -825 793 0
49 -826 794 0
49 -827 795 0
49 -828 796 0
49 -829 797 0
49 -830 798 0
49 -831 799 0
49 -832 800 0
49 -817 -833 786 0
49 -817 -834 787 0
49 -817 -835 788 0
49 -817 -836 789 0
49 -817 -837 790 0
49 -817 -838 791 0
49 -817 -839 792 0
49 -817 -840 793 0
49 -817 -841 794 0
49 -817 -842 795 0
49 -817 -843 796 0
49 -817 -844 797 0
49 -817 -845 798 0
49 -817 -846 799 0
49 -817 -847 800 0
49 -817 -848 801 0
49 -818 -833 787 0
49 -818 -834 788 0
49 -818 -835 789 0
49 -818 -836 790 0
49 -818 -837 791 0
49 -818 -838 792 0
49 -818 -839 793 0
49 -818 -840 794 0
49 -818 -841 795 0
49 -818 -842 796 0
49 -818 -843 797 0
49 -818 -844 798 0
49 -818 -845 799 0
49 -818 -846 800 0
49 -818 -847 801 0
49 -818 -848 802 0
49 -819 -833 788 0
49 -819 -834 789 0
49 -819 -835 790 0
49 -819 -836 791 0
49 -819 -837 792 0
49 -819 -838 793 0
49 -819 -839 794 0
49 -819 -840 795 0
49 -819 -841 796 0
49 -819 -842 797 0
49 -819 -843 798 0
49 -819 -844 799 0
49 -819 -845 800 0
49 -819 -846 801 0
49 -819 -847 802 0
49 -819 -848 803 0
49 -820 -833 789 0
49 -820 -834 790 0
49 -820 -835 791 0
49 -820 -836 792 0
49 -820 -837 793 0
49 -820 -838 794 0
49 -820 -839 795 0
49 -820 -840 796 0
49 -820 -841 797 0
49 -820 -842 798 0
49 -820 -843 799 0
49 -820 -844 800 0
49 -820 -845 801 0
49 -820 -846 802 0
49 -820 -847 803 0
49 -820 -848 804 0
49 -821 -833 790 0
49 -821 -834 791 0
49 -821 -835 792 0
49 -821 -836 793 0
49 -821 -837 794 0
49 -821 -838 795 0
49 -821 -839 796 0
49 -821 -840 797 0
49 -821 -841 798 0
49 -821 -842 799 0
49 -821 -843 800 0
49 -821 -844 801 0
49 -821 -845 802 0
49 -821 -846 803 0
49 -821 -847 804 0
49 -821 -848 805 0
49 -822 -833 791 0
49 -822 -834 792 0
49 -822 -835 793 0
49 -822 -836 794 0
49 -822 -837 795 0
49 -822 -838 796 0
49 -822 -839 797 0
49 -822 -840 798 0
49 -822 -841 799 0
49 -822 -842 800 0
49 -822 -843 801 0
49 -822 -844 802 0
49 -822 -845 803 0
49 -822 -846 804 0
49 -822 -847 805 0
49 -822 -848 806 0
49 -823 -833 792 0
49 -823 -834 793 0
49 -823 -835 794 0
49 -823 -836 795 0
49 -823 -837 796 0
49 -823 -838 797 0
49 -823 -839 798 0
49 -823 -840 799 0
49 -823 -841 800 0
49 -823 -842 801 0
49 -823 -843 802 0
49 -823 -844 803 0
49 -823 -845 804 0
49 -823 -846 805 0
49 -823 -847 806 0
49 -823 -848 807 0
49 -824 -833 793 0
49 -824 -834 794 0
49 -824 -835 795 0
49 -824 -836 796 0
49 -824 -837 797 0
49 -824 -838 798 0
49 -824 -839 799 0
49 -824 -840 800 0
49 -824 -841 801 0
49 -824 -842 802 0
49 -824 -843 803 0
49 -824 -844 804 0
49 -824 -845 805 0
49 -824 -846 806 0
49 -824 -847 807 0
49 -824 -848 808 0
49 -825 -833 794 0
49 -825 -834 795 0
49 -825 -835 796 0
49 -825 -836 797 0
49 -825 -837 798 0
49 -825 -838 799 0
49 -825 -839 800 0
49 -825 -840 801 0
49 -825 -841 802 0
49 -825 -842 803 0
49 -825 -843 804 0
49 -825 -844 805 0
49 -825 -845 806 0
49 -825 -846 807 0
49 -825 -847 808 0
49 -825 -848 809 0
49 -826 -833 795 0
49 -826 -834 796 0
49 -826 -835 797 0
49 -826 -836 798 0
49 -826 -837 799 0
49 -826 -838 800 0
49 -826 -839 801 0
49 -826 -840 802 0
49 -826 -841 803 0
49 -826 -842 804 0
49 -826 -843 805 0
49 -826 -844 806 0
49 -826 -845 807 0
49 -826 -846 808 0
49 -826 -847 809 0
49 -826 -848 810 0
49 -827 -833 796 0
49 -827 -834 797 0
49 -827 -835 798 0
49 -827 -836 799 0
49 -827 -837 800 0
49 -827 -838 801 0
49 -827 -839 802 0
49 -827 -840 803 0
49 -827 -841 804 0
49 -827 -842 805 0
49 -827 -843 806 0
49 -827 -844 807 0
49 -827 -845 808 0
49 -827 -846 809 0
49 -827 -847 810 0
49 -827 -848 811 0
49 -828 -833 797 0
49 -828 -834 798 0
49 -828 -835 799 0
49 -828 -836 800 0
49 -828 -837 801 0
49 -828 -838 802 0
49 -828 -839 803 0
49 -828 -840 804 0
49 -828 -841 805 0
49 -828 -842 806 0
49 -828 -843 807 0
49 -828 -844 808 0
49 -828 -845 809 0
49 -828 -846 810 0
49 -828 -847 811 0
49 -828 -848 812 0
49 -829 -833 798 0
49 -829 -834 799 0
49 -829 -835 800 0
49 -829 -836 801 0
49 -829 -837 802 0
49 -829 -838 803 0
49 -829 -839 804 0
49 -829 -840 805 0
49 -829 -841 806 0
49 -829 -842 807 0
49 -829 -843 808 0
49 -829 -844 809 0
49 -829 -845 810 0
49 -829 -846 811 0
49 -829 -847 812 0
49 -829 -848 813 0
49 -830 -833 799 0
49 -830 -834 800 0
49 -830 -835 801 0
49 -830 -836 802 0
49 -830 -837 803 0
49 -830 -838 804 0
49 -830 -839 805 0
49 -830 -840 806 0
49 -830 -841 807 0
49 -830 -842 808 0
49 -830 -843 809 0
49 -830 -844 810 0
49 -830 -845 811 0
49 -830 -846 812 0
49 -830 -847 813 0
49 -830 -848 814 0
49 -831 -833 800 0
49 -831 -834 801 0
49 -831 -835 802 0
49 -831 -836 803 0
49 -831 -837 804 0
49 -831 -838 805 0
49 -831 -839 806 0
49 -831 -840 807 0
49 -831 -841 808 0
49 -831 -842 809 0
49 -831 -843 810 0
49 -831 -844 811 0
49 -831 -845 812 0
49 -831 -846 813 0
49 -831 -847 814 0
49 -831 -848 815 0
49 -832 -833 801 0
49 -832 -834 802 0
49 -832 -835 803 0
49 -832 -836 804 0
49 -832 -837 805 0
49 -832 -838 806 0
49 -832 -839 807 0
49 -832 -840 808 0
49 -832 -841 809 0
49 -832 -842 810 0
49 -832 -843 811 0
49 -832 -844 812 0
49 -832 -845 813 0
49 -832 -846 814 0
49 -832 -847 815 0
49 -832 -848 816 0
49 -857 833 0
49 -858 834 0
49 -859 835 0
49 -860 836 0
49 -861 837 0
49 -862 838 0
49 -863 839 0
49 -864 840 0
49 -849 833 0
49 -850 834 0
49 -851 835 0
49 -852 836 0
49 -853 837 0
49 -854 838 0
49 -855 839 0
49 -856 840 0
49 -849 -857 834 0
49 -849 -858 835 0
49 -849 -859 836 0
49 -849 -860 837 0
49 -849 -861 838 0
49 -849 -862 839 0
49 -849 -863 840 0
49 -849 -864 841 0
49 -850 -857 835 0
49 -850 -858 836 0
49 -850 -859 837 0
49 -850 -860 838 0
49 -850 -861 839 0
49 -850 -862 840 0
49 -850 -863 841 0
49 -850 -864 842 0
49 -851 -857 836 0
49 -851 -858 837 0
49 -851 -859 838 0
49 -851 -860 839 0
49 -851 -861 840 0
49 -851 -862 841 0
49 -851 -863 842 0
49 -851 -864 843 0
49 -852 -857 837 0
49 -852 -858 838 0
49 -852 -859 839 0
49 -852 -860 840 0
49 -852 -861 841 0
49 -852 -862 842 0
49 -852 -863 843 0
49 -852 -864 844 0
49 -853 -857 838 0
49 -853 -858 839 0
49 -853 -859 840 0
49 -853 -860 841 0
49 -853 -861 842 0
49 -853 -862 843 0
49 -853 -863 844 0
49 -853 -864 845 0
49 -854 -857 839 0
49 -854 -858 840 0
49 -854 -859 841 0
49 -854 -860 842 0
49 -854 -861 843 0
49 -854 -862 844 0
49 -854 -863 845 0
49 -854 -864 846 0
49 -855 -857 840 0
49 -855 -858 841 0
49 -855 -859 842 0
49 -855 -860 843 0
49 -855 -861 844 0
49 -855 -862 845 0
49 -855 -863 846 0
49 -855 -864 847 0
49 -856 -857 841 0
49 -856 -858 842 0
49 -856 -859 843 0
49 -856 -860 844 0
49 -856 -861 845 0
49 -856 -862 846 0
49 -856 -863 847 0
49 -856 -864 848 0
49 -869 857 0
49 -870 858 0
49 -871 859 0
49 -872 860 0
49 -865 857 0
49 -866 858 0
49 -867 859 0
49 -868 860 0
49 -865 -869 858 0
49 -865 -870 859 0
49 -865 -871 860 0
49 -865 -872 861 0
49 -866 -869 859 0
49 -866 -870 860 0
49 -866 -871 861 0
49 -866 -872 862 0
49 -867 -869 860 0
49 -867 -870 861 0
49 -867 -871 862 0
49 -867 -872 863 0
49 -868 -869 861 0
49 -868 -870 862 0
49 -868 -871 863 0
49 -868 -872 864 0
49 -875 869 0
49 -876 870 0
49 -873 869 0
49 -874 870 0
49 -873 -875 870 0
49 -873 -876 871 0
49 -874 -875 871 0
49 -874 -876 872 0
49 -68 875 0
49 -67 875 0
49 -67 -68 876 0
49 -66 873 0
49 -65 873 0
49 -65 -66 874 0
49 -879 865 0
49 -880 866 0
49 -877 865 0
49 -878 866 0
49 -877 -879 866 0
49 -877 -880 867 0
49 -878 -879 867 0
49 -878 -880 868 0
49 -64 879 0
49 -63 879 0
49 -63 -64 880 0
49 -62 877 0
49 -61 877 0
49 -61 -62 878 0
49 -885 849 0
49 -886 850 0
49 -887 851 0
49 -888 852 0
49 -881 849 0
49 -882 850 0
49 -883 851 0
49 -884 852 0
49 -881 -885 850 0
49 -881 -886 851 0
49 -881 -887 852 0
49 -881 -888 853 0
49 -882 -885 851 0
49 -882 -886 852 0
49 -882 -887 853 0
49 -882 -888 854 0
49 -883 -885 852 0
49 -883 -886 853 0
49 -883 -887 854 0
49 -883 -888 855 0
49 -884 -885 853 0
49 -884 -886 854 0
49 -884 -887 855 0
49 -884 -888 856 0
49 -891 885 0
49 -892 886 0
49 -889 885 0
49 -890 886 0
49 -889 -891 886 0
49 -889 -892 887 0
49 -890 -891 887 0
49 -890 -892 888 0
49 -60 891 0
49 -59 891 0
49 -59 -60 892 0
49 -58 889 0
49 -57 889 0
49 -57 -58 890 0
49 -895 881 0
49 -896 882 0
49 -893 881 0
49 -894 882 0
49 -893 -895 882 0
49 -893 -896 883 0
49 -894 -895 883 0
49 -894 -896 884 0
49 -56 895 0
49 -55 895 0
49 -55 -56 896 0
49 -54 893 0
49 -53 893 0
49 -53 -54 894 0
49 -905 817 0
49 -906 818 0
49 -907 819 0
49 -908 820 0
49 -909 821 0
49 -910 822 0
49 -911 823 0
49 -912 824 0
49 -897 817 0
49 -898 818 0
49 -899 819 0
49 -900 820 0
49 -901 821 0
49 -902 822 0
49 -903 823 0
49 -904 824 0
49 -897 -905 818 0
49 -897 -906 819 0
49 -897 -907 820 0
49 -897 -908 821 0
49 -897 -909 822 0
49 -897 -910 823 0
49 -897 -911 824 0
49 -897 -912 825 0
49 -898 -905 819 0
49 -898 -906 820 0
49 -898 -907 821 0
49 -898 -908 822 0
49 -898 -909 823 0
49 -898 -910 824 0
49 -898 -911 825 0
49 -898 -912 826 0
49 -899 -905 820 0
49 -899 -906 821 0
49 -899 -907 822 0
49 -899 -908 823 0
49 -899 -909 824 0
49 -899 -910 825 0
49 -899 -911 826 0
49 -899 -912 827 0
49 -900 -905 821 0
49 -900 -906 822 0
49 -900 -907 823 0
49 -900 -908 824 0
49 -900 -909 825 0
49 -900 -910 826 0
49 -900 -911 827 0
49 -900 -912 828 0
49 -901 -905 822 0
49 -901 -906 823 0
49 -901 -907 824 0
49 -901 -908 825 0
49 -901 -909 826 0
49 -901 -910 827 0
49 -901 -911 828 0
49 -901 -912 829 0
49 -902 -905 823 0
49 -902 -906 824 0
49 -902 -907 825 0
49 -902 -908 826 0
49 -902 -909 827 0
49 -902 -910 828 0
49 -902 -911 829 0
49 -902 -912 830 0
49 -903 -905 824 0
49 -903 -906 825 0
49 -903 -907 826 0
49 -903 -908 827 0
49 -903 -909 828 0
49 -903 -910 829 0
49 -903 -911 830 0
49 -903 -912 831 0
49 -904 -905 825 0
49 -904 -906 826 0
49 -904 -907 827 0
49 -904 -908 828 0
49 -904 -909 829 0
49 -904 -910 830 0
49 -904 -911 831 0
49 -904 -912 832 0
49 -917 905 0
49 -918 906 0
49 -919 907 0
49 -920 908 0
49 -913 905 0
49 -914 906 0
49 -915 907 0
49 -916 908 0
49 -913 -917 906 0
49 -913 -918 907 0
49 -913 -919 908 0
49 -913 -920 909 0
49 -914 -917 907 0
49 -914 -918 908 0
49 -914 -919 909 0
49 -914 -920 910 0
49 -915 -917 908 0
49 -915 -918 909 0
49 -915 -919 910 0
49 -915 -920 911 0
49 -916 -917 909 0
49 -916 -918 910 0
49 -916 -919 911 0
49 -916 -920 912 0
49 -923 917 0
49 -924 918 0
49 -921 917 0
49 -922 918 0
49 -921 -923 918 0
49 -921 -924 919 0
49 -922 -923 919 0
49 -922 -924 920 0
49 -52 923 0
49 -51 923 0
49 -51 -52 924 0
49 -50 921 0
49 -49 921 0
49 -49 -50 922 0
49 -927 913 0
49 -928 914 0
49 -925 913 0
49 -926 914 0
49 -925 -927 914 0
49 -925 -928 915 0
49 -926 -927 915 0
49 -926 -928 916 0
49 -48 927 0
49 -47 927 0
49 -47 -48 928 0
49 -46 925 0
49 -45 925 0
49 -45 -46 926 0
49 -933 897 0
49 -934 898 0
49 -935 899 0
49 -936 900 0
49 -929 897 0
49 -930 898 0
49 -931 899 0
49 -932 900 0
49 -929 -933 898 0
49 -929 -934 899 0
49 -929 -935 900 0
49 -929 -936 901 0
49 -930 -933 899 0
49 -930 -934 900 0
49 -930 -935 901 0
49 -930 -936 902 0
49 -931 -933 900 0
49 -931 -934 901 0
49 -931 -935 902 0
49 -931 -936 903 0
49 -932 -933 901 0
49 -932 -934 902 0
49 -932 -935 903 0
49 -932 -936 904 0
49 -939 933 0
49 -940 934 0
49 -937 933 0
49 -938 934 0
49 -937 -939 934 0
49 -937 -940 935 0
49 -938 -939 935 0
49 -938 -940 936 0
49 -44 939 0
49 -43 939 0
49 -43 -44 940 0
49 -42 937 0
49 -41 937 0
49 -41 -42 938 0
49 -943 929 0
49 -944 930 0
49 -941 929 0
49 -942 930 0
49 -941 -943 930 0
49 -941 -944 931 0
49 -942 -943 931 0
49 -942 -944 932 0
49 -40 943 0
49 -39 943 0
49 -39 -40 944 0
49 -38 941 0
49 -37 941 0
49 -37 -38 942 0
49 -786 0
49 69 0
49 70 0
49 71 72 73 74 75 76 77 78 79 80 81 82 83 84 85 86 87 88 89 90 91 92 93 94 95 96 97 98 99 100 101 102 103 104 105 106 0
49 -999 945 0
49 -1000 946 0
49 -1001 947 0
49 -1002 948 0
49 -1003 949 0
49 -1004 950 0
49 -1005 951 0
49 -1006 952 0
49 -1007 953 0
49 -1008 954 0
49 -1009 955 0
49 -1010 956 0
49 -1011 957 0
49 -1012 958 0
49 -1013 959 0
49 -1014 960 0
49 -1015 961 0
49 -1016 962 0
49 -981 945 0
49 -982 946 0
49 -983 947 0
49 -984 948 0
49 -985 949 0
49 -986 950 0
49 -987 951 0
49 -988 952 0
49 -989 953 0
49 -990 954 0
49 -991 955 0
49 -992 956 0
49 -993 957 0
49 -994 958 0
49 -995 959 0
49 -996 960 0
49 -997 961 0
49 -998 962 0
49 -981 -999 946 0
49 -981 -1000 947 0
49 -981 -1001 948 0
49 -981 -1002 949 0
49 -981 -1003 950 0
49 -981 -1004 951 0
49 -981 -1005 952 0
49 -981 -1006 953 0
49 -981 -1007 954 0
49 -981 -1008 955 0
49 -981 -1009 956 0
49 -981 -1010 957 0
49 -981 -1011 958 0
49 -981 -1012 959 0
49 -981 -1013 960 0
49 -981 -1014 961 0
49 -981 -1015 962 0
49 -981 -1016 963 0
49 -982 -999 947 0
49 -982 -1000 948 0
49 -982 -1001 949 0
49 -982 -1002 950 0
49 -982 -1003 951 0
49 -982 -1004 952 0
49 -982 -1005 953 0
49 -982 -1006 954 0
49 -982 -1007 955 0
49 -982 -1008 956 0
49 -982 -1009 957 0
49 -982 -1010 958 0
49 -982 -1011 959 0
49 -982 -1012 960 0
49 -982 -1013 961 0
49 -982 -1014 962 0
49 -982 -1015 963 0
49 -982 -1016 964 0
49 -983 -999 948 0
49 -983 -1000 949 0
49 -983 -1001 950 0
49 -983 -1002 951 0
49 -983 -1003 952 0
49 -983 -1004 953 0
49 -983 -1005 954 0
49 -983 -1006 955 0
49 -983 -1007 956 0
49 -983 -1008 957 0
49 -983 -1009 958 0
49 -983 -1010 959 0
49 -983 -1011 960 0
49 -983 -1012 961 0
49 -983 -1013 962 0
49 -983 -1014 963 0
49 -983 -1015 964 0
49 -983 -1016 965 0
49 -984 -999 949 0
49 -984 -1000 950 0
49 -984 -1001 951 0
49 -984 -1002 952 0
49 -984 -1003 953 0
49 -984 -1004 954 0
49 -984 -1005 955 0
49 -984 -1006 956 0
49 -984 -1007 957 0
49 -984 -1008 958 0
49 -984 -1009 959 0
49 -984 -1010 960 0
49 -984 -1011 961 0
49 -984 -1012 962 0
49 -984 -1013 963 0
49 -984 -1014 964 0
49 -984 -1015 965 0
49 -984 -1016 966 0
49 -985 -999 950 0
49 -985 -1000 951 0
49 -985 -1001 952 0
49 -985 -1002 953 0
49 -985 -1003 954 0
49 -985 -1004 955 0
49 -985 -1005 956 0
49 -985 -1006 957 0
49 -985 -1007 958 0
49 -985 -1008 959 0
49 -985 -1009 960 0
49 -985 -1010 961 0
49 -985 -1011 962 0
49 -985 -1012 963 0
49 -985 -1013 964 0
49 -985 -1014 965 0
49 -985 -1015 966 0
49 -985 -1016 967 0
49 -986 -999 951 0
49 -986 -1000 952 0
49 -986 -1001 953 0
49 -986 -1002 954 0
49 -986 -1003 955 0
49 -986 -1004 956 0
49 -986 -1005 957 0
49 -986 -1006 958 0
49 -986 -1007 959 0
49 -986 -1008 960 0
49 -986 -1009 961 0
49 -986 -1010 962 0
49 -986 -1011 963 0
49 -986 -1012 964 0
49 -986 -1013 965 0
49 -986 -1014 966 0
49 -986 -1015 967 0
49 -986 -1016 968 0
49 -987 -999 952 0
49 -987 -1000 953 0
49 -987 -1001 954 0
49 -987 -1002 955 0
49 -987 -1003 956 0
49 -987 -1004 957 0
49 -987 -1005 958 0
49 -987 -1006 959 0
49 -987 -1007 960 0
49 -987 -1008 961 0
49 -987 -1009 962 0
49 -987 -1010 963 0
49 -987 -1011 964 0
49 -987 -1012 965 0
49 -987 -1013 966 0
49 -987 -1014 967 0
49 -987 -1015 968 0
49 -987 -1016 969 0
49 -988 -999 953 0
49 -988 -1000 954 0
49 -988 -1001 955 0
49 -988 -1002 956 0
49 -988 -1003 957 0
49 -988 -1004 958 0
49 -988 -1005 959 0
49 -988 -1006 960 0
49 -988 -1007 961 0
49 -988 -1008 962 0
49 -988 -1009 963 0
49 -988 -1010 964 0
49 -988 -1011 965 0
49 -988 -1012 966 0
49 -988 -1013 967 0
49 -988 -1014 968 0
49 -988 -1015 969 0
49 -988 -1016 970 0
49 -989 -999 954 0
49 -989 -1000 955 0
49 -989 -1001 956 0
49 -989 -1002 957 0
49 -989 -1003 958 0
49 -989 -1004 959 0
49 -989 -1005 960 0
49 -989 -1006 961 0
49 -989 -1007 962 0
49 -989 -1008 963 0
49 -989 -1009 964 0
49 -989 -1010 965 0
49 -989 -1011 966 0
49 -989 -1012 967 0
49 -989 -1013 968 0
49 -989 -1014 969 0
49 -989 -1015 970 0
49 -989 -1016 971 0
49 -990 -999 955 0
49 -990 -1000 956 0
49 -990 -1001 957 0
49 -990 -1002 958 0
49 -990 -1003 959 0
49 -990 -1004 960 0
49 -990 -1005 961 0
49 -990 -1006 962 0
49 -990 -1007 963 0
49 -990 -1008 964 0
49 -990 -1009 965 0
49 -990 -1010 966 0
49 -990 -1011 967 0
49 -990 -1012 968 0
49 -990 -1013 969 0
49 -990 -1014 970 0
49 -990 -1015 971 0
49 -990 -1016 972 0
49 -991 -999 956 0
49 -991 -1000 957 0
49 -991 -1001 958 0
49 -991 -1002 959 0
49 -991 -1003 960 0
49 -991 -1004 961 0
49 -991 -1005 962 0
49 -991 -1006 963 0
49 -991 -1007 964 0
49 -991 -1008 965 0
49 -991 -1009 966 0
49 -991 -1010 967 0
49 -991 -1011 968 0
49 -991 -1012 969 0
49 -991 -1013 970 0
49 -991 -1014 971 0
49 -991 -1015 972 0
49 -991 -1016 973 0
49 -992 -999 957 0
49 -992 -1000 958 0
49 -992 -1001 959 0
49 -992 -1002 960 0
49 -992 -1003 961 0
49 -992 -1004 962 0
49 -992 -1005 963 0
49 -992 -1006 964 0
49 -992 -1007 965 0
49 -992 -1008 966 0
49 -992 -1009 967 0
49 -992 -1010 968 0
49 -992 -1011 969 0
49 -992 -1012 970 0
49 -992 -1013 971 0
49 -992 -1014 972 0
49 -992 -1015 973 0
49 -992 -1016 974 0
49 -993 -999 958 0
49 -993 -1000 959 0
49 -993 -1001 960 0
49 -993 -1002 961 0
49 -993 -1003 962 0
49 -993 -1004 963 0
49 -993 -1005 964 0
49 -993 -1006 965 0
49 -993 -1007 966 0
49 -993 -1008 967 0
49 -993 -1009 968 0
49 -993 -1010 969 0
49 -993 -1011 970 0
49 -993 -1012 971 0
49 -993 -1013 972 0
49 -993 -1014 973 0
49 -993 -1015 974 0
49 -993 -1016 975 0
49 -994 -999 959 0
49 -994 -1000 960 0
49 -994 -1001 961 0
49 -994 -1002 962 0
49 -994 -1003 963 0
49 -994 -1004 964 0
49 -994 -1005 965 0
49 -994 -1006 966 0
49 -994 -1007 967 0
49 -994 -1008 968 0
49 -994 -1009 969 0
49 -994 -1010 970 0
49 -994 -1011 971 0
49 -994 -1012 972 0
49 -994 -1013 973 0
49 -994 -1014 974 0
49 -994 -1015 975 0
49 -994 -1016 976 0
49 -995 -999 960 0
49 -995 -1000 961 0
49 -995 -1001 962 0
49 -995 -1002 963 0
49 -995 -1003 964 0
49 -995 -1004 965 0
49 -995 -1005 966 0
49 -995 -1006 967 0
49 -995 -1007 968 0
49 -995 -1008 969 0
49 -995 -1009 970 0
49 -995 -1010 971 0
49 -995 -1011 972 0
49 -995 -1012 973 0
49 -995 -1013 974 0
49 -995 -1014 975 0
49 -995 -1015 976 0
49 -995 -1016 977 0
49 -996 -999 961 0
49 -996 -1000 962 0
49 -996 -1001 963 0
49 -996 -1002 964 0
49 -996 -1003 965 0
49 -996 -1004 966 0
49 -996 -1005 967 0
49 -996 -1006 968 0
49 -996 -1007 969 0
49 -996 -1008 970 0
49 -996 -1009 971 0
49 -996 -1010 972 0
49 -996 -1011 973 0
49 -996 -1012 974 0
49 -996 -1013 975 0
49 -996 -1014 976 0
49 -996 -1015 977 0
49 -996 -1016 978 0
49 -997 -999 962 0
49 -997 -1000 963 0
49 -997 -1001 964 0
49 -997 -1002 965 0
49 -997 -1003 966 0
49 -997 -1004 967 0
49 -997 -1005 968 0
49 -997 -1006 969 0
49 -997 -1007 970 0
49 -997 -1008 971 0
49 -997 -1009 972 0
49 -997 -1010 973 0
49 -997 -1011 974 0
49 -997 -1012 975 0
49 -997 -1013 976 0
49 -997 -1014 977 0
49 -997 -1015 978 0
49 -997 -1016 979 0
49 -998 -999 963 0
49 -998 -1000 964 0
49 -998 -1001 965 0
49 -998 -1002 966 0
49 -998 -1003 967 0
49 -998 -1004 968 0
49 -998 -1005 969 0
49 -998 -1006 970 0
49 -998 -1007 971 0
49 -998 -1008 972 0
49 -998 -1009 973 0
49 -998 -1010 974 0
49 -998 -1011 975 0
49 -998 -1012 976 0
49 -998 -1013 977 0
49 -998 -1014 978 0
49 -998 -1015 979 0
49 -998 -1016 980 0
49 -1026 999 0
49 -1027 1000 0
49 -1028 1001 0
49 -1029 1002 0
49 -1030 1003 0
49 -1031 1004 0
49 -1032 1005 0
49 -1033 1006 0
49 -1034 1007 0
49 -1017 999 0
49 -1018 1000 0
49 -1019 1001 0
49 -1020 1002 0
49 -1021 1003 0
49 -1022 1004 0
49 -1023 1005 0
49 -1024 1006 0
49 -1025 1007 0
49 -1017 -1026 1000 0
49 -1017 -1027 1001 0
49 -1017 -1028 1002 0
49 -1017 -1029 1003 0
49 -1017 -1030 1004 0
49 -1017 -1031 1005 0
49 -1017 -1032 1006 0
49 -1017 -1033 1007 0
49 -1017 -1034 1008 0
49 -1018 -1026 1001 0
49 -1018 -1027 1002 0
49 -1018 -1028 1003 0
49 -1018 -1029 1004 0
49 -1018 -1030 1005 0
49 -1018 -1031 1006 0
49 -1018 -1032 1007 0
49 -1018 -1033 1008 0
49 -1018 -1034 1009 0
49 -1019 -1026 1002 0
49 -1019 -1027 1003 0
49 -1019 -1028 1004 0
49 -1019 -1029 1005 0
49 -1019 -1030 1006 0
49 -1019 -1031 1007 0
49 -1019 -1032 1008 0
49 -1019 -1033 1009 0
49 -1019 -1034 1010 0
49 -1020 -1026 1003 0
49 -1020 -1027 1004 0
49 -1020 -1028 1005 0
49 -1020 -1029 1006 0
49 -1020 -1030 1007 0
49 -1020 -1031 1008 0
49 -1020 -1032 1009 0
49 -1020 -1033 1010 0
49 -1020 -1034 1011 0
49 -1021 -1026 1004 0
49 -1021 -1027 1005 0
49 -1021 -1028 1006 0
49 -1021 -1029 1007 0
49 -1021 -1030 1008 0
49 -1021 -1031 1009 0
49 -1021 -1032 1010 0
49 -1021 -1033 1011 0
49 -1021 -1034 1012 0
49 -1022 -1026 1005 0
49 -1022 -1027 1006 0
49 -1022 -1028 1007 0
49 -1022 -1029 1008 0
49 -1022 -1030 1009 0
49 -1022 -1031 1010 0
49 -1022 -1032 1011 0
49 -1022 -1033 1012 0
49 -1022 -1034 1013 0
49 -1023 -1026 1006 0
49 -1023 -1027 1007 0
49 -1023 -1028 1008 0
49 -1023 -1029 1009 0
49 -1023 -1030 1010 0
49 -1023 -1031 1011 0
49 -1023 -1032 1012 0
49 -1023 -1033 1013 0
49 -1023 -1034 1014 0
49 -1024 -1026 1007 0
49 -1024 -1027 1008 0
49 -1024 -1028 1009 0
49 -1024 -1029 1010 0
49 -1024 -1030 1011 0
49 -1024 -1031 1012 0
49 -1024 -1032 1013 0
49 -1024 -1033 1014 0
49 -1024 -1034 1015 0
49 -1025 -1026 1008 0
49 -1025 -1027 1009 0
49 -1025 -1028 1010 0
49 -1025 -1029 1011 0
49 -1025 -1030 1012 0
49 -1025 -1031 1013 0
49 -1025 -1032 1014 0
49 -1025 -1033 1015 0
49 -1025 -1034 1016 0
49 -1040 1026 0
49 -1041 1027 0
49 -1042 1028 0
49 -1043 1029 0
49 -1035 1026 0
49 -1036 1027 0
49 -1037 1028 0
49 -1038 1029 0
49 -1039 1030 0
49 -1035 -1040 1027 0
49 -1035 -1041 1028 0
49 -1035 -1042 1029 0
49 -1035 -1043 1030 0
49 -1036 -1040 1028 0
49 -1036 -1041 1029 0
49 -1036 -1042 1030 0
49 -1036 -1043 1031 0
49 -1037 -1040 1029 0
49 -1037 -1041 1030 0
49 -1037 -1042 1031 0
49 -1037 -1043 1032 0
49 -1038 -1040 1030 0
49 -1038 -1041 1031 0
49 -1038 -1042 1032 0
49 -1038 -1043 1033 0
49 -1039 -1040 1031 0
49 -1039 -1041 1032 0
49 -1039 -1042 1033 0
49 -1039 -1043 1034 0
49 -1046 1040 0
49 -1047 1041 0
49 -1044 1040 0
49 -1045 1041 0
49 -1044 -1046 1041 0
49 -1044 -1047 1042 0
49 -1045 -1046 1042 0
49 -1045 -1047 1043 0
49 -106 1046 0
49 -105 1046 0
49 -105 -106 1047 0
49 -104 1044 0
49 -103 1044 0
49 -103 -104 1045 0
49 -1051 1035 0
49 -1052 1036 0
49 -1048 1035 0
49 -1049 1036 0
49 -1050 1037 0
49 -1048 -1051 1036 0
49 -1048 -1052 1037 0
49 -1049 -1051 1037 0
49 -1049 -1052 1038 0
49 -1050 -1051 1038 0
49 -1050 -1052 1039 0
49 -102 1051 0
49 -101 1051 0
49 -101 -102 1052 0
49 -100 1048 0
49 -1053 1048 0
49 -1054 1049 0
49 -1053 -100 1049 0
49 -1054 -100 1050 0
49 -99 1053 0
49 -98 1053 0
49 -98 -99 1054 0
49 -1060 1017 0
49 -1061 1018 0
49 -1062 1019 0
49 -1063 1020 0
49 -1055 1017 0
49 -1056 1018 0
49 -1057 1019 0
49 -1058 1020 0
49 -1059 1021 0
49 -1055 -1060 1018 0
49 -1055 -1061 1019 0
49 -1055 -1062 1020 0
49 -1055 -1063 1021 0
49 -1056 -1060 1019 0
49 -1056 -1061 1020 0
49 -1056 -1062 1021 0
49 -1056 -1063 1022 0
49 -1057 -1060 1020 0
49 -1057 -1061 1021 0
49 -1057 -1062 1022 0
49 -1057 -1063 1023 0
49 -1058 -1060 1021 0
49 -1058 -1061 1022 0
49 -1058 -1062 1023 0
49 -1058 -1063 1024 0
49 -1059 -1060 1022 0
49 -1059 -1061 1023 0
49 -1059 -1062 1024 0
49 -1059 -1063 1025 0
49 -1066 1060 0
49 -1067 1061 0
49 -1064 1060 0
49 -1065 1061 0
49 -1064 -1066 1061 0
49 -1064 -1067 1062 0
49 -1065 -1066 1062 0
49 -1065 -1067 1063 0
49 -97 1066 0
49 -96 1066 0
49 -96 -97 1067 0
49 -95 1064 0
49 -94 1064 0
49 -94 -95 1065 0
49 -1071 1055 0
49 -1072 1056 0
49 -1068 1055 0
49 -1069 1056 0
49 -1070 1057 0
49 -1068 -1071 1056 0
49 -1068 -1072 1057 0
49 -1069 -1071 1057 0
49 -1069 -1072 1058 0
49 -1070 -1071 1058 0
49 -1070 -1072 1059 0
49 -93 1071 0
49 -92 1071 0
49 -92 -93 1072 0
49 -91 1068 0
49 -1073 1068 0
49 -1074 1069 0
49 -1073 -91 1069 0
49 -1074 -91 1070 0
49 -90 1073 0
49 -89 1073 0
49 -89 -90 1074 0
49 -1084 981 0
49 -1085 982 0
49 -1086 983 0
49 -1087 984 0
49 -1088 985 0
49 -1089 986 0
49 -1090 987 0
49 -1091 988 0
49 -1092 989 0
49 -1075 981 0
49 -1076 982 0
49 -1077 983 0
49 -1078 984 0
49 -1079 985 0
49 -1080 986 0
49 -1081 987 0
49 -1082 988 0
49 -1083 989 0
49 -1075 -1084 982 0
49 -1075 -1085 983 0
49 -1075 -1086 984 0
49 -1075 -1087 985 0
49 -1075 -1088 986 0
49 -1075 -1089 987 0
49 -1075 -1090 988 0
49 -1075 -1091 989 0
49 -1075 -1092 990 0
49 -1076 -1084 983 0
49 -1076 -1085 984 0
49 -1076 -1086 985 0
49 -1076 -1087 986 0
49 -1076 -1088 987 0
49 -1076 -1089 988 0
49 -1076 -1090 989 0
49 -1076 -1091 990 0
49 -1076 -1092 991 0
49 -1077 -1084 984 0
49 -1077 -1085 985 0
49 -1077 -1086 986 0
49 -1077 -1087 987 0
49 -1077 -1088 988 0
49 -1077 -1089 989 0
49 -1077 -1090 990 0
49 -1077 -1091 991 0
49 -1077 -1092 992 0
49 -1078 -1084 985 0
49 -1078 -1085 986 0
49 -1078 -1086 987 0
49 -1078 -1087 988 0
49 -1078 -1088 989 0
49 -1078 -1089 990 0
49 -1078 -1090 991 0
49 -1078 -1091 992 0
49 -1078 -1092 993 0
49 -1079 -1084 986 0
49 -1079 -1085 987 0
49 -1079 -1086 988 0
49 -1079 -1087 989 0
49 -1079 -1088 990 0
49 -1079 -1089 991 0
49 -1079 -1090 992 0
49 -1079 -1091 993 0
49 -1079 -1092 994 0
49 -1080 -1084 987 0
49 -1080 -1085 988 0
49 -1080 -1086 989 0
49 -1080 -1087 990 0
49 -1080 -1088 991 0
49 -1080 -1089 992 0
49 -1080 -1090 993 0
49 -1080 -1091 994 0
49 -1080 -1092 995 0
49 -1081 -1084 988 0
49 -1081 -1085 989 0
49 -1081 -1086 990 0
49 -1081 -1087 991 0
49 -1081 -1088 992 0
49 -1081 -1089 993 0
49 -1081 -1090 994 0
49 -1081 -1091 995 0
49 -1081 -1092 996 0
49 -1082 -1084 989 0
49 -1082 -1085 990 0
49 -1082 -1086 991 0
49 -1082 -1087 992 0
49 -1082 -1088 993 0
49 -1082 -1089 994 0
49 -1082 -1090 995 0
49 -1082 -1091 996 0
49 -1082 -1092 997 0
49 -1083 -1084 990 0
49 -1083 -1085 991 0
49 -1083 -1086 992 0
49 -1083 -1087 993 0
49 -1083 -1088 994 0
49 -1083 -1089 995 0
49 -1083 -1090 996 0
49 -1083 -1091 997 0
49 -1083 -1092 998 0
49 -1098 1084 0
49 -1099 1085 0
49 -1100 1086 0
49 -1101 1087 0
49 -1093 1084 0
49 -1094 1085 0
49 -1095 1086 0
49 -1096 1087 0
49 -1097 1088 0
49 -1093 -1098 1085 0
49 -1093 -1099 1086 0
49 -1093 -1100 1087 0
49 -1093 -1101 1088 0
49 -1094 -1098 1086 0
49 -1094 -1099 1087 0
49 -1094 -1100 1088 0
49 -1094 -1101 1089 0
49 -1095 -1098 1087 0
49 -1095 -1099 1088 0
49 -1095 -1100 1089 0
49 -1095 -1101 1090 0
49 -1096 -1098 1088 0
49 -1096 -1099 1089 0
49 -1096 -1100 1090 0
49 -1096 -1101 1091 0
49 -1097 -1098 1089 0
49 -1097 -1099 1090 0
49 -1097 -1100 1091 0
49 -1097 -1101 1092 0
49 -1104 1098 0
49 -1105 1099 0
49 -1102 1098 0
49 -1103 1099 0
49 -1102 -1104 1099 0
49 -1102 -1105 1100 0
49 -1103 -1104 1100 0
49 -1103 -1105 1101 0
49 -88 1104 0
49 -87 1104 0
49 -87 -88 1105 0
49 -86 1102 0
49 -85 1102 0
49 -85 -86 1103 0
49 -1109 1093 0
49 -1110 1094 0
49 -1106 1093 0
49 -1107 1094 0
49 -1108 1095 0
49 -1106 -1109 1094 0
49 -1106 -1110 1095 0
49 -1107 -1109 1095 0
49 -1107 -1110 1096 0
49 -1108 -1109 1096 0
49 -1108 -1110 1097 0
49 -84 1109 0
49 -83 1109 0
49 -83 -84 1110 0
49 -82 1106 0
49 -1111 1106 0
49 -1112 1107 0
49 -1111 -82 1107 0
49 -1112 -82 1108 0
49 -81 1111 0
49 -80 1111 0
49 -80 -81 1112 0
49 -1118 1075 0
49 -1119 1076 0
49 -1120 1077 0
49 -1121 1078 0
49 -1113 1075 0
49 -1114 1076 0
49 -1115 1077 0
49 -1116 1078 0
49 -1117 1079 0
49 -1113 -1118 1076 0
49 -1113 -1119 1077 0
49 -1113 -1120 1078 0
49 -1113 -1121 1079 0
49 -1114 -1118 1077 0
49 -1114 -1119 1078 0
49 -1114 -1120 1079 0
49 -1114 -1121 1080 0
49 -1115 -1118 1078 0
49 -1115 -1119 1079 0
49 -1115 -1120 1080 0
49 -1115 -1121 1081 0
49 -1116 -1118 1079 0
49 -1116 -1119 1080 0
49 -1116 -1120 1081 0
49 -1116 -1121 1082 0
49 -1117 -1118 1080 0
49 -1117 -1119 1081 0
49 -1117 -1120 1082 0
49 -1117 -1121 1083 0
49 -1124 1118 0
49 -1125 1119 0
49 -1122 1118 0
49 -1123 1119 0
49 -1122 -1124 1119 0
49 -1122 -1125 1120 0
49 -1123 -1124 1120 0
49 -1123 -1125 1121 0
49 -79 1124 0
49 -78 1124 0
49 -78 -79 1125 0
49 -77 1122 0
49 -76 1122 0
49 -76 -77 1123 0
49 -1129 1113 0
49 -1130 1114 0
49 -1126 1113 0
49 -1127 1114 0
49 -1128 1115 0
49 -1126 -1129 1114 0
49 -1126 -1130 1115 0
49 -1127 -1129 1115 0
49 -1127 -1130 1116 0
49 -1128 -1129 1116 0
49 -1128 -1130 1117 0
49 -75 1129 0
49 -74 1129 0
49 -74 -75 1130 0
49 -73 1126 0
49 -1131 1126 0
49 -1132 1127 0
49 -1131 -73 1127 0
49 -1132 -73 1128 0
49 -72 1131 0
49 -71 1131 0
49 -71 -72 1132 0
49 -946 0
49 107 108 109 110 111 112 113 114 115 116 117 118 119 120 121 122 123 124 125 126 127 128 129 130 131 132 133 134 135 136 137 138 139 140 141 142 0
49 -1187 1133 0
49 -1188 1134 0
49 -1189 1135 0
49 -1190 1136 0
49 -1191 1137 0
49 -1192 1138 0
49 -1193 1139 0
49 -1194 1140 0
49 -1195 1141 0
49 -1196 1142 0
49 -1197 1143 0
49 -1198 1144 0
49 -1199 1145 0
49 -1200 1146 0
49 -1201 1147 0
49 -1202 1148 0
49 -1203 1149 0
49 -1204 1150 0
49 -1169 1133 0
49 -1170 1134 0
49 -1171 1135 0
49 -1172 1136 0
49 -1173 1137 0
49 -1174 1138 0
49 -1175 1139 0
49 -1176 1140 0
49 -1177 1141 0
49 -1178 1142 0
49 -1179 1143 0
49 -1180 1144 0
49 -1181 1145 0
49 -1182 1146 0
49 -1183 1147 0
49 -1184 1148 0
49 -1185 1149 0
49 -1186 1150 0
49 -1169 -1187 1134 0
49 -1169 -1188 1135 0
49 -1169 -1189 1136 0
49 -1169 -1190 1137 0
49 -1169 -1191 1138 0
49 -1169 -1192 1139 0
49 -1169 -1193 1140 0
49 -1169 -1194 1141 0
49 -1169 -1195 1142 0
49 -1169 -1196 1143 0
49 -1169 -1197 1144 0
49 -1169 -1198 1145 0
49 -1169 -1199 1146 0
49 -1169 -1200 1147 0
49 -1169 -1201 1148 0
49 -1169 -1202 1149 0
49 -1169 -1203 1150 0
49 -1169 -1204 1151 0
49 -1170 -1187 1135 0
49 -1170 -1188 1136 0
49 -1170 -1189 1137 0
49 -1170 -1190 1138 0
49 -1170 -1191 1139 0
49 -1170 -1192 1140 0
49 -1170 -1193 1141 0
49 -1170 -1194 1142 0
49 -1170 -1195 1143 0
49 -1170 -1196 1144 0
49 -1170 -1197 1145 0
49 -1170 -1198 1146 0
49 -1170 -1199 1147 0
49 -1170 -1200 1148 0
49 -1170 -1201 1149 0
49 -1170 -1202 1150 0
49 -1170 -1203 1151 0
49 -1170 -1204 1152 0
49 -1171 -1187 1136 0
49 -1171 -1188 1137 0
49 -1171 -1189 1138 0
49 -1171 -1190 1139 0
49 -1171 -1191 1140 0
49 -1171 -1192 1141 0
49 -1171 -1193 1142 0
49 -1171 -1194 1143 0
49 -1171 -1195 1144 0
49 -1171 -1196 1145 0
49 -1171 -1197 1146 0
49 -1171 -1198 1147 0
49 -1171 -1199 1148 0
49 -1171 -1200 1149 0
49 -1171 -1201 1150 0
49 -1171 -1202 1151 0
49 -1171 -1203 1152 0
49 -1171 -1204 1153 0
49 -1172 -1187 1137 0
49 -1172 -1188 1138 0
49 -1172 -1189 1139 0
49 -1172 -1190 1140 0
49 -1172 -1191 1141 0
49 -1172 -1192 1142 0
49 -1172 -1193 1143 0
49 -1172 -1194 1144 0
49 -1172 -1195 1145 0
49 -1172 -1196 1146 0
49 -1172 -1197 1147 0
49 -1172 -1198 1148 0
49 -1172 -1199 1149 0
49 -1172 -1200 1150 0
49 -1172 -1201 1151 0
49 -1172 -1202 1152 0
49 -1172 -1203 1153 0
49 -1172 -1204 1154 0
49 -1173 -1187 1138 0
49 -1173 -1188 1139 0
49 -1173 -1189 1140 0
49 -1173 -1190 1141 0
49 -1173 -1191 1142 0
49 -1173 -1192 1143 0
49 -1173 -1193 1144 0
49 -1173 -1194 1145 0
49 -1173 -1195 1146 0
49 -1173 -1196 1147 0
49 -1173 -1197 1148 0
49 -1173 -1198 1149 0
49 -1173 -1199 1150 0
49 -1173 -1200 1151 0
49 -1173 -1201 1152 0
49 -1173 -1202 1153 0
49 -1173 -1203 1154 0
49 -1173 -1204 1155 0
49 -1174 -1187 1139 0
49 -1174 -1188 1140 0
49 -1174 -1189 1141 0
49 -1174 -1190 1142 0
49 -1174 -1191 1143 0
49 -1174 -1192 1144 0
49 -1174 -1193 1145 0
49 -1174 -1194 1146 0
49 -1174 -1195 1147 0
49 -1174 -1196 1148 0
49 -1174 -1197 1149 0
49 -1174 -1198 1150 0
49 -1174 -1199 1151 0
49 -1174 -1200 1152 0
49 -1174 -1201 1153 0
49 -1174 -1202 1154 0
49 -1174 -1203 1155 0
49 -1174 -1204 1156 0
49 -1175 -1187 1140 0
49 -1175 -1188 1141 0
49 -1175 -1189 1142 0
49 -1175 -1190 1143 0
49 -1175 -1191 1144 0
49 -1175 -1192 1145 0
49 -1175 -1193 1146 0
49 -1175 -1194 1147 0
49 -1175 -1195 1148 0
49 -1175 -1196 1149 0
49 -1175 -1197 1150 0
49 -1175 -1198 1151 0
49 -1175 -1199 1152 0
49 -1175 -1200 1153 0
49 -1175 -1201 1154 0
49 -1175 -1202 1155 0
49 -1175 -1203 1156 0
49 -1175 -1204 1157 0
49 -1176 -1187 1141 0
49 -1176 -1188 1142 0
49 -1176 -1189 1143 0
49 -1176 -1190 1144 0
49 -1176 -1191 1145 0
49 -1176 -1192 1146 0
49 -1176 -1193 1147 0
49 -1176 -1194 1148 0
49 -1176 -1195 1149 0
49 -1176 -1196 1150 0
49 -1176 -1197 1151 0
49 -1176 -1198 1152 0
49 -1176 -1199 1153 0
49 -1176 -1200 1154 0
49 -1176 -1201 1155 0
49 -1176 -1202 1156 0
49 -1176 -1203 1157 0
49 -1176 -1204 1158 0
49 -1177 -1187 1142 0
49 -1177 -1188 1143 0
49 -1177 -1189 1144 0
49 -1177 -1190 1145 0
49 -1177 -1191 1146 0
49 -1177 -1192 1147 0
49 -1177 -1193 1148 0
49 -1177 -1194 1149 0
49 -1177 -1195 1150 0
49 -1177 -1196 1151 0
49 -1177 -1197 1152 0
49 -1177 -1198 1153 0
49 -1177 -1199 1154 0
49 -1177 -1200 1155 0
49 -1177 -1201 1156 0
49 -1177 -1202 1157 0
49 -1177 -1203 1158 0
49 -1177 -1204 1159 0
49 -1178 -1187 1143 0
49 -1178 -1188 1144 0
49 -1178 -1189 1145 0
49 -1178 -1190 1146 0
49 -1178 -1191 1147 0
49 -1178 -1192 1148 0
49 -1178 -1193 1149 0
49 -1178 -1194 1150 0
49 -1178 -1195 1151 0
49 -1178 -1196 1152 0
49 -1178 -1197 1153 0
49 -1178 -1198 1154 0
49 -1178 -1199 1155 0
49 -1178 -1200 1156 0
49 -1178 -1201 1157 0
49 -1178 -1202 1158 0
49 -1178 -1203 1159 0
49 -1178 -1204 1160 0
49 -1179 -1187 1144 0
49 -1179 -1188 1145 0
49 -1179 -1189 1146 0
49 -1179 -1190 1147 0
49 -1179 -1191 1148 0
49 -1179 -1192 1149 0
49 -1179 -1193 1150 0
49 -1179 -1194 1151 0
49 -1179 -1195 1152 0
49 -1179 -1196 1153 0
49 -1179 -1197 1154 0
49 -1179 -1198 1155 0
49 -1179 -1199 1156 0
49 -1179 -1200 1157 0
49 -1179 -1201 1158 0
49 -1179 -1202 1159 0
49 -1179 -1203 1160 0
49 -1179 -1204 1161 0
49 -1180 -1187 1145 0
49 -1180 -1188 1146 0
49 -1180 -1189 1147 0
49 -1180 -1190 1148 0
49 -1180 -1191 1149 0
49 -1180 -1192 1150 0
49 -1180 -1193 1151 0
49 -1180 -1194 1152 0
49 -1180 -1195 1153 0
49 -1180 -1196 1154 0
49 -1180 -1197 1155 0
49 -1180 -1198 1156 0
49 -1180 -1199 1157 0
49 -1180 -1200 1158 0
49 -1180 -1201 1159 0
49 -1180 -1202 1160 0
49 -1180 -1203 1161 0
49 -1180 -1204 1162 0
49 -1181 -1187 1146 0
49 -1181 -1188 1147 0
49 -1181 -1189 1148 0
49 -1181 -1190 1149 0
49 -1181 -1191 1150 0
49 -1181 -1192 1151 0
49 -1181 -1193 1152 0
49 -1181 -1194 1153 0
49 -1181 -1195 1154 0
49 -1181 -1196 1155 0
49 -1181 -1197 1156 0
49 -1181 -1198 1157 0
49 -1181 -1199 1158 0
49 -1181 -1200 1159 0
49 -1181 -1201 1160 0
49 -1181 -1202 1161 0
49 -1181 -1203 1162 0
49 -1181 -1204 1163 0
49 -1182 -1187 1147 0
49 -1182 -1188 1148 0
49 -1182 -1189 1149 0
49 -1182 -1190 1150 0
49 -1182 -1191 1151 0
49 -1182 -1192 1152 0
49 -1182 -1193 1153 0
49 -1182 -1194 1154 0
49 -1182 -1195 1155 0
49 -1182 -1196 1156 0
49 -1182 -1197 1157 0
49 -1182 -1198 1158 0
49 -1182 -1199 1159 0
49 -1182 -1200 1160 0
49 -1182 -1201 1161 0
49 -1182 -1202 1162 0
49 -1182 -1203 1163 0
49 -1182 -1204 1164 0
49 -1183 -1187 1148 0
49 -1183 -1188 1149 0
49 -1183 -1189 1150 0
49 -1183 -1190 1151 0
49 -1183 -1191 1152 0
49 -1183 -1192 1153 0
49 -1183 -1193 1154 0
49 -1183 -1194 1155 0
49 -1183 -1195 1156 0
49 -1183 -1196 1157 0
49 -1183 -1197 1158 0
49 -1183 -1198 1159 0
49 -1183 -1199 1160 0
49 -1183 -1200 1161 0
49 -1183 -1201 1162 0
49 -1183 -1202 1163 0
49 -1183 -1203 1164 0
49 -1183 -1204 1165 0
49 -1184 -1187 1149 0
49 -1184 -1188 1150 0
49 -1184 -1189 1151 0
49 -1184 -1190 1152 0
49 -1184 -1191 1153 0
49 -1184 -1192 1154 0
49 -1184 -1193 1155 0
49 -1184 -1194 1156 0
49 -1184 -1195 1157 0
49 -1184 -1196 1158 0
49 -1184 -1197 1159 0
49 -1184 -1198 1160 0
49 -1184 -1199 1161 0
49 -1184 -1200 1162 0
49 -1184 -1201 1163 0
49 -1184 -1202 1164 0
49 -1184 -1203 1165 0
49 -1184 -1204 1166 0
49 -1185 -1187 1150 0
49 -1185 -1188 1151 0
49 -1185 -1189 1152 0
49 -1185 -1190 1153 0
49 -1185 -1191 1154 0
49 -1185 -1192 1155 0
49 -1185 -1193 1156 0
49 -1185 -1194 1157 0
49 -1185 -1195 1158 0
49 -1185 -1196 1159 0
49 -1185 -1197 1160 0
49 -1185 -1198 1161 0
49 -1185 -1199 1162 0
49 -1185 -1200 1163 0
49 -1185 -1201 1164 0
49 -1185 -1202 1165 0
49 -1185 -1203 1166 0
49 -1185 -1204 1167 0
49 -1186 -1187 1151 0
49 -1186 -1188 1152 0
49 -1186 -1189 1153 0
49 -1186 -1190 1154 0
49 -1186 -1191 1155 0
49 -1186 -1192 1156 0
49 -1186 -1193 1157 0
49 -1186 -1194 1158 0
49 -1186 -1195 1159 0
49 -1186 -1196 1160 0
49 -1186 -1197 1161 0
49 -1186 -1198 1162 0
49 -1186 -1199 1163 0
49 -1186 -1200 1164 0
49 -1186 -1201 1165 0
49 -1186 -1202 1166 0
49 -1186 -1203 1167 0
49 -1186 -1204 1168 0
49 -1214 1187 0
49 -1215 1188 0
49 -1216 1189 0
49 -1217 1190 0
49 -1218 1191 0
49 -1219 1192 0
49 -1220 1193 0
49 -1221 1194 0
49 -1222 1195 0
49 -1205 1187 0
49 -1206 1188 0
49 -1207 1189 0
49 -1208 1190 0
49 -1209 1191 0
49 -1210 1192 0
49 -1211 1193 0
49 -1212 1194 0
49 -1213 1195 0
49 -1205 -1214 1188 0
49 -1205 -1215 1189 0
49 -1205 -1216 1190 0
49 -1205 -1217 1191 0
49 -1205 -1218 1192 0
49 -1205 -1219 1193 0
49 -1205 -1220 1194 0
49 -1205 -1221 1195 0
49 -1205 -1222 1196 0
49 -1206 -1214 1189 0
49 -1206 -1215 1190 0
49 -1206 -1216 1191 0
49 -1206 -1217 1192 0
49 -1206 -1218 1193 0
49 -1206 -1219 1194 0
49 -1206 -1220 1195 0
49 -1206 -1221 1196 0
49 -1206 -1222 1197 0
49 -1207 -1214 1190 0
49 -1207 -1215 1191 0
49 -1207 -1216 1192 0
49 -1207 -1217 1193 0
49 -1207 -1218 1194 0
49 -1207 -1219 1195 0
49 -1207 -1220 1196 0
49 -1207 -1221 1197 0
49 -1207 -1222 1198 0
49 -1208 -1214 1191 0
49 -1208 -1215 1192 0
49 -1208 -1216 1193 0
49 -1208 -1217 1194 0
49 -1208 -1218 1195 0
49 -1208 -1219 1196 0
49 -1208 -1220 1197 0
49 -1208 -1221 1198 0
49 -1208 -1222 1199 0
49 -1209 -1214 1192 0
49 -1209 -1215 1193 0
49 -1209 -1216 1194 0
49 -1209 -1217 1195 0
49 -1209 -1218 1196 0
49 -1209 -1219 1197 0
49 -1209 -1220 1198 0
49 -1209 -1221 1199 0
49 -1209 -1222 1200 0
49 -1210 -1214 1193 0
49 -1210 -1215 1194 0
49 -1210 -1216 1195 0
49 -1210 -1217 1196 0
49 -1210 -1218 1197 0
49 -1210 -1219 1198 0
49 -1210 -1220 1199 0
49 -1210 -1221 1200 0
49 -1210 -1222 1201 0
49 -1211 -1214 1194 0
49 -1211 -1215 1195 0
49 -1211 -1216 1196 0
49 -1211 -1217 1197 0
49 -1211 -1218 1198 0
49 -1211 -1219 1199 0
49 -1211 -1220 1200 0
49 -1211 -1221 1201 0
49 -1211 -1222 1202 0
49 -1212 -1214 1195 0
49 -1212 -1215 1196 0
49 -1212 -1216 1197 0
49 -1212 -1217 1198 0
49 -1212 -1218 1199 0
49 -1212 -1219 1200 0
49 -1212 -1220 1201 0
49 -1212 -1221 1202 0
49 -1212 -1222 1203 0
49 -1213 -1214 1196 0
49 -1213 -1215 1197 0
49 -1213 -1216 1198 0
49 -1213 -1217 1199 0
49 -1213 -1218 1200 0
49 -1213 -1219 1201 0
49 -1213 -1220 1202 0
49 -1213 -1221 1203 0
49 -1213 -1222 1204 0
49 -1228 1214 0
49 -1229 1215 0
49 -1230 1216 0
49 -1231 1217 0
49 -1223 1214 0
49 -1224 1215 0
49 -1225 1216 0
49 -1226 1217 0
49 -1227 1218 0
49 -1223 -1228 1215 0
49 -1223 -1229 1216 0
49 -1223 -1230 1217 0
49 -1223 -1231 1218 0
49 -1224 -1228 1216 0
49 -1224 -1229 1217 0
49 -1224 -1230 1218 0
49 -1224 -1231 1219 0
49 -1225 -1228 1217 0
49 -1225 -1229 1218 0
49 -1225 -1230 1219 0
49 -1225 -1231 1220 0
49 -1226 -1228 1218 0
49 -1226 -1229 1219 0
49 -1226 -1230 1220 0
49 -1226 -1231 1221 0
49 -1227 -1228 1219 0
49 -1227 -1229 1220 0
49 -1227 -1230 1221 0
49 -1227 -1231 1222 0
49 -1234 1228 0
49 -1235 1229 0
49 -1232 1228 0
49 -1233 1229 0
49 -1232 -1234 1229 0
49 -1232 -1235 1230 0
49 -1233 -1234 1230 0
49 -1233 -1235 1231 0
49 -142 1234 0
49 -141 1234 0
49 -141 -142 1235 0
49 -140 1232 0
49 -139 1232 0
49 -139 -140 1233 0
49 -1239 1223 0
49 -1240 1224 0
49 -1236 1223 0
49 -1237 1224 0
49 -1238 1225 0
49 -1236 -1239 1224 0
49 -1236 -1240 1225 0
49 -1237 -1239 1225 0
49 -1237 -1240 1226 0
49 -1238 -1239 1226 0
49 -1238 -1240 1227 0
49 -138 1239 0
49 -137 1239 0
49 -137 -138 1240 0
49 -136 1236 0
49 -1241 1236 0
49 -1242 1237 0
49 -1241 -136 1237 0
49 -1242 -136 1238 0
49 -135 1241 0
49 -134 1241 0
49 -134 -135 1242 0
49 -1248 1205 0
49 -1249 1206 0
49 -1250 1207 0
49 -1251 1208 0
49 -1243 1205 0
49 -1244 1206 0
49 -1245 1207 0
49 -1246 1208 0
49 -1247 1209 0
49 -1243 -1248 1206 0
49 -1243 -1249 1207 0
49 -1243 -1250 1208 0
49 -1243 -1251 1209 0
49 -1244 -1248 1207 0
49 -1244 -1249 1208 0
49 -1244 -1250 1209 0
49 -1244 -1251 1210 0
49 -1245 -1248 1208 0
49 -1245 -1249 1209 0
49 -1245 -1250 1210 0
49 -1245 -1251 1211 0
49 -1246 -1248 1209 0
49 -1246 -1249 1210 0
49 -1246 -1250 1211 0
49 -1246 -1251 1212 0
49 -1247 -1248 1210 0
49 -1247 -1249 1211 0
49 -1247 -1250 1212 0
49 -1247 -1251 1213 0
49 -1254 1248 0
49 -1255 1249 0
49 -1252 1248 0
49 -1253 1249 0
49 -1252 -1254 1249 0
49 -1252 -1255 1250 0
49 -1253 -1254 1250 0
49 -1253 -1255 1251 0
49 -133 1254 0
49 -132 1254 0
49 -132 -133 1255 0
49 -131 1252 0
49 -130 1252 0
49 -130 -131 1253 0
49 -1259 1243 0
49 -1260 1244 0
49 -1256 1243 0
49 -1257 1244 0
49 -1258 1245 0
49 -1256 -1259 1244 0
49 -1256 -1260 1245 0
49 -1257 -1259 1245 0
49 -1257 -1260 1246 0
49 -1258 -1259 1246 0
49 -1258 -1260 1247 0
49 -129 1259 0
49 -128 1259 0
49 -128 -129 1260 0
49 -127 1256 0
49 -1261 1256 0
49 -1262 1257 0
49 -1261 -127 1257 0
49 -1262 -127 1258 0
49 -126 1261 0
49 -125 1261 0
49 -125 -126 1262 0
49 -1272 1169 0
49 -1273 1170 0
49 -1274 1171 0
49 -1275 1172 0
49 -1276 1173 0
49 -1277 1174 0
49 -1278 1175 0
49 -1279 1176 0
49 -1280 1177 0
49 -1263 1169 0
49 -1264 1170 0
49 -1265 1171 0
49 -1266 1172 0
49 -1267 1173 0
49 -1268 1174 0
49 -1269 1175 0
49 -1270 1176 0
49 -1271 1177 0
49 -1263 -1272 1170 0
49 -1263 -1273 1171 0
49 -1263 -1274 1172 0
49 -1263 -1275 1173 0
49 -1263 -1276 1174 0
49 -1263 -1277 1175 0
49 -1263 -1278 1176 0
49 -1263 -1279 1177 0
49 -1263 -1280 1178 0
49 -1264 -1272 1171 0
49 -1264 -1273 1172 0
49 -1264 -1274 1173 0
49 -1264 -1275 1174 0
49 -1264 -1276 1175 0
49 -1264 -1277 1176 0
49 -1264 -1278 1177 0
49 -1264 -1279 1178 0
49 -1264 -1280 1179 0
49 -1265 -1272 1172 0
49 -1265 -1273 1173 0
49 -1265 -1274 1174 0
49 -1265 -1275 1175 0
49 -1265 -1276 1176 0
49 -1265 -1277 1177 0
49 -1265 -1278 1178 0
49 -1265 -1279 1179 0
49 -1265 -1280 1180 0
49 -1266 -1272 1173 0
49 -1266 -1273 1174 0
49 -1266 -1274 1175 0
49 -1266 -1275 1176 0
49 -1266 -1276 1177 0
49 -1266 -1277 1178 0
49 -1266 -1278 1179 0
49 -1266 -1279 1180 0
49 -1266 -1280 1181 0
49 -1267 -1272 1174 0
49 -1267 -1273 1175 0
49 -1267 -1274 1176 0
49 -1267 -1275 1177 0
49 -1267 -1276 1178 0
49 -1267 -1277 1179 0
49 -1267 -1278 1180 0
49 -1267 -1279 1181 0
49 -1267 -1280 1182 0
49 -1268 -1272 1175 0
49 -1268 -1273 1176 0
49 -1268 -1274 1177 0
49 -1268 -1275 1178 0
49 -1268 -1276 1179 0
49 -1268 -1277 1180 0
49 -1268 -1278 1181 0
49 -1268 -1279 1182 0
49 -1268 -1280 1183 0
49 -1269 -1272 1176 0
49 -1269 -1273 1177 0
49 -1269 -1274 1178 0
49 -1269 -1275 1179 0
49 -1269 -1276 1180 0
49 -1269 -1277 1181 0
49 -1269 -1278 1182 0
49 -1269 -1279 1183 0
49 -1269 -1280 1184 0
49 -1270 -1272 1177 0
49 -1270 -1273 1178 0
49 -1270 -1274 1179 0
49 -1270 -1275 1180 0
49 -1270 -1276 1181 0
49 -1270 -1277 1182 0
49 -1270 -1278 1183 0
49 -1270 -1279 1184 0
49 -1270 -1280 1185 0
49 -1271 -1272 1178 0
49 -1271 -1273 1179 0
49 -1271 -1274 1180 0
49 -1271 -1275 1181 0
49 -1271 -1276 1182 0
49 -1271 -1277 1183 0
49 -1271 -1278 1184 0
49 -1271 -1279 1185 0
49 -1271 -1280 1186 0
49 -1286 1272 0
49 -1287 1273 0
49 -1288 1274 0
49 -1289 1275 0
49 -1281 1272 0
49 -1282 1273 0
49 -1283 1274 0
49 -1284 1275 0
49 -1285 1276 0
49 -1281 -1286 1273 0
49 -1281 -1287 1274 0
49 -1281 -1288 1275 0
49 -1281 -1289 1276 0
49 -1282 -1286 1274 0
49 -1282 -1287 1275 0
49 -1282 -1288 1276 0
49 -1282 -1289 1277 0
49 -1283 -1286 1275 0
49 -1283 -1287 1276 0
49 -1283 -1288 1277 0
49 -1283 -1289 1278 0
49 -1284 -1286 1276 0
49 -1284 -1287 1277 0
49 -1284 -1288 1278 0
49 -1284 -1289 1279 0
49 -1285 -1286 1277 0
49 -1285 -1287 1278 0
49 -1285 -1288 1279 0
49 -1285 -1289 1280 0
49 -1292 1286 0
49 -1293 1287 0
49 -1290 1286 0
49 -1291 1287 0
49 -1290 -1292 1287 0
49 -1290 -1293 1288 0
49 -1291 -1292 1288 0
49 -1291 -1293 1289 0
49 -124 1292 0
49 -123 1292 0
49 -123 -124 1293 0
49 -122 1290 0
49 -121 1290 0
49 -121 -122 1291 0
49 -1297 1281 0
49 -1298 1282 0
49 -1294 1281 0
49 -1295 1282 0
49 -1296 1283 0
49 -1294 -1297 1282 0
49 -1294 -1298 1283 0
49 -1295 -1297 1283 0
49 -1295 -1298 1284 0
49 -1296 -1297 1284 0
49 -1296 -1298 1285 0
49 -120 1297 0
49 -119 1297 0
49 -119 -120 1298 0
49 -118 1294 0
49 -1299 1294 0
49 -1300 1295 0
49 -1299 -118 1295 0
49 -1300 -118 1296 0
49 -117 1299 0
49 -116 1299 0
49 -116 -117 1300 0
49 -1306 1263 0
49 -1307 1264 0
49 -1308 1265 0
49 -1309 1266 0
49 -1301 1263 0
49 -1302 1264 0
49 -1303 1265 0
49 -1304 1266 0
49 -1305 1267 0
49 -1301 -1306 1264 0
49 -1301 -1307 1265 0
49 -1301 -1308 1266 0
49 -1301 -1309 1267 0
49 -1302 -1306 1265 0
49 -1302 -1307 1266 0
49 -1302 -1308 1267 0
49 -1302 -1309 1268 0
49 -1303 -1306 1266 0
49 -1303 -1307 1267 0
49 -1303 -1308 1268 0
49 -1303 -1309 1269 0
49 -1304 -1306 1267 0
49 -1304 -1307 1268 0
49 -1304 -1308 1269 0
49 -1304 -1309 1270 0
49 -1305 -1306 1268 0
49 -1305 -1307 1269 0
49 -1305 -1308 1270 0
49 -1305 -1309 1271 0
49 -1312 1306 0
49 -1313 1307 0
49 -1310 1306 0
49 -1311 1307 0
49 -1310 -1312 1307 0
49 -1310 -1313 1308 0
49 -1311 -1312 1308 0
49 -1311 -1313 1309 0
49 -115 1312 0
49 -114 1312 0
49 -114 -115 1313 0
49 -113 1310 0
49 -112 1310 0
49 -112 -113 1311 0
49 -1317 1301 0
49 -1318 1302 0
49 -1314 1301 0
49 -1315 1302 0
49 -1316 1303 0
49 -1314 -1317 1302 0
49 -1314 -1318 1303 0
49 -1315 -1317 1303 0
49 -1315 -1318 1304 0
49 -1316 -1317 1304 0
49 -1316 -1318 1305 0
49 -111 1317 0
49 -110 1317 0
49 -110 -111 1318 0
49 -109 1314 0
49 -1319 1314 0
49 -1320 1315 0
49 -1319 -109 1315 0
49 -1320 -109 1316 0
49 -108 1319 0
49 -107 1319 0
49 -107 -108 1320 0
49 -1134 0
49 143 144 145 146 147 148 149 150 151 152 153 0
49 -1338 1321 0
49 -1339 1322 0
49 -1340 1323 0
49 -1341 1324 0
49 -1342 1325 0
49 -1332 1321 0
49 -1333 1322 0
49 -1334 1323 0
49 -1335 1324 0
49 -1336 1325 0
49 -1337 1326 0
49 -1332 -1338 1322 0
49 -1332 -1339 1323 0
49 -1332 -1340 1324 0
49 -1332 -1341 1325 0
49 -1332 -1342 1326 0
49 -1333 -1338 1323 0
49 -1333 -1339 1324 0
49 -1333 -1340 1325 0
49 -1333 -1341 1326 0
49 -1333 -1342 1327 0
49 -1334 -1338 1324 0
49 -1334 -1339 1325 0
49 -1334 -1340 1326 0
49 -1334 -1341 1327 0
49 -1334 -1342 1328 0
49 -1335 -1338 1325 0
49 -1335 -1339 1326 0
49 -1335 -1340 1327 0
49 -1335 -1341 1328 0
49 -1335 -1342 1329 0
49 -1336 -1338 1326 0
49 -1336 -1339 1327 0
49 -1336 -1340 1328 0
49 -1336 -1341 1329 0
49 -1336 -1342 1330 0
49 -1337 -1338 1327 0
49 -1337 -1339 1328 0
49 -1337 -1340 1329 0
49 -1337 -1341 1330 0
49 -1337 -1342 1331 0
49 -1346 1338 0
49 -1347 1339 0
49 -1343 1338 0
49 -1344 1339 0
49 -1345 1340 0
49 -1343 -1346 1339 0
49 -1343 -1347 1340 0
49 -1344 -1346 1340 0
49 -1344 -1347 1341 0
49 -1345 -1346 1341 0
49 -1345 -1347 1342 0
49 -153 1346 0
49 -152 1346 0
49 -152 -153 1347 0
49 -151 1343 0
49 -1348 1343 0
49 -1349 1344 0
49 -1348 -151 1344 0
49 -1349 -151 1345 0
49 -150 1348 0
49 -149 1348 0
49 -149 -150 1349 0
49 -1353 1332 0
49 -1354 1333 0
49 -1355 1334 0
49 -1350 1332 0
49 -1351 1333 0
49 -1352 1334 0
49 -1350 -1353 1333 0
49 -1350 -1354 1334 0
49 -1350 -1355 1335 0
49 -1351 -1353 1334 0
49 -1351 -1354 1335 0
49 -1351 -1355 1336 0
49 -1352 -1353 1335 0
49 -1352 -1354 1336 0
49 -1352 -1355 1337 0
49 -148 1353 0
49 -1356 1353 0
49 -1357 1354 0
49 -1356 -148 1354 0
49 -1357 -148 1355 0
49 -147 1356 0
49 -146 1356 0
49 -146 -147 1357 0
49 -145 1350 0
49 -1358 1350 0
49 -1359 1351 0
49 -1358 -145 1351 0
49 -1359 -145 1352 0
49 -144 1358 0
49 -143 1358 0
49 -143 -144 1359 0
49 -1322 0
49 154 155 156 157 158 159 160 161 162 163 164 0
49 -1377 1360 0
49 -1378 1361 0
49 -1379 1362 0
49 -1380 1363 0
49 -1381 1364 0
49 -1371 1360 0
49 -1372 1361 0
49 -1373 1362 0
49 -1374 1363 0
49 -1375 1364 0
49 -1376 1365 0
49 -1371 -1377 1361 0
49 -1371 -1378 1362 0
49 -1371 -1379 1363 0
49 -1371 -1380 1364 0
49 -1371 -1381 1365 0
49 -1372 -1377 1362 0
49 -1372 -1378 1363 0
49 -1372 -1379 1364 0
49 -1372 -1380 1365 0
49 -1372 -1381 1366 0
49 -1373 -1377 1363 0
49 -1373 -1378 1364 0
49 -1373 -1379 1365 0
49 -1373 -1380 1366 0
49 -1373 -1381 1367 0
49 -1374 -1377 1364 0
49 -1374 -1378 1365 0
49 -1374 -1379 1366 0
49 -1374 -1380 1367 0
49 -1374 -1381 1368 0
49 -1375 -1377 1365 0
49 -1375 -1378 1366 0
49 -1375 -1379 1367 0
49 -1375 -1380 1368 0
49 -1375 -1381 1369 0
49 -1376 -1377 1366 0
49 -1376 -1378 1367 0
49 -1376 -1379 1368 0
49 -1376 -1380 1369 0
49 -1376 -1381 1370 0
49 -1385 1377 0
49 -1386 1378 0
49 -1382 1377 0
49 -1383 1378 0
49 -1384 1379 0
49 -1382 -1385 1378 0
49 -1382 -1386 1379 0
49 -1383 -1385 1379 0
49 -1383 -1386 1380 0
49 -1384 -1385 1380 0
49 -1384 -1386 1381 0
49 -164 1385 0
49 -163 1385 0
49 -163 -164 1386 0
49 -162 1382 0
49 -1387 1382 0
49 -1388 1383 0
49 -1387 -162 1383 0
49 -1388 -162 1384 0
49 -161 1387 0
49 -160 1387 0
49 -160 -161 1388 0
49 -1392 1371 0
49 -1393 1372 0
49 -1394 1373 0
49 -1389 1371 0
49 -1390 1372 0
49 -1391 1373 0
49 -1389 -1392 1372 0
49 -1389 -1393 1373 0
49 -1389 -1394 1374 0
49 -1390 -1392 1373 0
49 -1390 -1393 1374 0
49 -1390 -1394 1375 0
49 -1391 -1392 1374 0
49 -1391 -1393 1375 0
49 -1391 -1394 1376 0
49 -159 1392 0
49 -1395 1392 0
49 -1396 1393 0
49 -1395 -159 1393 0
49 -1396 -159 1394 0
49 -158 1395 0
49 -157 1395 0
49 -157 -158 1396 0
49 -156 1389 0
49 -1397 1389 0
49 -1398 1390 0
49 -1397 -156 1390 0
49 -1398 -156 1391 0
49 -155 1397 0
49 -154 1397 0
49 -154 -155 1398 0
49 -1361 0
49 165 0
49 166 0
49 167 168 0
49 -167 -168 0
49 169 170 0
49 -169 -170 0
49 171 0
49 172 0
49 173 0
49 174 0
49 175 0
49 176 0
49 177 0
49 178 0
49 179 0
49 180 0
49 181 182 183 0
49 -183 1399 0
49 -1402 1399 0
49 -1403 1400 0
49 -1402 -183 1400 0
49 -1403 -183 1401 0
49 -182 1402 0
49 -181 1402 0
49 -181 -182 1403 0
49 -1400 0
49 184 185 186 0
49 -186 1404 0
49 -1407 1404 0
49 -1408 1405 0
49 -1407 -186 1405 0
49 -1408 -186 1406 0
49 -185 1407 0
49 -184 1407 0
49 -184 -185 1408 0
49 -1405 0
49 187 0
49 188 0
49 189 0
49 190 0
49 191 0
49 192 0
49 193 0
49 194 0
49 195 0
49 196 0
49 197 0
49 198 0
49 199 200 201 202 203 204 205 206 207 208 209 210 211 212 213 214 215 216 217 218 219 220 221 222 223 224 225 226 227 228 0
49 -1454 1409 0
49 -1455 1410 0
49 -1456 1411 0
49 -1457 1412 0
49 -1458 1413 0
49 -1459 1414 0
49 -1460 1415 0
49 -1461 1416 0
49 -1462 1417 0
49 -1463 1418 0
49 -1464 1419 0
49 -1465 1420 0
49 -1466 1421 0
49 -1467 1422 0
49 -1468 1423 0
49 -1439 1409 0
49 -1440 1410 0
49 -1441 1411 0
49 -1442 1412 0
49 -1443 1413 0
49 -1444 1414 0
49 -1445 1415 0
49 -1446 1416 0
49 -1447 1417 0
49 -1448 1418 0
49 -1449 1419 0
49 -1450 1420 0
49 -1451 1421 0
49 -1452 1422 0
49 -1453 1423 0
49 -1439 -1454 1410 0
49 -1439 -1455 1411 0
49 -1439 -1456 1412 0
49 -1439 -1457 1413 0
49 -1439 -1458 1414 0
49 -1439 -1459 1415 0
49 -1439 -1460 1416 0
49 -1439 -1461 1417 0
49 -1439 -1462 1418 0
49 -1439 -1463 1419 0
49 -1439 -1464 1420 0
49 -1439 -1465 1421 0
49 -1439 -1466 1422 0
49 -1439 -1467 1423 0
49 -1439 -1468 1424 0
49 -1440 -1454 1411 0
49 -1440 -1455 1412 0
49 -1440 -1456 1413 0
49 -1440 -1457 1414 0
49 -1440 -1458 1415 0
49 -1440 -1459 1416 0
49 -1440 -1460 1417 0
49 -1440 -1461 1418 0
49 -1440 -1462 1419 0
49 -1440 -1463 1420 0
49 -1440 -1464 1421 0
49 -1440 -1465 1422 0
49 -1440 -1466 1423 0
49 -1440 -1467 1424 0
49 -1440 -1468 1425 0
49 -1441 -1454 1412 0
49 -1441 -1455 1413 0
49 -1441 -1456 1414 0
49 -1441 -1457 1415 0
49 -1441 -1458 1416 0
49 -1441 -1459 1417 0
49 -1441 -1460 1418 0
49 -1441 -1461 1419 0
49 -1441 -1462 1420 0
49 -1441 -1463 1421 0
49 -1441 -1464 1422 0
49 -1441 -1465 1423 0
49 -1441 -1466 1424 0
49 -1441 -1467 1425 0
49 -1441 -1468 1426 0
49 -1442 -1454 1413 0
49 -1442 -1455 1414 0
49 -1442 -1456 1415 0
49 -1442 -1457 1416 0
49 -1442 -1458 1417 0
49 -1442 -1459 1418 0
49 -1442 -1460 1419 0
49 -1442 -1461 1420 0
49 -1442 -1462 1421 0
49 -1442 -1463 1422 0
49 -1442 -1464 1423 0
49 -1442 -1465 1424 0
49 -1442 -1466 1425 0
49 -1442 -1467 1426 0
49 -1442 -1468 1427 0
49 -1443 -1454 1414 0
49 -1443 -1455 1415 0
49 -1443 -1456 1416 0
49 -1443 -1457 1417 0
49 -1443 -1458 1418 0
49 -1443 -1459 1419 0
49 -1443 -1460 1420 0
49 -1443 -1461 1421 0
49 -1443 -1462 1422 0
49 -1443 -1463 1423 0
49 -1443 -1464 1424 0
49 -1443 -1465 1425 0
49 -1443 -1466 1426 0
49 -1443 -1467 1427 0
49 -1443 -1468 1428 0
49 -1444 -1454 1415 0
49 -1444 -1455 1416 0
49 -1444 -1456 1417 0
49 -1444 -1457 1418 0
49 -1444 -1458 1419 0
49 -1444 -1459 1420 0
49 -1444 -1460 1421 0
49 -1444 -1461 1422 0
49 -1444 -1462 1423 0
49 -1444 -1463 1424 0
49 -1444 -1464 1425 0
49 -1444 -1465 1426 0
49 -1444 -1466 1427 0
49 -1444 -1467 1428 0
49 -1444 -1468 1429 0
49 -1445 -1454 1416 0
49 -1445 -1455 1417 0
49 -1445 -1456 1418 0
49 -1445 -1457 1419 0
49 -1445 -1458 1420 0
49 -1445 -1459 1421 0
49 -1445 -1460 1422 0
49 -1445 -1461 1423 0
49 -1445 -1462 1424 0
49 -1445 -1463 1425 0
49 -1445 -1464 1426 0
49 -1445 -1465 1427 0
49 -1445 -1466 1428 0
49 -1445 -1467 1429 0
49 -1445 -1468 1430 0
49 -1446 -1454 1417 0
49 -1446 -1455 1418 0
49 -1446 -1456 1419 0
49 -1446 -1457 1420 0
49 -1446 -1458 1421 0
49 -1446 -1459 1422 0
49 -1446 -1460 1423 0
49 -1446 -1461 1424 0
49 -1446 -1462 1425 0
49 -1446 -1463 1426 0
49 -1446 -1464 1427 0
49 -1446 -1465 1428 0
49 -1446 -1466 1429 0
49 -1446 -1467 1430 0
49 -1446 -1468 1431 0
49 -1447 -1454 1418 0
49 -1447 -1455 1419 0
49 -1447 -1456 1420 0
49 -1447 -1457 1421 0
49 -1447 -1458 1422 0
49 -1447 -1459 1423 0
49 -1447 -1460 1424 0
49 -1447 -1461 1425 0
49 -1447 -1462 1426 0
49 -1447 -1463 1427 0
49 -1447 -1464 1428 0
49 -1447 -1465 1429 0
49 -1447 -1466 1430 0
49 -1447 -1467 1431 0
49 -1447 -1468 1432 0
49 -1448 -1454 1419 0
49 -1448 -1455 1420 0
49 -1448 -1456 1421 0
49 -1448 -1457 1422 0
49 -1448 -1458 1423 0
49 -1448 -1459 1424 0
49 -1448 -1460 1425 0
49 -1448 -1461 1426 0
49 -1448 -1462 1427 0
49 -1448 -1463 1428 0
49 -1448 -1464 1429 0
49 -1448 -1465 1430 0
49 -1448 -1466 1431 0
49 -1448 -1467 1432 0
49 -1448 -1468 1433 0
49 -1449 -1454 1420 0
49 -1449 -1455 1421 0
49 -1449 -1456 1422 0
49 -1449 -1457 1423 0
49 -1449 -1458 1424 0
49 -1449 -1459 1425 0
49 -1449 -1460 1426 0
49 -1449 -1461 1427 0
49 -1449 -1462 1428 0
49 -1449 -1463 1429 0
49 -1449 -1464 1430 0
49 -1449 -1465 1431 0
49 -1449 -1466 1432 0
49 -1449 -1467 1433 0
49 -1449 -1468 1434 0
49 -1450 -1454 1421 0
49 -1450 -1455 1422 0
49 -1450 -1456 1423 0
49 -1450 -1457 1424 0
49 -1450 -1458 1425 0
49 -1450 -1459 1426 0
49 -1450 -1460 1427 0
49 -1450 -1461 1428 0
49 -1450 -1462 1429 0
49 -1450 -1463 1430 0
49 -1450 -1464 1431 0
49 -1450 -1465 1432 0
49 -1450 -1466 1433 0
49 -1450 -1467 1434 0
49 -1450 -1468 1435 0
49 -1451 -1454 1422 0
49 -1451 -1455 1423 0
49 -1451 -1456 1424 0
49 -1451 -1457 1425 0
49 -1451 -1458 1426 0
49 -1451 -1459 1427 0
49 -1451 -1460 1428 0
49 -1451 -1461 1429 0
49 -1451 -1462 1430 0
49 -1451 -1463 1431 0
49 -1451 -1464 1432 0
49 -1451 -1465 1433 0
49 -1451 -1466 1434 0
49 -1451 -1467 1435 0
49 -1451 -1468 1436 0
49 -1452 -1454 1423 0
49 -1452 -1455 1424 0
49 -1452 -1456 1425 0
49 -1452 -1457 1426 0
49 -1452 -1458 1427 0
49 -1452 -1459 1428 0
49 -1452 -1460 1429 0
49 -1452 -1461 1430 0
49 -1452 -1462 1431 0
49 -1452 -1463 1432 0
49 -1452 -1464 1433 0
49 -1452 -1465 1434 0
49 -1452 -1466 1435 0
49 -1452 -1467 1436 0
49 -1452 -1468 1437 0
49 -1453 -1454 1424 0
49 -1453 -1455 1425 0
49 -1453 -1456 1426 0
49 -1453 -1457 1427 0
49 -1453 -1458 1428 0
49 -1453 -1459 1429 0
49 -1453 -1460 1430 0
49 -1453 -1461 1431 0
49 -1453 -1462 1432 0
49 -1453 -1463 1433 0
49 -1453 -1464 1434 0
49 -1453 -1465 1435 0
49 -1453 -1466 1436 0
49 -1453 -1467 1437 0
49 -1453 -1468 1438 0
49 -1477 1454 0
49 -1478 1455 0
49 -1479 1456 0
49 -1480 1457 0
49 -1481 1458 0
49 -1482 1459 0
49 -1483 1460 0
49 -1469 1454 0
49 -1470 1455 0
49 -1471 1456 0
49 -1472 1457 0
49 -1473 1458 0
49 -1474 1459 0
49 -1475 1460 0
49 -1476 1461 0
49 -1469 -1477 1455 0
49 -1469 -1478 1456 0
49 -1469 -1479 1457 0
49 -1469 -1480 1458 0
49 -1469 -1481 1459 0
49 -1469 -1482 1460 0
49 -1469 -1483 1461 0
49 -1470 -1477 1456 0
49 -1470 -1478 1457 0
49 -1470 -1479 1458 0
49 -1470 -1480 1459 0
49 -1470 -1481 1460 0
49 -1470 -1482 1461 0
49 -1470 -1483 1462 0
49 -1471 -1477 1457 0
49 -1471 -1478 1458 0
49 -1471 -1479 1459 0
49 -1471 -1480 1460 0
49 -1471 -1481 1461 0
49 -1471 -1482 1462 0
49 -1471 -1483 1463 0
49 -1472 -1477 1458 0
49 -1472 -1478 1459 0
49 -1472 -1479 1460 0
49 -1472 -1480 1461 0
49 -1472 -1481 1462 0
49 -1472 -1482 1463 0
49 -1472 -1483 1464 0
49 -1473 -1477 1459 0
49 -1473 -1478 1460 0
49 -1473 -1479 1461 0
49 -1473 -1480 1462 0
49 -1473 -1481 1463 0
49 -1473 -1482 1464 0
49 -1473 -1483 1465 0
49 -1474 -1477 1460 0
49 -1474 -1478 1461 0
49 -1474 -1479 1462 0
49 -1474 -1480 1463 0
49 -1474 -1481 1464 0
49 -1474 -1482 1465 0
49 -1474 -1483 1466 0
49 -1475 -1477 1461 0
49 -1475 -1478 1462 0
49 -1475 -1479 1463 0
49 -1475 -1480 1464 0
49 -1475 -1481 1465 0
49 -1475 -1482 1466 0
49 -1475 -1483 1467 0
49 -1476 -1477 1462 0
49 -1476 -1478 1463 0
49 -1476 -1479 1464 0
49 -1476 -1480 1465 0
49 -1476 -1481 1466 0
49 -1476 -1482 1467 0
49 -1476 -1483 1468 0
49 -1488 1477 0
49 -1489 1478 0
49 -1490 1479 0
49 -1484 1477 0
49 -1485 1478 0
49 -1486 1479 0
49 -1487 1480 0
49 -1484 -1488 1478 0
49 -1484 -1489 1479 0
49 -1484 -1490 1480 0
49 -1485 -1488 1479 0
49 -1485 -1489 1480 0
49 -1485 -1490 1481 0
49 -1486 -1488 1480 0
49 -1486 -1489 1481 0
49 -1486 -1490 1482 0
49 -1487 -1488 1481 0
49 -1487 -1489 1482 0
49 -1487 -1490 1483 0
49 -228 1488 0
49 -1491 1488 0
49 -1492 1489 0
49 -1491 -228 1489 0
49 -1492 -228 1490 0
49 -227 1491 0
49 -226 1491 0
49 -226 -227 1492 0
49 -1495 1484 0
49 -1496 1485 0
49 -1493 1484 0
49 -1494 1485 0
49 -1493 -1495 1485 0
49 -1493 -1496 1486 0
49 -1494 -1495 1486 0
49 -1494 -1496 1487 0
49 -225 1495 0
49 -224 1495 0
49 -224 -225 1496 0
49 -223 1493 0
49 -222 1493 0
49 -222 -223 1494 0
49 -1501 1469 0
49 -1502 1470 0
49 -1503 1471 0
49 -1504 1472 0
49 -1497 1469 0
49 -1498 1470 0
49 -1499 1471 0
49 -1500 1472 0
49 -1497 -1501 1470 0
49 -1497 -1502 1471 0
49 -1497 -1503 1472 0
49 -1497 -1504 1473 0
49 -1498 -1501 1471 0
49 -1498 -1502 1472 0
49 -1498 -1503 1473 0
49 -1498 -1504 1474 0
49 -1499 -1501 1472 0
49 -1499 -1502 1473 0
49 -1499 -1503 1474 0
49 -1499 -1504 1475 0
49 -1500 -1501 1473 0
49 -1500 -1502 1474 0
49 -1500 -1503 1475 0
49 -1500 -1504 1476 0
49 -1507 1501 0
49 -1508 1502 0
49 -1505 1501 0
49 -1506 1502 0
49 -1505 -1507 1502 0
49 -1505 -1508 1503 0
49 -1506 -1507 1503 0
49 -1506 -1508 1504 0
49 -221 1507 0
49 -220 1507 0
49 -220 -221 1508 0
49 -219 1505 0
49 -218 1505 0
49 -218 -219 1506 0
49 -1511 1497 0
49 -1512 1498 0
49 -1509 1497 0
49 -1510 1498 0
49 -1509 -1511 1498 0
49 -1509 -1512 1499 0
49 -1510 -1511 1499 0
49 -1510 -1512 1500 0
49 -217 1511 0
49 -216 1511 0
49 -216 -217 1512 0
49 -215 1509 0
49 -214 1509 0
49 -214 -215 1510 0
49 -1521 1439 0
49 -1522 1440 0
49 -1523 1441 0
49 -1524 1442 0
49 -1525 1443 0
49 -1526 1444 0
49 -1527 1445 0
49 -1513 1439 0
49 -1514 1440 0
49 -1515 1441 0
49 -1516 1442 0
49 -1517 1443 0
49 -1518 1444 0
49 -1519 1445 0
49 -1520 1446 0
49 -1513 -1521 1440 0
49 -1513 -1522 1441 0
49 -1513 -1523 1442 0
49 -1513 -1524 1443 0
49 -1513 -1525 1444 0
49 -1513 -1526 1445 0
49 -1513 -1527 1446 0
49 -1514 -1521 1441 0
49 -1514 -1522 1442 0
49 -1514 -1523 1443 0
49 -1514 -1524 1444 0
49 -1514 -1525 1445 0
49 -1514 -1526 1446 0
49 -1514 -1527 1447 0
49 -1515 -1521 1442 0
49 -1515 -1522 1443 0
49 -1515 -1523 1444 0
49 -1515 -1524 1445 0
49 -1515 -1525 1446 0
49 -1515 -1526 1447 0
49 -1515 -1527 1448 0
49 -1516 -1521 1443 0
49 -1516 -1522 1444 0
49 -1516 -1523 1445 0
49 -1516 -1524 1446 0
49 -1516 -1525 1447 0
49 -1516 -1526 1448 0
49 -1516 -1527 1449 0
49 -1517 -1521 1444 0
49 -1517 -1522 1445 0
49 -1517 -1523 1446 0
49 -1517 -1524 1447 0
49 -1517 -1525 1448 0
49 -1517 -1526 1449 0
49 -1517 -1527 1450 0
49 -1518 -1521 1445 0
49 -1518 -1522 1446 0
49 -1518 -1523 1447 0
49 -1518 -1524 1448 0
49 -1518 -1525 1449 0
49 -1518 -1526 1450 0
49 -1518 -1527 1451 0
49 -1519 -1521 1446 0
49 -1519 -1522 1447 0
49 -1519 -1523 1448 0
49 -1519 -1524 1449 0
49 -1519 -1525 1450 0
49 -1519 -1526 1451 0
49 -1519 -1527 1452 0
49 -1520 -1521 1447 0
49 -1520 -1522 1448 0
49 -1520 -1523 1449 0
49 -1520 -1524 1450 0
49 -1520 -1525 1451 0
49 -1520 -1526 1452 0
49 -1520 -1527 1453 0
49 -1532 1521 0
49 -1533 1522 0
49 -1534 1523 0
49 -1528 1521 0
49 -1529 1522 0
49 -1530 1523 0
49 -1531 1524 0
49 -1528 -1532 1522 0
49 -1528 -1533 1523 0
49 -1528 -1534 1524 0
49 -1529 -1532 1523 0
49 -1529 -1533 1524 0
49 -1529 -1534 1525 0
49 -1530 -1532 1524 0
49 -1530 -1533 1525 0
49 -1530 -1534 1526 0
49 -1531 -1532 1525 0
49 -1531 -1533 1526 0
49 -1531 -1534 1527 0
49 -213 1532 0
49 -1535 1532 0
49 -1536 1533 0
49 -1535 -213 1533 0
49 -1536 -213 1534 0
49 -212 1535 0
49 -211 1535 0
49 -211 -212 1536 0
49 -1539 1528 0
49 -1540 1529 0
49 -1537 1528 0
49 -1538 1529 0
49 -1537 -1539 1529 0
49 -1537 -1540 1530 0
49 -1538 -1539 1530 0
49 -1538 -1540 1531 0
49 -210 1539 0
49 -209 1539 0
49 -209 -210 1540 0
49 -208 1537 0
49 -207 1537 0
49 -207 -208 1538 0
49 -1545 1513 0
49 -1546 1514 0
49 -1547 1515 0
49 -1548 1516 0
49 -1541 1513 0
49 -1542 1514 0
49 -1543 1515 0
49 -1544 1516 0
49 -1541 -1545 1514 0
49 -1541 -1546 1515 0
49 -1541 -1547 1516 0
49 -1541 -1548 1517 0
49 -1542 -1545 1515 0
49 -1542 -1546 1516 0
49 -1542 -1547 1517 0
49 -1542 -1548 1518 0
49 -1543 -1545 1516 0
49 -1543 -1546 1517 0
49 -1543 -1547 1518 0
49 -1543 -1548 1519 0
49 -1544 -1545 1517 0
49 -1544 -1546 1518 0
49 -1544 -1547 1519 0
49 -1544 -1548 1520 0
49 -1551 1545 0
49 -1552 1546 0
49 -1549 1545 0
49 -1550 1546 0
49 -1549 -1551 1546 0
49 -1549 -1552 1547 0
49 -1550 -1551 1547 0
49 -1550 -1552 1548 0
49 -206 1551 0
49 -205 1551 0
49 -205 -206 1552 0
49 -204 1549 0
49 -203 1549 0
49 -203 -204 1550 0
49 -1555 1541 0
49 -1556 1542 0
49 -1553 1541 0
49 -1554 1542 0
49 -1553 -1555 1542 0
49 -1553 -1556 1543 0
49 -1554 -1555 1543 0
49 -1554 -1556 1544 0
49 -202 1555 0
49 -201 1555 0
49 -201 -202 1556 0
49 -200 1553 0
49 -199 1553 0
49 -199 -200 1554 0
49 -1410 0
49 229 230 231 232 233 234 235 236 237 238 239 240 241 242 243 244 245 246 247 248 249 250 251 252 253 254 255 256 257 258 0
49 -1602 1557 0
49 -1603 1558 0
49 -1604 1559 0
49 -1605 1560 0
49 -1606 1561 0
49 -1607 1562 0
49 -1608 1563 0
49 -1609 1564 0
49 -1610 1565 0
49 -1611 1566 0
49 -1612 1567 0
49 -1613 1568 0
49 -1614 1569 0
49 -1615 1570 0
49 -1616 1571 0
49 -1587 1557 0
49 -1588 1558 0
49 -1589 1559 0
49 -1590 1560 0
49 -1591 1561 0
49 -1592 1562 0
49 -1593 1563 0
49 -1594 1564 0
49 -1595 1565 0
49 -1596 1566 0
49 -1597 1567 0
49 -1598 1568 0
49 -1599 1569 0
49 -1600 1570 0
49 -1601 1571 0
49 -1587 -1602 1558 0
49 -1587 -1603 1559 0
49 -1587 -1604 1560 0
49 -1587 -1605 1561 0
49 -1587 -1606 1562 0
49 -1587 -1607 1563 0
49 -1587 -1608 1564 0
49 -1587 -1609 1565 0
49 -1587 -1610 1566 0
49 -1587 -1611 1567 0
49 -1587 -1612 1568 0
49 -1587 -1613 1569 0
49 -1587 -1614 1570 0
49 -1587 -1615 1571 0
49 -1587 -1616 1572 0
49 -1588 -1602 1559 0
49 -1588 -1603 1560 0
49 -1588 -1604 1561 0
49 -1588 -1605 1562 0
49 -1588 -1606 1563 0
49 -1588 -1607 1564 0
49 -1588 -1608 1565 0
49 -1588 -1609 1566 0
49 -1588 -1610 1567 0
49 -1588 -1611 1568 0
49 -1588 -1612 1569 0
49 -1588 -1613 1570 0
49 -1588 -1614 1571 0
49 -1588 -1615 1572 0
49 -1588 -1616 1573 0
49 -1589 -1602 1560 0
49 -1589 -1603 1561 0
49 -1589 -1604 1562 0
49 -1589 -1605 1563 0
49 -1589 -1606 1564 0
49 -1589 -1607 1565 0
49 -1589 -1608 1566 0
49 -1589 -1609 1567 0
49 -1589 -1610 1568 0
49 -1589 -1611 1569 0
49 -1589 -1612 1570 0
49 -1589 -1613 1571 0
49 -1589 -1614 1572 0
49 -1589 -1615 1573 0
49 -1589 -1616 1574 0
49 -1590 -1602 1561 0
49 -1590 -1603 1562 0
49 -1590 -1604 1563 0
49 -1590 -1605 1564 0
49 -1590 -1606 1565 0
49 -1590 -1607 1566 0
49 -1590 -1608 1567 0
49 -1590 -1609 1568 0
49 -1590 -1610 1569 0
49 -1590 -1611 1570 0
49 -1590 -1612 1571 0
49 -1590 -1613 1572 0
49 -1590 -1614 1573 0
49 -1590 -1615 1574 0
49 -1590 -1616 1575 0
49 -1591 -1602 1562 0
49 -1591 -1603 1563 0
49 -1591 -1604 1564 0
49 -1591 -1605 1565 0
49 -1591 -1606 1566 0
49 -1591 -1607 1567 0
49 -1591 -1608 1568 0
49 -1591 -1609 1569 0
49 -1591 -1610 1570 0
49 -1591 -1611 1571 0
49 -1591 -1612 1572 0
49 -1591 -1613 1573 0
49 -1591 -1614 1574 0
49 -1591 -1615 1575 0
49 -1591 -1616 1576 0
49 -1592 -1602 1563 0
49 -1592 -1603 1564 0
49 -1592 -1604 1565 0
49 -1592 -1605 1566 0
49 -1592 -1606 1567 0
49 -1592 -1607 1568 0
49 -1592 -1608 1569 0
49 -1592 -1609 1570 0
49 -1592 -1610 1571 0
49 -1592 -1611 1572 0
49 -1592 -1612 1573 0
49 -1592 -1613 1574 0
49 -1592 -1614 1575 0
49 -1592 -1615 1576 0
49 -1592 -1616 1577 0
49 -1593 -1602 1564 0
49 -1593 -1603 1565 0
49 -1593 -1604 1566 0
49 -1593 -1605 1567 0
49 -1593 -1606 1568 0
49 -1593 -1607 1569 0
49 -1593 -1608 1570 0
49 -1593 -1609 1571 0
49 -1593 -1610 1572 0
49 -1593 -1611 1573 0
49 -1593 -1612 1574 0
49 -1593 -1613 1575 0
49 -1593 -1614 1576 0
49 -1593 -1615 1577 0
49 -1593 -1616 1578 0
49 -1594 -1602 1565 0
49 -1594 -1603 1566 0
49 -1594 -1604 1567 0
49 -1594 -1605 1568 0
49 -1594 -1606 1569 0
49 -1594 -1607 1570 0
49 -1594 -1608 1571 0
49 -1594 -1609 1572 0
49 -1594 -1610 1573 0
49 -1594 -1611 1574 0
49 -1594 -1612 1575 0
49 -1594 -1613 1576 0
49 -1594 -1614 1577 0
49 -1594 -1615 1578 0
49 -1594 -1616 1579 0
49 -1595 -1602 1566 0
49 -1595 -1603 1567 0
49 -1595 -1604 1568 0
49 -1595 -1605 1569 0
49 -1595 -1606 1570 0
49 -1595 -1607 1571 0
49 -1595 -1608 1572 0
49 -1595 -1609 1573 0
49 -1595 -1610 1574 0
49 -1595 -1611 1575 0
49 -1595 -1612 1576 0
49 -1595 -1613 1577 0
49 -1595 -1614 1578 0
49 -1595 -1615 1579 0
49 -1595 -1616 1580 0
49 -1596 -1602 1567 0
49 -1596 -1603 1568 0
49 -1596 -1604 1569 0
49 -1596 -1605 1570 0
49 -1596 -1606 1571 0
49 -1596 -1607 1572 0
49 -1596 -1608 1573 0
49 -1596 -1609 1574 0
49 -1596 -1610 1575 0
49 -1596 -1611 1576 0
49 -1596 -1612 1577 0
49 -1596 -1613 1578 0
49 -1596 -1614 1579 0
49 -1596 -1615 1580 0
49 -1596 -1616 1581 0
49 -1597 -1602 1568 0
49 -1597 -1603 1569 0
49 -1597 -1604 1570 0
49 -1597 -1605 1571 0
49 -1597 -1606 1572 0
49 -1597 -1607 1573 0
49 -1597 -1608 1574 0
49 -1597 -1609 1575 0
49 -1597 -1610 1576 0
49 -1597 -1611 1577 0
49 -1597 -1612 1578 0
49 -1597 -1613 1579 0
49 -1597 -1614 1580 0
49 -1597 -1615 1581 0
49 -1597 -1616 1582 0
49 -1598 -1602 1569 0
49 -1598 -1603 1570 0
49 -1598 -1604 1571 0
49 -1598 -1605 1572 0
49 -1598 -1606 1573 0
49 -1598 -1607 1574 0
49 -1598 -1608 1575 0
49 -1598 -1609 1576 0
49 -1598 -1610 1577 0
49 -1598 -1611 1578 0
49 -1598 -1612 1579 0
49 -1598 -1613 1580 0
49 -1598 -1614 1581 0
49 -1598 -1615 1582 0
49 -1598 -1616 1583 0
49 -1599 -1602 1570 0
49 -1599 -1603 1571 0
49 -1599 -1604 1572 0
49 -1599 -1605 1573 0
49 -1599 -1606 1574 0
49 -1599 -1607 1575 0
49 -1599 -1608 1576 0
49 -1599 -1609 1577 0
49 -1599 -1610 1578 0
49 -1599 -1611 1579 0
49 -1599 -1612 1580 0
49 -1599 -1613 1581 0
49 -1599 -1614 1582 0
49 -1599 -1615 1583 0
49 -1599 -1616 1584 0
49 -1600 -1602 1571 0
49 -1600 -1603 1572 0
49 -1600 -1604 1573 0
49 -1600 -1605 1574 0
49 -1600 -1606 1575 0
49 -1600 -1607 1576 0
49 -1600 -1608 1577 0
49 -1600 -1609 1578 0
49 -1600 -1610 1579 0
49 -1600 -1611 1580 0
49 -1600 -1612 1581 0
49 -1600 -1613 1582 0
49 -1600 -1614 1583 0
49 -1600 -1615 1584 0
49 -1600 -1616 1585 0
49 -1601 -1602 1572 0
49 -1601 -1603 1573 0
49 -1601 -1604 1574 0
49 -1601 -1605 1575 0
49 -1601 -1606 1576 0
49 -1601 -1607 1577 0
49 -1601 -1608 1578 0
49 -1601 -1609 1579 0
49 -1601 -1610 1580 0
49 -1601 -1611 1581 0
49 -1601 -1612 1582 0
49 -1601 -1613 1583 0
49 -1601 -1614 1584 0
49 -1601 -1615 1585 0
49 -1601 -1616 1586 0
49 -1625 1602 0
49 -1626 1603 0
49 -1627 1604 0
49 -1628 1605 0
49 -1629 1606 0
49 -1630 1607 0
49 -1631 1608 0
49 -1617 1602 0
49 -1618 1603 0
49 -1619 1604 0
49 -1620 1605 0
49 -1621 1606 0
49 -1622 1607 0
49 -1623 1608 0
49 -1624 1609 0
49 -1617 -1625 1603 0
49 -1617 -1626 1604 0
49 -1617 -1627 1605 0
49 -1617 -1628 1606 0
49 -1617 -1629 1607 0
49 -1617 -1630 1608 0
49 -1617 -1631 1609 0
49 -1618 -1625 1604 0
49 -1618 -1626 1605 0
49 -1618 -1627 1606 0
49 -1618 -1628 1607 0
49 -1618 -1629 1608 0
49 -1618 -1630 1609 0
49 -1618 -1631 1610 0
49 -1619 -1625 1605 0
49 -1619 -1626 1606 0
49 -1619 -1627 1607 0
49 -1619 -1628 1608 0
49 -1619 -1629 1609 0
49 -1619 -1630 1610 0
49 -1619 -1631 1611 0
49 -1620 -1625 1606 0
49 -1620 -1626 1607 0
49 -1620 -1627 1608 0
49 -1620 -1628 1609 0
49 -1620 -1629 1610 0
49 -1620 -1630 1611 0
49 -1620 -1631 1612 0
49 -1621 -1625 1607 0
49 -1621 -1626 1608 0
49 -1621 -1627 1609 0
49 -1621 -1628 1610 0
49 -1621 -1629 1611 0
49 -1621 -1630 1612 0
49 -1621 -1631 1613 0
49 -1622 -1625 1608 0
49 -1622 -1626 1609 0
49 -1622 -1627 1610 0
49 -1622 -1628 1611 0
49 -1622 -1629 1612 0
49 -1622 -1630 1613 0
49 -1622 -1631 1614 0
49 -1623 -1625 1609 0
49 -1623 -1626 1610 0
49 -1623 -1627 1611 0
49 -1623 -1628 1612 0
49 -1623 -1629 1613 0
49 -1623 -1630 1614 0
49 -1623 -1631 1615 0
49 -1624 -1625 1610 0
49 -1624 -1626 1611 0
49 -1624 -1627 1612 0
49 -1624 -1628 1613 0
49 -1624 -1629 1614 0
49 -1624 -1630 1615 0
49 -1624 -1631 1616 0
49 -1636 1625 0
49 -1637 1626 0
49 -1638 1627 0
49 -1632 1625 0
49 -1633 1626 0
49 -1634 1627 0
49 -1635 1628 0
49 -1632 -1636 1626 0
49 -1632 -1637 1627 0
49 -1632 -1638 1628 0
49 -1633 -1636 1627 0
49 -1633 -1637 1628 0
49 -1633 -1638 1629 0
49 -1634 -1636 1628 0
49 -1634 -1637 1629 0
49 -1634 -1638 1630 0
49 -1635 -1636 1629 0
49 -1635 -1637 1630 0
49 -1635 -1638 1631 0
49 -258 1636 0
49 -1639 1636 0
49 -1640 1637 0
49 -1639 -258 1637 0
49 -1640 -258 1638 0
49 -257 1639 0
49 -256 1639 0
49 -256 -257 1640 0
49 -1643 1632 0
49 -1644 1633 0
49 -1641 1632 0
49 -1642 1633 0
49 -1641 -1643 1633 0
49 -1641 -1644 1634 0
49 -1642 -1643 1634 0
49 -1642 -1644 1635 0
49 -255 1643 0
49 -254 1643 0
49 -254 -255 1644 0
49 -253 1641 0
49 -252 1641 0
49 -252 -253 1642 0
49 -1649 1617 0
49 -1650 1618 0
49 -1651 1619 0
49 -1652 1620 0
49 -1645 1617 0
49 -1646 1618 0
49 -1647 1619 0
49 -1648 1620 0
49 -1645 -1649 1618 0
49 -1645 -1650 1619 0
49 -1645 -1651 1620 0
49 -1645 -1652 1621 0
49 -1646 -1649 1619 0
49 -1646 -1650 1620 0
49 -1646 -1651 1621 0
49 -1646 -1652 1622 0
49 -1647 -1649 1620 0
49 -1647 -1650 1621 0
49 -1647 -1651 1622 0
49 -1647 -1652 1623 0
49 -1648 -1649 1621 0
49 -1648 -1650 1622 0
49 -1648 -1651 1623 0
49 -1648 -1652 1624 0
49 -1655 1649 0
49 -1656 1650 0
49 -1653 1649 0
49 -1654 1650 0
49 -1653 -1655 1650 0
49 -1653 -1656 1651 0
49 -1654 -1655 1651 0
49 -1654 -1656 1652 0
49 -251 1655 0
49 -250 1655 0
49 -250 -251 1656 0
49 -249 1653 0
49 -248 1653 0
49 -248 -249 1654 0
49 -1659 1645 0
49 -1660 1646 0
49 -1657 1645 0
49 -1658 1646 0
49 -1657 -1659 1646 0
49 -1657 -1660 1647 0
49 -1658 -1659 1647 0
49 -1658 -1660 1648 0
49 -247 1659 0
49 -246 1659 0
49 -246 -247 1660 0
49 -245 1657 0
49 -244 1657 0
49 -244 -245 1658 0
49 -1669 1587 0
49 -1670 1588 0
49 -1671 1589 0
49 -1672 1590 0
49 -1673 1591 0
49 -1674 1592 0
49 -1675 1593 0
49 -1661 1587 0
49 -1662 1588 0
49 -1663 1589 0
49 -1664 1590 0
49 -1665 1591 0
49 -1666 1592 0
49 -1667 1593 0
49 -1668 1594 0
49 -1661 -1669 1588 0
49 -1661 -1670 1589 0
49 -1661 -1671 1590 0
49 -1661 -1672 1591 0
49 -1661 -1673 1592 0
49 -1661 -1674 1593 0
49 -1661 -1675 1594 0
49 -1662 -1669 1589 0
49 -1662 -1670 1590 0
49 -1662 -1671 1591 0
49 -1662 -1672 1592 0
49 -1662 -1673 1593 0
49 -1662 -1674 1594 0
49 -1662 -1675 1595 0
49 -1663 -1669 1590 0
49 -1663 -1670 1591 0
49 -1663 -1671 1592 0
49 -1663 -1672 1593 0
49 -1663 -1673 1594 0
49 -1663 -1674 1595 0
49 -1663 -1675 1596 0
49 -1664 -1669 1591 0
49 -1664 -1670 1592 0
49 -1664 -1671 1593 0
49 -1664 -1672 1594 0
49 -1664 -1673 1595 0
49 -1664 -1674 1596 0
49 -1664 -1675 1597 0
49 -1665 -1669 1592 0
49 -1665 -1670 1593 0
49 -1665 -1671 1594 0
49 -1665 -1672 1595 0
49 -1665 -1673 1596 0
49 -1665 -1674 1597 0
49 -1665 -1675 1598 0
49 -1666 -1669 1593 0
49 -1666 -1670 1594 0
49 -1666 -1671 1595 0
49 -1666 -1672 1596 0
49 -1666 -1673 1597 0
49 -1666 -1674 1598 0
49 -1666 -1675 1599 0
49 -1667 -1669 1594 0
49 -1667 -1670 1595 0
49 -1667 -1671 1596 0
49 -1667 -1672 1597 0
49 -1667 -1673 1598 0
49 -1667 -1674 1599 0
49 -1667 -1675 1600 0
49 -1668 -1669 1595 0
49 -1668 -1670 1596 0
49 -1668 -1671 1597 0
49 -1668 -1672 1598 0
49 -1668 -1673 1599 0
49 -1668 -1674 1600 0
49 -1668 -1675 1601 0
49 -1680 1669 0
49 -1681 1670 0
49 -1682 1671 0
49 -1676 1669 0
49 -1677 1670 0
49 -1678 1671 0
49 -1679 1672 0
49 -1676 -1680 1670 0
49 -1676 -1681 1671 0
49 -1676 -1682 1672 0
49 -1677 -1680 1671 0
49 -1677 -1681 1672 0
49 -1677 -1682 1673 0
49 -1678 -1680 1672 0
49 -1678 -1681 1673 0
49 -1678 -1682 1674 0
49 -1679 -1680 1673 0
49 -1679 -1681 1674 0
49 -1679 -1682 1675 0
49 -243 1680 0
49 -1683 1680 0
49 -1684 1681 0
49 -1683 -243 1681 0
49 -1684 -243 1682 0
49 -242 1683 0
49 -241 1683 0
49 -241 -242 1684 0
49 -1687 1676 0
49 -1688 1677 0
49 -1685 1676 0
49 -1686 1677 0
49 -1685 -1687 1677 0
49 -1685 -1688 1678 0
49 -1686 -1687 1678 0
49 -1686 -1688 1679 0
49 -240 1687 0
49 -239 1687 0
49 -239 -240 1688 0
49 -238 1685 0
49 -237 1685 0
49 -237 -238 1686 0
49 -1693 1661 0
49 -1694 1662 0
49 -1695 1663 0
49 -1696 1664 0
49 -1689 1661 0
49 -1690 1662 0
49 -1691 1663 0
49 -1692 1664 0
49 -1689 -1693 1662 0
49 -1689 -1694 1663 0
49 -1689 -1695 1664 0
49 -1689 -1696 1665 0
49 -1690 -1693 1663 0
49 -1690 -1694 1664 0
49 -1690 -1695 1665 0
49 -1690 -1696 1666 0
49 -1691 -1693 1664 0
49 -1691 -1694 1665 0
49 -1691 -1695 1666 0
49 -1691 -1696 1667 0
49 -1692 -1693 1665 0
49 -1692 -1694 1666 0
49 -1692 -1695 1667 0
49 -1692 -1696 1668 0
49 -1699 1693 0
49 -1700 1694 0
49 -1697 1693 0
49 -1698 1694 0
49 -1697 -1699 1694 0
49 -1697 -1700 1695 0
49 -1698 -1699 1695 0
49 -1698 -1700 1696 0
49 -236 1699 0
49 -235 1699 0
49 -235 -236 1700 0
49 -234 1697 0
49 -233 1697 0
49 -233 -234 1698 0
49 -1703 1689 0
49 -1704 1690 0
49 -1701 1689 0
49 -1702 1690 0
49 -1701 -1703 1690 0
49 -1701 -1704 1691 0
49 -1702 -1703 1691 0
49 -1702 -1704 1692 0
49 -232 1703 0
49 -231 1703 0
49 -231 -232 1704 0
49 -230 1701 0
49 -229 1701 0
49 -229 -230 1702 0
49 -1558 0
49 259 260 261 0
49 -261 1705 0
49 -1708 1705 0
49 -1709 1706 0
49 -1708 -261 1706 0
49 -1709 -261 1707 0
49 -260 1708 0
49 -259 1708 0
49 -259 -260 1709 0
49 -1706 0
49 262 263 264 0
49 -264 1710 0
49 -1713 1710 0
49 -1714 1711 0
49 -1713 -264 1711 0
49 -1714 -264 1712 0
49 -263 1713 0
49 -262 1713 0
49 -262 -263 1714 0
49 -1711 0
49 265 0
49 266 0
49 267 0
49 268 0
49 269 270 271 272 273 274 275 276 277 278 279 0
49 -1732 1715 0
49 -1733 1716 0
49 -1734 1717 0
49 -1735 1718 0
49 -1736 1719 0
49 -1726 1715 0
49 -1727 1716 0
49 -1728 1717 0
49 -1729 1718 0
49 -1730 1719 0
49 -1731 1720 0
49 -1726 -1732 1716 0
49 -1726 -1733 1717 0
49 -1726 -1734 1718 0
49 -1726 -1735 1719 0
49 -1726 -1736 1720 0
49 -1727 -1732 1717 0
49 -1727 -1733 1718 0
49 -1727 -1734 1719 0
49 -1727 -1735 1720 0
49 -1727 -1736 1721 0
49 -1728 -1732 1718 0
49 -1728 -1733 1719 0
49 -1728 -1734 1720 0
49 -1728 -1735 1721 0
49 -1728 -1736 1722 0
49 -1729 -1732 1719 0
49 -1729 -1733 1720 0
49 -1729 -1734 1721 0
49 -1729 -1735 1722 0
49 -1729 -1736 1723 0
49 -1730 -1732 1720 0
49 -1730 -1733 1721 0
49 -1730 -1734 1722 0
49 -1730 -1735 1723 0
49 -1730 -1736 1724 0
49 -1731 -1732 1721 0
49 -1731 -1733 1722 0
49 -1731 -1734 1723 0
49 -1731 -1735 1724 0
49 -1731 -1736 1725 0
49 -1740 1732 0
49 -1741 1733 0
49 -1737 1732 0
49 -1738 1733 0
49 -1739 1734 0
49 -1737 -1740 1733 0
49 -1737 -1741 1734 0
49 -1738 -1740 1734 0
49 -1738 -1741 1735 0
49 -1739 -1740 1735 0
49 -1739 -1741 1736 0
49 -279 1740 0
49 -278 1740 0
49 -278 -279 1741 0
49 -277 1737 0
49 -1742 1737 0
49 -1743 1738 0
49 -1742 -277 1738 0
49 -1743 -277 1739 0
49 -276 1742 0
49 -275 1742 0
49 -275 -276 1743 0
49 -1747 1726 0
49 -1748 1727 0
49 -1749 1728 0
49 -1744 1726 0
49 -1745 1727 0
49 -1746 1728 0
49 -1744 -1747 1727 0
49 -1744 -1748 1728 0
49 -1744 -1749 1729 0
49 -1745 -1747 1728 0
49 -1745 -1748 1729 0
49 -1745 -1749 1730 0
49 -1746 -1747 1729 0
49 -1746 -1748 1730 0
49 -1746 -1749 1731 0
49 -274 1747 0
49 -1750 1747 0
49 -1751 1748 0
49 -1750 -274 1748 0
49 -1751 -274 1749 0
49 -273 1750 0
49 -272 1750 0
49 -272 -273 1751 0
49 -271 1744 0
49 -1752 1744 0
49 -1753 1745 0
49 -1752 -271 1745 0
49 -1753 -271 1746 0
49 -270 1752 0
49 -269 1752 0
49 -269 -270 1753 0
49 -1716 0
49 280 281 282 283 284 285 286 287 288 289 290 0
49 -1771 1754 0
49 -1772 1755 0
49 -1773 1756 0
49 -1774 1757 0
49 -1775 1758 0
49 -1765 1754 0
49 -1766 1755 0
49 -1767 1756 0
49 -1768 1757 0
49 -1769 1758 0
49 -1770 1759 0
49 -1765 -1771 1755 0
49 -1765 -1772 1756 0
49 -1765 -1773 1757 0
49 -1765 -1774 1758 0
49 -1765 -1775 1759 0
49 -1766 -1771 1756 0
49 -1766 -1772 1757 0
49 -1766 -1773 1758 0
49 -1766 -1774 1759 0
49 -1766 -1775 1760 0
49 -1767 -1771 1757 0
49 -1767 -1772 1758 0
49 -1767 -1773 1759 0
49 -1767 -1774 1760 0
49 -1767 -1775 1761 0
49 -1768 -1771 1758 0
49 -1768 -1772 1759 0
49 -1768 -1773 1760 0
49 -1768 -1774 1761 0
49 -1768 -1775 1762 0
49 -1769 -1771 1759 0
49 -1769 -1772 1760 0
49 -1769 -1773 1761 0
49 -1769 -1774 1762 0
49 -1769 -1775 1763 0
49 -1770 -1771 1760 0
49 -1770 -1772 1761 0
49 -1770 -1773 1762 0
49 -1770 -1774 1763 0
49 -1770 -1775 1764 0
49 -1779 1771 0
49 -1780 1772 0
49 -1776 1771 0
49 -1777 1772 0
49 -1778 1773 0
49 -1776 -1779 1772 0
49 -1776 -1780 1773 0
49 -1777 -1779 1773 0
49 -1777 -1780 1774 0
49 -1778 -1779 1774 0
49 -1778 -1780 1775 0
49 -290 1779 0
49 -289 1779 0
49 -289 -290 1780 0
49 -288 1776 0
49 -1781 1776 0
49 -1782 1777 0
49 -1781 -288 1777 0
49 -1782 -288 1778 0
49 -287 1781 0
49 -286 1781 0
49 -286 -287 1782 0
49 -1786 1765 0
49 -1787 1766 0
49 -1788 1767 0
49 -1783 1765 0
49 -1784 1766 0
49 -1785 1767 0
49 -1783 -1786 1766 0
49 -1783 -1787 1767 0
49 -1783 -1788 1768 0
49 -1784 -1786 1767 0
49 -1784 -1787 1768 0
49 -1784 -1788 1769 0
49 -1785 -1786 1768 0
49 -1785 -1787 1769 0
49 -1785 -1788 1770 0
49 -285 1786 0
49 -1789 1786 0
49 -1790 1787 0
49 -1789 -285 1787 0
49 -1790 -285 1788 0
49 -284 1789 0
49 -283 1789 0
49 -283 -284 1790 0
49 -282 1783 0
49 -1791 1783 0
49 -1792 1784 0
49 -1791 -282 1784 0
49 -1792 -282 1785 0
49 -281 1791 0
49 -280 1791 0
49 -280 -281 1792 0
49 -1755 0
49 291 0
49 292 0
49 293 0
49 294 0
49 295 0
49 296 0
49 297 0
49 298 0
49 299 0
49 300 0
49 301 0
49 302 0
49 303 304 305 0
49 -305 1793 0
49 -1796 1793 0
49 -1797 1794 0
49 -1796 -305 1794 0
49 -1797 -305 1795 0
49 -304 1796 0
49 -303 1796 0
49 -303 -304 1797 0
49 -1794 0
49 306 307 308 0
49 -308 1798 0
49 -1801 1798 0
49 -1802 1799 0
49 -1801 -308 1799 0
49 -1802 -308 1800 0
49 -307 1801 0
49 -306 1801 0
49 -306 -307 1802 0
49 -1799 0
49 309 0
49 310 0
49 311 0
49 312 0
49 313 314 315 316 0
49 -1809 1803 0
49 -1810 1804 0
49 -1807 1803 0
49 -1808 1804 0
49 -1807 -1809 1804 0
49 -1807 -1810 1805 0
49 -1808 -1809 1805 0
49 -1808 -1810 1806 0
49 -316 1809 0
49 -315 1809 0
49 -315 -316 1810 0
49 -314 1807 0
49 -313 1807 0
49 -313 -314 1808 0
49 -1804 0
49 317 318 319 320 0
49 -1817 1811 0
49 -1818 1812 0
49 -1815 1811 0
49 -1816 1812 0
49 -1815 -1817 1812 0
49 -1815 -1818 1813 0
49 -1816 -1817 1813 0
49 -1816 -1818 1814 0
49 -320 1817 0
49 -319 1817 0
49 -319 -320 1818 0
49 -318 1815 0
49 -317 1815 0
49 -317 -318 1816 0
49 -1812 0
49 321 322 323 0
49 -323 1819 0
49 -1822 1819 0
49 -1823 1820 0
49 -1822 -323 1820 0
49 -1823 -323 1821 0
49 -322 1822 0
49 -321 1822 0
49 -321 -322 1823 0
49 -1820 0
49 324 325 326 0
49 -326 1824 0
49 -1827 1824 0
49 -1828 1825 0
49 -1827 -326 1825 0
49 -1828 -326 1826 0
49 -325 1827 0
49 -324 1827 0
49 -324 -325 1828 0
49 -1825 0
49 327 0
49 328 0
49 329 0
49 330 0
49 331 0
49 332 0
49 333 0
49 334 0
49 335 0
49 336 0
49 337 0
49 338 0
49 339 0
49 340 0
49 341 0
49 342 0
49 343 344 345 346 347 348 349 350 351 352 353 0
49 -1846 1829 0
49 -1847 1830 0
49 -1848 1831 0
49 -1849 1832 0
49 -1850 1833 0
49 -1840 1829 0
49 -1841 1830 0
49 -1842 1831 0
49 -1843 1832 0
49 -1844 1833 0
49 -1845 1834 0
49 -1840 -1846 1830 0
49 -1840 -1847 1831 0
49 -1840 -1848 1832 0
49 -1840 -1849 1833 0
49 -1840 -1850 1834 0
49 -1841 -1846 1831 0
49 -1841 -1847 1832 0
49 -1841 -1848 1833 0
49 -1841 -1849 1834 0
49 -1841 -1850 1835 0
49 -1842 -1846 1832 0
49 -1842 -1847 1833 0
49 -1842 -1848 1834 0
49 -1842 -1849 1835 0
49 -1842 -1850 1836 0
49 -1843 -1846 1833 0
49 -1843 -1847 1834 0
49 -1843 -1848 1835 0
49 -1843 -1849 1836 0
49 -1843 -1850 1837 0
49 -1844 -1846 1834 0
49 -1844 -1847 1835 0
49 -1844 -1848 1836 0
49 -1844 -1849 1837 0
49 -1844 -1850 1838 0
49 -1845 -1846 1835 0
49 -1845 -1847 1836 0
49 -1845 -1848 1837 0
49 -1845 -1849 1838 0
49 -1845 -1850 1839 0
49 -1854 1846 0
49 -1855 1847 0
49 -1851 1846 0
49 -1852 1847 0
49 -1853 1848 0
49 -1851 -1854 1847 0
49 -1851 -1855 1848 0
49 -1852 -1854 1848 0
49 -1852 -1855 1849 0
49 -1853 -1854 1849 0
49 -1853 -1855 1850 0
49 -353 1854 0
49 -352 1854 0
49 -352 -353 1855 0
49 -351 1851 0
49 -1856 1851 0
49 -1857 1852 0
49 -1856 -351 1852 0
49 -1857 -351 1853 0
49 -350 1856 0
49 -349 1856 0
49 -349 -350 1857 0
49 -1861 1840 0
49 -1862 1841 0
49 -1863 1842 0
49 -1858 1840 0
49 -1859 1841 0
49 -1860 1842 0
49 -1858 -1861 1841 0
49 -1858 -1862 1842 0
49 -1858 -1863 1843 0
49 -1859 -1861 1842 0
49 -1859 -1862 1843 0
49 -1859 -1863 1844 0
49 -1860 -1861 1843 0
49 -1860 -1862 1844 0
49 -1860 -1863 1845 0
49 -348 1861 0
49 -1864 1861 0
49 -1865 1862 0
49 -1864 -348 1862 0
49 -1865 -348 1863 0
49 -347 1864 0
49 -346 1864 0
49 -346 -347 1865 0
49 -345 1858 0
49 -1866 1858 0
49 -1867 1859 0
49 -1866 -345 1859 0
49 -1867 -345 1860 0
49 -344 1866 0
49 -343 1866 0
49 -343 -344 1867 0
49 -1830 0
49 354 355 356 357 358 359 360 361 362 363 364 0
49 -1885 1868 0
49 -1886 1869 0
49 -1887 1870 0
49 -1888 1871 0
49 -1889 1872 0
49 -1879 1868 0
49 -1880 1869 0
49 -1881 1870 0
49 -1882 1871 0
49 -1883 1872 0
49 -1884 1873 0
49 -1879 -1885 1869 0
49 -1879 -1886 1870 0
49 -1879 -1887 1871 0
49 -1879 -1888 1872 0
49 -1879 -1889 1873 0
49 -1880 -1885 1870 0
49 -1880 -1886 1871 0
49 -1880 -1887 1872 0
49 -1880 -1888 1873 0
49 -1880 -1889 1874 0
49 -1881 -1885 1871 0
49 -1881 -1886 1872 0
49 -1881 -1887 1873 0
49 -1881 -1888 1874 0
49 -1881 -1889 1875 0
49 -1882 -1885 1872 0
49 -1882 -1886 1873 0
49 -1882 -1887 1874 0
49 -1882 -1888 1875 0
49 -1882 -1889 1876 0
49 -1883 -1885 1873 0
49 -1883 -1886 1874 0
49 -1883 -1887 1875 0
49 -1883 -1888 1876 0
49 -1883 -1889 1877 0
49 -1884 -1885 1874 0
49 -1884 -1886 1875 0
49 -1884 -1887 1876 0
49 -1884 -1888 1877 0
49 -1884 -1889 1878 0
49 -1893 1885 0
49 -1894 1886 0
49 -1890 1885 0
49 -1891 1886 0
49 -1892 1887 0
49 -1890 -1893 1886 0
49 -1890 -1894 1887 0
49 -1891 -1893 1887 0
49 -1891 -1894 1888 0
49 -1892 -1893 1888 0
49 -1892 -1894 1889 0
49 -364 1893 0
49 -363 1893 0
49 -363 -364 1894 0
49 -362 1890 0
49 -1895 1890 0
49 -1896 1891 0
49 -1895 -362 1891 0
49 -1896 -362 1892 0
49 -361 1895 0
49 -360 1895 0
49 -360 -361 1896 0
49 -1900 1879 0
49 -1901 1880 0
49 -1902 1881 0
49 -1897 1879 0
49 -1898 1880 0
49 -1899 1881 0
49 -1897 -1900 1880 0
49 -1897 -1901 1881 0
49 -1897 -1902 1882 0
49 -1898 -1900 1881 0
49 -1898 -1901 1882 0
49 -1898 -1902 1883 0
49 -1899 -1900 1882 0
49 -1899 -1901 1883 0
49 -1899 -1902 1884 0
49 -359 1900 0
49 -1903 1900 0
49 -1904 1901 0
49 -1903 -359 1901 0
49 -1904 -359 1902 0
49 -358 1903 0
49 -357 1903 0
49 -357 -358 1904 0
49 -356 1897 0
49 -1905 1897 0
49 -1906 1898 0
49 -1905 -356 1898 0
49 -1906 -356 1899 0
49 -355 1905 0
49 -354 1905 0
49 -354 -355 1906 0
49 -1869 0
49 365 0
49 366 0
49 367 0
49 368 0
49 369 0
49 370 0
49 371 372 373 374 375 376 377 378 379 380 381 0
49 -1924 1907 0
49 -1925 1908 0
49 -1926 1909 0
49 -1927 1910 0
49 -1928 1911 0
49 -1918 1907 0
49 -1919 1908 0
49 -1920 1909 0
49 -1921 1910 0
49 -1922 1911 0
49 -1923 1912 0
49 -1918 -1924 1908 0
49 -1918 -1925 1909 0
49 -1918 -1926 1910 0
49 -1918 -1927 1911 0
49 -1918 -1928 1912 0
49 -1919 -1924 1909 0
49 -1919 -1925 1910 0
49 -1919 -1926 1911 0
49 -1919 -1927 1912 0
49 -1919 -1928 1913 0
49 -1920 -1924 1910 0
49 -1920 -1925 1911 0
49 -1920 -1926 1912 0
49 -1920 -1927 1913 0
49 -1920 -1928 1914 0
49 -1921 -1924 1911 0
49 -1921 -1925 1912 0
49 -1921 -1926 1913 0
49 -1921 -1927 1914 0
49 -1921 -1928 1915 0
49 -1922 -1924 1912 0
49 -1922 -1925 1913 0
49 -1922 -1926 1914 0
49 -1922 -1927 1915 0
49 -1922 -1928 1916 0
49 -1923 -1924 1913 0
49 -1923 -1925 1914 0
49 -1923 -1926 1915 0
49 -1923 -1927 1916 0
49 -1923 -1928 1917 0
49 -1932 1924 0
49 -1933 1925 0
49 -1929 1924 0
49 -1930 1925 0
49 -1931 1926 0
49 -1929 -1932 1925 0
49 -1929 -1933 1926 0
49 -1930 -1932 1926 0
49 -1930 -1933 1927 0
49 -1931 -1932 1927 0
49 -1931 -1933 1928 0
49 -381 1932 0
49 -380 1932 0
49 -380 -381 1933 0
49 -379 1929 0
49 -1934 1929 0
49 -1935 1930 0
49 -1934 -379 1930 0
49 -1935 -379 1931 0
49 -378 1934 0
49 -377 1934 0
49 -377 -378 1935 0
49 -1939 1918 0
49 -1940 1919 0
49 -1941 1920 0
49 -1936 1918 0
49 -1937 1919 0
49 -1938 1920 0
49 -1936 -1939 1919 0
49 -1936 -1940 1920 0
49 -1936 -1941 1921 0
49 -1937 -1939 1920 0
49 -1937 -1940 1921 0
49 -1937 -1941 1922 0
49 -1938 -1939 1921 0
49 -1938 -1940 1922 0
49 -1938 -1941 1923 0
49 -376 1939 0
49 -1942 1939 0
49 -1943 1940 0
49 -1942 -376 1940 0
49 -1943 -376 1941 0
49 -375 1942 0
49 -374 1942 0
49 -374 -375 1943 0
49 -373 1936 0
49 -1944 1936 0
49 -1945 1937 0
49 -1944 -373 1937 0
49 -1945 -373 1938 0
49 -372 1944 0
49 -371 1944 0
49 -371 -372 1945 0
49 -1908 0
49 382 383 384 385 386 387 388 389 390 391 392 0
49 -1963 1946 0
49 -1964 1947 0
49 -1965 1948 0
49 -1966 1949 0
49 -1967 1950 0
49 -1957 1946 0
49 -1958 1947 0
49 -1959 1948 0
49 -1960 1949 0
49 -1961 1950 0
49 -1962 1951 0
49 -1957 -1963 1947 0
49 -1957 -1964 1948 0
49 -1957 -1965 1949 0
49 -1957 -1966 1950 0
49 -1957 -1967 1951 0
49 -1958 -1963 1948 0
49 -1958 -1964 1949 0
49 -1958 -1965 1950 0
49 -1958 -1966 1951 0
49 -1958 -1967 1952 0
49 -1959 -1963 1949 0
49 -1959 -1964 1950 0
49 -1959 -1965 1951 0
49 -1959 -1966 1952 0
49 -1959 -1967 1953 0
49 -1960 -1963 1950 0
49 -1960 -1964 1951 0
49 -1960 -1965 1952 0
49 -1960 -1966 1953 0
49 -1960 -1967 1954 0
49 -1961 -1963 1951 0
49 -1961 -1964 1952 0
49 -1961 -1965 1953 0
49 -1961 -1966 1954 0
49 -1961 -1967 1955 0
49 -1962 -1963 1952 0
49 -1962 -1964 1953 0
49 -1962 -1965 1954 0
49 -1962 -1966 1955 0
49 -1962 -1967 1956 0
49 -1971 1963 0
49 -1972 1964 0
49 -1968 1963 0
49 -1969 1964 0
49 -1970 1965 0
49 -1968 -1971 1964 0
49 -1968 -1972 1965 0
49 -1969 -1971 1965 0
49 -1969 -1972 1966 0
49 -1970 -1971 1966 0
49 -1970 -1972 1967 0
49 -392 1971 0
49 -391 1971 0
49 -391 -392 1972 0
49 -390 1968 0
49 -1973 1968 0
49 -1974 1969 0
49 -1973 -390 1969 0
49 -1974 -390 1970 0
49 -389 1973 0
49 -388 1973 0
49 -388 -389 1974 0
49 -1978 1957 0
49 -1979 1958 0
49 -1980 1959 0
49 -1975 1957 0
49 -1976 1958 0
49 -1977 1959 0
49 -1975 -1978 1958 0
49 -1975 -1979 1959 0
49 -1975 -1980 1960 0
49 -1976 -1978 1959 0
49 -1976 -1979 1960 0
49 -1976 -1980 1961 0
49 -1977 -1978 1960 0
49 -1977 -1979 1961 0
49 -1977 -1980 1962 0
49 -387 1978 0
49 -1981 1978 0
49 -1982 1979 0
49 -1981 -387 1979 0
49 -1982 -387 1980 0
49 -386 1981 0
49 -385 1981 0
49 -385 -386 1982 0
49 -384 1975 0
49 -1983 1975 0
49 -1984 1976 0
49 -1983 -384 1976 0
49 -1984 -384 1977 0
49 -383 1983 0
49 -382 1983 0
49 -382 -383 1984 0
49 -1947 0
49 393 0
49 394 0
49 395 0
49 396 0
49 397 398 399 0
49 -399 1985 0
49 -1988 1985 0
49 -1989 1986 0
49 -1988 -399 1986 0
49 -1989 -399 1987 0
49 -398 1988 0
49 -397 1988 0
49 -397 -398 1989 0
49 -1986 0
49 400 401 402 0
49 -402 1990 0
49 -1993 1990 0
49 -1994 1991 0
49 -1993 -402 1991 0
49 -1994 -402 1992 0
49 -401 1993 0
49 -400 1993 0
49 -400 -401 1994 0
49 -1991 0
49 403 0
49 404 0
49 405 0
49 406 0
49 407 408 0
49 -407 -408 0
49 409 410 0
49 -409 -410 0
49 411 0
49 412 0
49 413 0
49 414 0
49 415 0
49 416 0
49 417 0
49 418 0
49 419 0
49 420 0
49 421 0
49 422 0
49 423 0
49 424 0
49 425 0
49 426 0
49 427 0
49 428 0
49 429 0
49 430 0
49 431 432 433 434 435 436 437 438 439 440 441 0
49 -2012 1995 0
49 -2013 1996 0
49 -2014 1997 0
49 -2015 1998 0
49 -2016 1999 0
49 -2006 1995 0
49 -2007 1996 0
49 -2008 1997 0
49 -2009 1998 0
49 -2010 1999 0
49 -2011 2000 0
49 -2006 -2012 1996 0
49 -2006 -2013 1997 0
49 -2006 -2014 1998 0
49 -2006 -2015 1999 0
49 -2006 -2016 2000 0
49 -2007 -2012 1997 0
49 -2007 -2013 1998 0
49 -2007 -2014 1999 0
49 -2007 -2015 2000 0
49 -2007 -2016 2001 0
49 -2008 -2012 1998 0
49 -2008 -2013 1999 0
49 -2008 -2014 2000 0
49 -2008 -2015 2001 0
49 -2008 -2016 2002 0
49 -2009 -2012 1999 0
49 -2009 -2013 2000 0
49 -2009 -2014 2001 0
49 -2009 -2015 2002 0
49 -2009 -2016 2003 0
49 -2010 -2012 2000 0
49 -2010 -2013 2001 0
49 -2010 -2014 2002 0
49 -2010 -2015 2003 0
49 -2010 -2016 2004 0
49 -2011 -2012 2001 0
49 -2011 -2013 2002 0
49 -2011 -2014 2003 0
49 -2011 -2015 2004 0
49 -2011 -2016 2005 0
49 -2020 2012 0
49 -2021 2013 0
49 -2017 2012 0
49 -2018 2013 0
49 -2019 2014 0
49 -2017 -2020 2013 0
49 -2017 -2021 2014 0
49 -2018 -2020 2014 0
49 -2018 -2021 2015 0
49 -2019 -2020 2015 0
49 -2019 -2021 2016 0
49 -441 2020 0
49 -440 2020 0
49 -440 -441 2021 0
49 -439 2017 0
49 -2022 2017 0
49 -2023 2018 0
49 -2022 -439 2018 0
49 -2023 -439 2019 0
49 -438 2022 0
49 -437 2022 0
49 -437 -438 2023 0
49 -2027 2006 0
49 -2028 2007 0
49 -2029 2008 0
49 -2024 2006 0
49 -2025 2007 0
49 -2026 2008 0
49 -2024 -2027 2007 0
49 -2024 -2028 2008 0
49 -2024 -2029 2009 0
49 -2025 -2027 2008 0
49 -2025 -2028 2009 0
49 -2025 -2029 2010 0
49 -2026 -2027 2009 0
49 -2026 -2028 2010 0
49 -2026 -2029 2011 0
49 -436 2027 0
49 -2030 2027 0
49 -2031 2028 0
49 -2030 -436 2028 0
49 -2031 -436 2029 0
49 -435 2030 0
49 -434 2030 0
49 -434 -435 2031 0
49 -433 2024 0
49 -2032 2024 0
49 -2033 2025 0
49 -2032 -433 2025 0
49 -2033 -433 2026 0
49 -432 2032 0
49 -431 2032 0
49 -431 -432 2033 0
49 -1996 0
49 442 443 444 445 446 447 448 449 450 451 452 0
49 -2051 2034 0
49 -2052 2035 0
49 -2053 2036 0
49 -2054 2037 0
49 -2055 2038 0
49 -2045 2034 0
49 -2046 2035 0
49 -2047 2036 0
49 -2048 2037 0
49 -2049 2038 0
49 -2050 2039 0
49 -2045 -2051 2035 0
49 -2045 -2052 2036 0
49 -2045 -2053 2037 0
49 -2045 -2054 2038 0
49 -2045 -2055 2039 0
49 -2046 -2051 2036 0
49 -2046 -2052 2037 0
49 -2046 -2053 2038 0
49 -2046 -2054 2039 0
49 -2046 -2055 2040 0
49 -2047 -2051 2037 0
49 -2047 -2052 2038 0
49 -2047 -2053 2039 0
49 -2047 -2054 2040 0
49 -2047 -2055 2041 0
49 -2048 -2051 2038 0
49 -2048 -2052 2039 0
49 -2048 -2053 2040 0
49 -2048 -2054 2041 0
49 -2048 -2055 2042 0
49 -2049 -2051 2039 0
49 -2049 -2052 2040 0
49 -2049 -2053 2041 0
49 -2049 -2054 2042 0
49 -2049 -2055 2043 0
49 -2050 -2051 2040 0
49 -2050 -2052 2041 0
49 -2050 -2053 2042 0
49 -2050 -2054 2043 0
49 -2050 -2055 2044 0
49 -2059 2051 0
49 -2060 2052 0
49 -2056 2051 0
49 -2057 2052 0
49 -2058 2053 0
49 -2056 -2059 2052 0
49 -2056 -2060 2053 0
49 -2057 -2059 2053 0
49 -2057 -2060 2054 0
49 -2058 -2059 2054 0
49 -2058 -2060 2055 0
49 -452 2059 0
49 -451 2059 0
49 -451 -452 2060 0
49 -450 2056 0
49 -2061 2056 0
49 -2062 2057 0
49 -2061 -450 2057 0
49 -2062 -450 2058 0
49 -449 2061 0
49 -448 2061 0
49 -448 -449 2062 0
49 -2066 2045 0
49 -2067 2046 0
49 -2068 2047 0
49 -2063 2045 0
49 -2064 2046 0
49 -2065 2047 0
49 -2063 -2066 2046 0
49 -2063 -2067 2047 0
49 -2063 -2068 2048 0
49 -2064 -2066 2047 0
49 -2064 -2067 2048 0
49 -2064 -2068 2049 0
49 -2065 -2066 2048 0
49 -2065 -2067 2049 0
49 -2065 -2068 2050 0
49 -447 2066 0
49 -2069 2066 0
49 -2070 2067 0
49 -2069 -447 2067 0
49 -2070 -447 2068 0
49 -446 2069 0
49 -445 2069 0
49 -445 -446 2070 0
49 -444 2063 0
49 -2071 2063 0
49 -2072 2064 0
49 -2071 -444 2064 0
49 -2072 -444 2065 0
49 -443 2071 0
49 -442 2071 0
49 -442 -443 2072 0
49 -2035 0
49 453 454 455 456 457 458 459 460 461 462 463 0
49 -2090 2073 0
49 -2091 2074 0
49 -2092 2075 0
49 -2093 2076 0
49 -2094 2077 0
49 -2084 2073 0
49 -2085 2074 0
49 -2086 2075 0
49 -2087 2076 0
49 -2088 2077 0
49 -2089 2078 0
49 -2084 -2090 2074 0
49 -2084 -2091 2075 0
49 -2084 -2092 2076 0
49 -2084 -2093 2077 0
49 -2084 -2094 2078 0
49 -2085 -2090 2075 0
49 -2085 -2091 2076 0
49 -2085 -2092 2077 0
49 -2085 -2093 2078 0
49 -2085 -2094 2079 0
49 -2086 -2090 2076 0
49 -2086 -2091 2077 0
49 -2086 -2092 2078 0
49 -2086 -2093 2079 0
49 -2086 -2094 2080 0
49 -2087 -2090 2077 0
49 -2087 -2091 2078 0
49 -2087 -2092 2079 0
49 -2087 -2093 2080 0
49 -2087 -2094 2081 0
49 -2088 -2090 2078 0
49 -2088 -2091 2079 0
49 -2088 -2092 2080 0
49 -2088 -2093 2081 0
49 -2088 -2094 2082 0
49 -2089 -2090 2079 0
49 -2089 -2091 2080 0
49 -2089 -2092 2081 0
49 -2089 -2093 2082 0
49 -2089 -2094 2083 0
49 -2098 2090 0
49 -2099 2091 0
49 -2095 2090 0
49 -2096 2091 0
49 -2097 2092 0
49 -2095 -2098 2091 0
49 -2095 -2099 2092 0
49 -2096 -2098 2092 0
49 -2096 -2099 2093 0
49 -2097 -2098 2093 0
49 -2097 -2099 2094 0
49 -463 2098 0
49 -462 2098 0
49 -462 -463 2099 0
49 -461 2095 0
49 -2100 2095 0
49 -2101 2096 0
49 -2100 -461 2096 0
49 -2101 -461 2097 0
49 -460 2100 0
49 -459 2100 0
49 -459 -460 2101 0
49 -2105 2084 0
49 -2106 2085 0
49 -2107 2086 0
49 -2102 2084 0
49 -2103 2085 0
49 -2104 2086 0
49 -2102 -2105 2085 0
49 -2102 -2106 2086 0
49 -2102 -2107 2087 0
49 -2103 -2105 2086 0
49 -2103 -2106 2087 0
49 -2103 -2107 2088 0
49 -2104 -2105 2087 0
49 -2104 -2106 2088 0
49 -2104 -2107 2089 0
49 -458 2105 0
49 -2108 2105 0
49 -2109 2106 0
49 -2108 -458 2106 0
49 -2109 -458 2107 0
49 -457 2108 0
49 -456 2108 0
49 -456 -457 2109 0
49 -455 2102 0
49 -2110 2102 0
49 -2111 2103 0
49 -2110 -455 2103 0
49 -2111 -455 2104 0
49 -454 2110 0
49 -453 2110 0
49 -453 -454 2111 0
49 -2074 0
49 464 465 466 467 468 469 470 471 472 473 474 0
49 -2129 2112 0
49 -2130 2113 0
49 -2131 2114 0
49 -2132 2115 0
49 -2133 2116 0
49 -2123 2112 0
49 -2124 2113 0
49 -2125 2114 0
49 -2126 2115 0
49 -2127 2116 0
49 -2128 2117 0
49 -2123 -2129 2113 0
49 -2123 -2130 2114 0
49 -2123 -2131 2115 0
49 -2123 -2132 2116 0
49 -2123 -2133 2117 0
49 -2124 -2129 2114 0
49 -2124 -2130 2115 0
49 -2124 -2131 2116 0
49 -2124 -2132 2117 0
49 -2124 -2133 2118 0
49 -2125 -2129 2115 0
49 -2125 -2130 2116 0
49 -2125 -2131 2117 0
49 -2125 -2132 2118 0
49 -2125 -2133 2119 0
49 -2126 -2129 2116 0
49 -2126 -2130 2117 0
49 -2126 -2131 2118 0
49 -2126 -2132 2119 0
49 -2126 -2133 2120 0
49 -2127 -2129 2117 0
49 -2127 -2130 2118 0
49 -2127 -2131 2119 0
49 -2127 -2132 2120 0
49 -2127 -2133 2121 0
49 -2128 -2129 2118 0
49 -2128 -2130 2119 0
49 -2128 -2131 2120 0
49 -2128 -2132 2121 0
49 -2128 -2133 2122 0
49 -2137 2129 0
49 -2138 2130 0
49 -2134 2129 0
49 -2135 2130 0
49 -2136 2131 0
49 -2134 -2137 2130 0
49 -2134 -2138 2131 0
49 -2135 -2137 2131 0
49 -2135 -2138 2132 0
49 -2136 -2137 2132 0
49 -2136 -2138 2133 0
49 -474 2137 0
49 -473 2137 0
49 -473 -474 2138 0
49 -472 2134 0
49 -2139 2134 0
49 -2140 2135 0
49 -2139 -472 2135 0
49 -2140 -472 2136 0
49 -471 2139 0
49 -470 2139 0
49 -470 -471 2140 0
49 -2144 2123 0
49 -2145 2124 0
49 -2146 2125 0
49 -2141 2123 0
49 -2142 2124 0
49 -2143 2125 0
49 -2141 -2144 2124 0
49 -2141 -2145 2125 0
49 -2141 -2146 2126 0
49 -2142 -2144 2125 0
49 -2142 -2145 2126 0
49 -2142 -2146 2127 0
49 -2143 -2144 2126 0
49 -2143 -2145 2127 0
49 -2143 -2146 2128 0
49 -469 2144 0
49 -2147 2144 0
49 -2148 2145 0
49 -2147 -469 2145 0
49 -2148 -469 2146 0
49 -468 2147 0
49 -467 2147 0
49 -467 -468 2148 0
49 -466 2141 0
49 -2149 2141 0
49 -2150 2142 0
49 -2149 -466 2142 0
49 -2150 -466 2143 0
49 -465 2149 0
49 -464 2149 0
49 -464 -465 2150 0
49 -2113 0
49 475 0
49 476 0
49 477 0
49 478 0
49 479 0
49 480 0
49 481 0
49 482 0
49 483 484 485 486 487 488 489 490 491 492 493 0
49 -2168 2151 0
49 -2169 2152 0
49 -2170 2153 0
49 -2171 2154 0
49 -2172 2155 0
49 -2162 2151 0
49 -2163 2152 0
49 -2164 2153 0
49 -2165 2154 0
49 -2166 2155 0
49 -2167 2156 0
49 -2162 -2168 2152 0
49 -2162 -2169 2153 0
49 -2162 -2170 2154 0
49 -2162 -2171 2155 0
49 -2162 -2172 2156 0
49 -2163 -2168 2153 0
49 -2163 -2169 2154 0
49 -2163 -2170 2155 0
49 -2163 -2171 2156 0
49 -2163 -2172 2157 0
49 -2164 -2168 2154 0
49 -2164 -2169 2155 0
49 -2164 -2170 2156 0
49 -2164 -2171 2157 0
49 -2164 -2172 2158 0
49 -2165 -2168 2155 0
49 -2165 -2169 2156 0
49 -2165 -2170 2157 0
49 -2165 -2171 2158 0
49 -2165 -2172 2159 0
49 -2166 -2168 2156 0
49 -2166 -2169 2157 0
49 -2166 -2170 2158 0
49 -2166 -2171 2159 0
49 -2166 -2172 2160 0
49 -2167 -2168 2157 0
49 -2167 -2169 2158 0
49 -2167 -2170 2159 0
49 -2167 -2171 2160 0
49 -2167 -2172 2161 0
49 -2176 2168 0
49 -2177 2169 0
49 -2173 2168 0
49 -2174 2169 0
49 -2175 2170 0
49 -2173 -2176 2169 0
49 -2173 -2177 2170 0
49 -2174 -2176 2170 0
49 -2174 -2177 2171 0
49 -2175 -2176 2171 0
49 -2175 -2177 2172 0
49 -493 2176 0
49 -492 2176 0
49 -492 -493 2177 0
49 -491 2173 0
49 -2178 2173 0
49 -2179 2174 0
49 -2178 -491 2174 0
49 -2179 -491 2175 0
49 -490 2178 0
49 -489 2178 0
49 -489 -490 2179 0
49 -2183 2162 0
49 -2184 2163 0
49 -2185 2164 0
49 -2180 2162 0
49 -2181 2163 0
49 -2182 2164 0
49 -2180 -2183 2163 0
49 -2180 -2184 2164 0
49 -2180 -2185 2165 0
49 -2181 -2183 2164 0
49 -2181 -2184 2165 0
49 -2181 -2185 2166 0
49 -2182 -2183 2165 0
49 -2182 -2184 2166 0
49 -2182 -2185 2167 0
49 -488 2183 0
49 -2186 2183 0
49 -2187 2184 0
49 -2186 -488 2184 0
49 -2187 -488 2185 0
49 -487 2186 0
49 -486 2186 0
49 -486 -487 2187 0
49 -485 2180 0
49 -2188 2180 0
49 -2189 2181 0
49 -2188 -485 2181 0
49 -2189 -485 2182 0
49 -484 2188 0
49 -483 2188 0
49 -483 -484 2189 0
49 -2152 0
49 494 495 496 497 498 499 500 501 502 503 504 0
49 -2207 2190 0
49 -2208 2191 0
49 -2209 2192 0
49 -2210 2193 0
49 -2211 2194 0
49 -2201 2190 0
49 -2202 2191 0
49 -2203 2192 0
49 -2204 2193 0
49 -2205 2194 0
49 -2206 2195 0
49 -2201 -2207 2191 0
49 -2201 -2208 2192 0
49 -2201 -2209 2193 0
49 -2201 -2210 2194 0
49 -2201 -2211 2195 0
49 -2202 -2207 2192 0
49 -2202 -2208 2193 0
49 -2202 -2209 2194 0
49 -2202 -2210 2195 0
49 -2202 -2211 2196 0
49 -2203 -2207 2193 0
49 -2203 -2208 2194 0
49 -2203 -2209 2195 0
49 -2203 -2210 2196 0
49 -2203 -2211 2197 0
49 -2204 -2207 2194 0
49 -2204 -2208 2195 0
49 -2204 -2209 2196 0
49 -2204 -2210 2197 0
49 -2204 -2211 2198 0
49 -2205 -2207 2195 0
49 -2205 -2208 2196 0
49 -2205 -2209 2197 0
49 -2205 -2210 2198 0
49 -2205 -2211 2199 0
49 -2206 -2207 2196 0
49 -2206 -2208 2197 0
49 -2206 -2209 2198 0
49 -2206 -2210 2199 0
49 -2206 -2211 2200 0
49 -2215 2207 0
49 -2216 2208 0
49 -2212 2207 0
49 -2213 2208 0
49 -2214 2209 0
49 -2212 -2215 2208 0
49 -2212 -2216 2209 0
49 -2213 -2215 2209 0
49 -2213 -2216 2210 0
49 -2214 -2215 2210 0
49 -2214 -2216 2211 0
49 -504 2215 0
49 -503 2215 0
49 -503 -504 2216 0
49 -502 2212 0
49 -2217 2212 0
49 -2218 2213 0
49 -2217 -502 2213 0
49 -2218 -502 2214 0
49 -501 2217 0
49 -500 2217 0
49 -500 -501 2218 0
49 -2222 2201 0
49 -2223 2202 0
49 -2224 2203 0
49 -2219 2201 0
49 -2220 2202 0
49 -2221 2203 0
49 -2219 -2222 2202 0
49 -2219 -2223 2203 0
49 -2219 -2224 2204 0
49 -2220 -2222 2203 0
49 -2220 -2223 2204 0
49 -2220 -2224 2205 0
49 -2221 -2222 2204 0
49 -2221 -2223 2205 0
49 -2221 -2224 2206 0
49 -499 2222 0
49 -2225 2222 0
49 -2226 2223 0
49 -2225 -499 2223 0
49 -2226 -499 2224 0
49 -498 2225 0
49 -497 2225 0
49 -497 -498 2226 0
49 -496 2219 0
49 -2227 2219 0
49 -2228 2220 0
49 -2227 -496 2220 0
49 -2228 -496 2221 0
49 -495 2227 0
49 -494 2227 0
49 -494 -495 2228 0
49 -2191 0
49 505 0
49 506 0
49 507 0
49 508 0
49 509 0
49 510 0
49 511 512 0
49 -511 -512 0
49 513 514 0
49 -513 -514 0
49 515 516 517 518 519 0
49 -2237 2229 0
49 -2238 2230 0
49 -2234 2229 0
49 -2235 2230 0
49 -2236 2231 0
49 -2234 -2237 2230 0
49 -2234 -2238 2231 0
49 -2235 -2237 2231 0
49 -2235 -2238 2232 0
49 -2236 -2237 2232 0
49 -2236 -2238 2233 0
49 -519 2237 0
49 -518 2237 0
49 -518 -519 2238 0
49 -517 2234 0
49 -2239 2234 0
49 -2240 2235 0
49 -2239 -517 2235 0
49 -2240 -517 2236 0
49 -516 2239 0
49 -515 2239 0
49 -515 -516 2240 0
49 -2230 0
49 520 521 522 523 524 0
49 -2249 2241 0
49 -2250 2242 0
49 -2246 2241 0
49 -2247 2242 0
49 -2248 2243 0
49 -2246 -2249 2242 0
49 -2246 -2250 2243 0
49 -2247 -2249 2243 0
49 -2247 -2250 2244 0
49 -2248 -2249 2244 0
49 -2248 -2250 2245 0
49 -524 2249 0
49 -523 2249 0
49 -523 -524 2250 0
49 -522 2246 0
49 -2251 2246 0
49 -2252 2247 0
49 -2251 -522 2247 0
49 -2252 -522 2248 0
49 -521 2251 0
49 -520 2251 0
49 -520 -521 2252 0
49 -2242 0
49 525 0
49 526 0
49 527 0
49 528 0
49 529 530 531 532 0
49 -2259 2253 0
49 -2260 2254 0
49 -2257 2253 0
49 -2258 2254 0
49 -2257 -2259 2254 0
49 -2257 -2260 2255 0
49 -2258 -2259 2255 0
49 -2258 -2260 2256 0
49 -532 2259 0
49 -531 2259 0
49 -531 -532 2260 0
49 -530 2257 0
49 -529 2257 0
49 -529 -530 2258 0
49 -2254 0
49 533 534 535 536 0
49 -2267 2261 0
49 -2268 2262 0
49 -2265 2261 0
49 -2266 2262 0
49 -2265 -2267 2262 0
49 -2265 -2268 2263 0
49 -2266 -2267 2263 0
49 -2266 -2268 2264 0
49 -536 2267 0
49 -535 2267 0
49 -535 -536 2268 0
49 -534 2265 0
49 -533 2265 0
49 -533 -534 2266 0
49 -2262 0
49 537 0
49 538 0
49 539 0
49 540 0
49 541 542 543 544 545 546 547 548 549 550 551 0
49 -2286 2269 0
49 -2287 2270 0
49 -2288 2271 0
49 -2289 2272 0
49 -2290 2273 0
49 -2280 2269 0
49 -2281 2270 0
49 -2282 2271 0
49 -2283 2272 0
49 -2284 2273 0
49 -2285 2274 0
49 -2280 -2286 2270 0
49 -2280 -2287 2271 0
49 -2280 -2288 2272 0
49 -2280 -2289 2273 0
49 -2280 -2290 2274 0
49 -2281 -2286 2271 0
49 -2281 -2287 2272 0
49 -2281 -2288 2273 0
49 -2281 -2289 2274 0
49 -2281 -2290 2275 0
49 -2282 -2286 2272 0
49 -2282 -2287 2273 0
49 -2282 -2288 2274 0
49 -2282 -2289 2275 0
49 -2282 -2290 2276 0
49 -2283 -2286 2273 0
49 -2283 -2287 2274 0
49 -2283 -2288 2275 0
49 -2283 -2289 2276 0
49 -2283 -2290 2277 0
49 -2284 -2286 2274 0
49 -2284 -2287 2275 0
49 -2284 -2288 2276 0
49 -2284 -2289 2277 0
49 -2284 -2290 2278 0
49 -2285 -2286 2275 0
49 -2285 -2287 2276 0
49 -2285 -2288 2277 0
49 -2285 -2289 2278 0
49 -2285 -2290 2279 0
49 -2294 2286 0
49 -2295 2287 0
49 -2291 2286 0
49 -2292 2287 0
49 -2293 2288 0
49 -2291 -2294 2287 0
49 -2291 -2295 2288 0
49 -2292 -2294 2288 0
49 -2292 -2295 2289 0
49 -2293 -2294 2289 0
49 -2293 -2295 2290 0
49 -551 2294 0
49 -550 2294 0
49 -550 -551 2295 0
49 -549 2291 0
49 -2296 2291 0
49 -2297 2292 0
49 -2296 -549 2292 0
49 -2297 -549 2293 0
49 -548 2296 0
49 -547 2296 0
49 -547 -548 2297 0
49 -2301 2280 0
49 -2302 2281 0
49 -2303 2282 0
49 -2298 2280 0
49 -2299 2281 0
49 -2300 2282 0
49 -2298 -2301 2281 0
49 -2298 -2302 2282 0
49 -2298 -2303 2283 0
49 -2299 -2301 2282 0
49 -2299 -2302 2283 0
49 -2299 -2303 2284 0
49 -2300 -2301 2283 0
49 -2300 -2302 2284 0
49 -2300 -2303 2285 0
49 -546 2301 0
49 -2304 2301 0
49 -2305 2302 0
49 -2304 -546 2302 0
49 -2305 -546 2303 0
49 -545 2304 0
49 -544 2304 0
49 -544 -545 2305 0
49 -543 2298 0
49 -2306 2298 0
49 -2307 2299 0
49 -2306 -543 2299 0
49 -2307 -543 2300 0
49 -542 2306 0
49 -541 2306 0
49 -541 -542 2307 0
49 -2270 0
49 552 553 554 555 556 557 558 559 560 561 562 0
49 -2325 2308 0
49 -2326 2309 0
49 -2327 2310 0
49 -2328 2311 0
49 -2329 2312 0
49 -2319 2308 0
49 -2320 2309 0
49 -2321 2310 0
49 -2322 2311 0
49 -2323 2312 0
49 -2324 2313 0
49 -2319 -2325 2309 0
49 -2319 -2326 2310 0
49 -2319 -2327 2311 0
49 -2319 -2328 2312 0
49 -2319 -2329 2313 0
49 -2320 -2325 2310 0
49 -2320 -2326 2311 0
49 -2320 -2327 2312 0
49 -2320 -2328 2313 0
49 -2320 -2329 2314 0
49 -2321 -2325 2311 0
49 -2321 -2326 2312 0
49 -2321 -2327 2313 0
49 -2321 -2328 2314 0
49 -2321 -2329 2315 0
49 -2322 -2325 2312 0
49 -2322 -2326 2313 0
49 -2322 -2327 2314 0
49 -2322 -2328 2315 0
49 -2322 -2329 2316 0
49 -2323 -2325 2313 0
49 -2323 -2326 2314 0
49 -2323 -2327 2315 0
49 -2323 -2328 2316 0
49 -2323 -2329 2317 0
49 -2324 -2325 2314 0
49 -2324 -2326 2315 0
49 -2324 -2327 2316 0
49 -2324 -2328 2317 0
49 -2324 -2329 2318 0
49 -2333 2325 0
49 -2334 2326 0
49 -2330 2325 0
49 -2331 2326 0
49 -2332 2327 0
49 -2330 -2333 2326 0
49 -2330 -2334 2327 0
49 -2331 -2333 2327 0
49 -2331 -2334 2328 0
49 -2332 -2333 2328 0
49 -2332 -2334 2329 0
49 -562 2333 0
49 -561 2333 0
49 -561 -562 2334 0
49 -560 2330 0
49 -2335 2330 0
49 -2336 2331 0
49 -2335 -560 2331 0
49 -2336 -560 2332 0
49 -559 2335 0
49 -558 2335 0
49 -558 -559 2336 0
49 -2340 2319 0
49 -2341 2320 0
49 -2342 2321 0
49 -2337 2319 0
49 -2338 2320 0
49 -2339 2321 0
49 -2337 -2340 2320 0
49 -2337 -2341 2321 0
49 -2337 -2342 2322 0
49 -2338 -2340 2321 0
49 -2338 -2341 2322 0
49 -2338 -2342 2323 0
49 -2339 -2340 2322 0
49 -2339 -2341 2323 0
49 -2339 -2342 2324 0
49 -557 2340 0
49 -2343 2340 0
49 -2344 2341 0
49 -2343 -557 2341 0
49 -2344 -557 2342 0
49 -556 2343 0
49 -555 2343 0
49 -555 -556 2344 0
49 -554 2337 0
49 -2345 2337 0
49 -2346 2338 0
49 -2345 -554 2338 0
49 -2346 -554 2339 0
49 -553 2345 0
49 -552 2345 0
49 -552 -553 2346 0
49 -2309 0
49 563 564 565 0
49 -565 2347 0
49 -2350 2347 0
49 -2351 2348 0
49 -2350 -565 2348 0
49 -2351 -565 2349 0
49 -564 2350 0
49 -563 2350 0
49 -563 -564 2351 0
49 -2348 0
49 566 567 568 0
49 -568 2352 0
49 -2355 2352 0
49 -2356 2353 0
49 -2355 -568 2353 0
49 -2356 -568 2354 0
49 -567 2355 0
49 -566 2355 0
49 -566 -567 2356 0
49 -2353 0
49 569 0
49 570 0
49 571 0
49 572 0
49 573 0
49 574 0
49 575 0
49 576 0
49 577 0
49 578 0
49 579 0
49 580 0
49 581 0
49 582 0
49 583 0
49 584 0
49 585 0
49 586 0
49 587 0
49 588 0
49 589 0
49 590 0
49 591 592 593 594 595 596 597 598 0
49 -2369 2357 0
49 -2370 2358 0
49 -2371 2359 0
49 -2372 2360 0
49 -2365 2357 0
49 -2366 2358 0
49 -2367 2359 0
49 -2368 2360 0
49 -2365 -2369 2358 0
49 -2365 -2370 2359 0
49 -2365 -2371 2360 0
49 -2365 -2372 2361 0
49 -2366 -2369 2359 0
49 -2366 -2370 2360 0
49 -2366 -2371 2361 0
49 -2366 -2372 2362 0
49 -2367 -2369 2360 0
49 -2367 -2370 2361 0
49 -2367 -2371 2362 0
49 -2367 -2372 2363 0
49 -2368 -2369 2361 0
49 -2368 -2370 2362 0
49 -2368 -2371 2363 0
49 -2368 -2372 2364 0
49 -2375 2369 0
49 -2376 2370 0
49 -2373 2369 0
49 -2374 2370 0
49 -2373 -2375 2370 0
49 -2373 -2376 2371 0
49 -2374 -2375 2371 0
49 -2374 -2376 2372 0
49 -598 2375 0
49 -597 2375 0
49 -597 -598 2376 0
49 -596 2373 0
49 -595 2373 0
49 -595 -596 2374 0
49 -2379 2365 0
49 -2380 2366 0
49 -2377 2365 0
49 -2378 2366 0
49 -2377 -2379 2366 0
49 -2377 -2380 2367 0
49 -2378 -2379 2367 0
49 -2378 -2380 2368 0
49 -594 2379 0
49 -593 2379 0
49 -593 -594 2380 0
49 -592 2377 0
49 -591 2377 0
49 -591 -592 2378 0
49 -2358 0
49 599 600 601 602 603 604 605 606 0
49 -2393 2381 0
49 -2394 2382 0
49 -2395 2383 0
49 -2396 2384 0
49 -2389 2381 0
49 -2390 2382 0
49 -2391 2383 0
49 -2392 2384 0
49 -2389 -2393 2382 0
49 -2389 -2394 2383 0
49 -2389 -2395 2384 0
49 -2389 -2396 2385 0
49 -2390 -2393 2383 0
49 -2390 -2394 2384 0
49 -2390 -2395 2385 0
49 -2390 -2396 2386 0
49 -2391 -2393 2384 0
49 -2391 -2394 2385 0
49 -2391 -2395 2386 0
49 -2391 -2396 2387 0
49 -2392 -2393 2385 0
49 -2392 -2394 2386 0
49 -2392 -2395 2387 0
49 -2392 -2396 2388 0
49 -2399 2393 0
49 -2400 2394 0
49 -2397 2393 0
49 -2398 2394 0
49 -2397 -2399 2394 0
49 -2397 -2400 2395 0
49 -2398 -2399 2395 0
49 -2398 -2400 2396 0
49 -606 2399 0
49 -605 2399 0
49 -605 -606 2400 0
49 -604 2397 0
49 -603 2397 0
49 -603 -604 2398 0
49 -2403 2389 0
49 -2404 2390 0
49 -2401 2389 0
49 -2402 2390 0
49 -2401 -2403 2390 0
49 -2401 -2404 2391 0
49 -2402 -2403 2391 0
49 -2402 -2404 2392 0
49 -602 2403 0
49 -601 2403 0
49 -601 -602 2404 0
49 -600 2401 0
49 -599 2401 0
49 -599 -600 2402 0
49 -2382 0
49 607 0
49 608 0
49 609 0
49 610 0
49 611 0
49 612 0
49 613 614 615 616 617 618 0
49 -2414 2405 0
49 -2415 2406 0
49 -2416 2407 0
49 -2411 2405 0
49 -2412 2406 0
49 -2413 2407 0
49 -2411 -2414 2406 0
49 -2411 -2415 2407 0
49 -2411 -2416 2408 0
49 -2412 -2414 2407 0
49 -2412 -2415 2408 0
49 -2412 -2416 2409 0
49 -2413 -2414 2408 0
49 -2413 -2415 2409 0
49 -2413 -2416 2410 0
49 -618 2414 0
49 -2417 2414 0
49 -2418 2415 0
49 -2417 -618 2415 0
49 -2418 -618 2416 0
49 -617 2417 0
49 -616 2417 0
49 -616 -617 2418 0
49 -615 2411 0
49 -2419 2411 0
49 -2420 2412 0
49 -2419 -615 2412 0
49 -2420 -615 2413 0
49 -614 2419 0
49 -613 2419 0
49 -613 -614 2420 0
49 -2406 0
49 619 620 621 622 623 624 0
49 -2430 2421 0
49 -2431 2422 0
49 -2432 2423 0
49 -2427 2421 0
49 -2428 2422 0
49 -2429 2423 0
49 -2427 -2430 2422 0
49 -2427 -2431 2423 0
49 -2427 -2432 2424 0
49 -2428 -2430 2423 0
49 -2428 -2431 2424 0
49 -2428 -2432 2425 0
49 -2429 -2430 2424 0
49 -2429 -2431 2425 0
49 -2429 -2432 2426 0
49 -624 2430 0
49 -2433 2430 0
49 -2434 2431 0
49 -2433 -624 2431 0
49 -2434 -624 2432 0
49 -623 2433 0
49 -622 2433 0
49 -622 -623 2434 0
49 -621 2427 0
49 -2435 2427 0
49 -2436 2428 0
49 -2435 -621 2428 0
49 -2436 -621 2429 0
49 -620 2435 0
49 -619 2435 0
49 -619 -620 2436 0
49 -2422 0
49 -1 2 0
49 -3 4 0
49 -5 42 0
49 -6 43 0
49 -7 44 0
49 -8 45 0
49 -9 46 0
49 -10 47 0
49 -11 48 0
49 -12 49 0
49 -13 50 0
49 -14 51 0
49 -15 52 0
49 -16 37 0
49 -17 38 0
49 -18 39 0
49 -19 40 0
49 -20 41 0
49 -21 64 0
49 -22 65 0
49 -23 66 0
49 -24 67 0
49 -25 68 0
49 -26 53 0
49 -27 54 0
49 -28 55 0
49 -29 56 0
49 -30 57 0
49 -31 58 0
49 -32 59 0
49 -33 60 0
49 -34 61 0
49 -35 62 0
49 -36 63 0
49 -5 -71 0
49 -5 -72 0
49 -6 -71 0
49 -6 -72 0
49 -6 -73 0
49 -7 -71 0
49 -7 -72 0
49 -7 -73 0
49 -7 -74 0
49 -8 -71 0
49 -8 -72 0
49 -8 -73 0
49 -8 -74 0
49 -8 -75 0
49 -9 -72 0
49 -9 -73 0
49 -9 -74 0
49 -9 -75 0
49 -9 -76 0
49 -10 -73 0
49 -10 -74 0
49 -10 -75 0
49 -10 -76 0
49 -10 -77 0
49 -11 -74 0
49 -11 -75 0
49 -11 -76 0
49 -11 -77 0
49 -11 -78 0
49 -12 -75 0
49 -12 -76 0
49 -12 -77 0
49 -12 -78 0
49 -12 -79 0
49 -13 -76 0
49 -13 -77 0
49 -13 -78 0
49 -13 -79 0
49 -13 -80 0
49 -14 -77 0
49 -14 -78 0
49 -14 -79 0
49 -14 -80 0
49 -15 -78 0
49 -15 -79 0
49 -15 -80 0
49 -16 -81 0
49 -16 -82 0
49 -17 -81 0
49 -17 -82 0
49 -17 -83 0
49 -18 -81 0
49 -18 -82 0
49 -18 -83 0
49 -18 -84 0
49 -19 -81 0
49 -19 -82 0
49 -19 -83 0
49 -19 -84 0
49 -19 -85 0
49 -20 -82 0
49 -20 -83 0
49 -20 -84 0
49 -20 -85 0
49 -20 -86 0
49 -21 -89 0
49 -21 -90 0
49 -21 -91 0
49 -21 -92 0
49 -21 -93 0
49 -22 -90 0
49 -22 -91 0
49 -22 -92 0
49 -22 -93 0
49 -22 -94 0
49 -23 -91 0
49 -23 -92 0
49 -23 -93 0
49 -23 -94 0
49 -23 -95 0
49 -24 -92 0
49 -24 -93 0
49 -24 -94 0
49 -24 -95 0
49 -25 -93 0
49 -25 -94 0
49 -25 -95 0
49 -26 -96 0
49 -26 -97 0
49 -26 -98 0
49 -27 -96 0
49 -27 -97 0
49 -27 -98 0
49 -27 -99 0
49 -28 -96 0
49 -28 -97 0
49 -28 -98 0
49 -28 -99 0
49 -28 -100 0
49 -29 -97 0
49 -29 -98 0
49 -29 -99 0
49 -29 -100 0
49 -29 -101 0
49 -30 -98 0
49 -30 -99 0
49 -30 -100 0
49 -30 -101 0
49 -30 -102 0
49 -31 -99 0
49 -31 -100 0
49 -31 -101 0
49 -31 -102 0
49 -31 -103 0
49 -32 -100 0
49 -32 -101 0
49 -32 -102 0
49 -32 -103 0
49 -32 -104 0
49 -33 -101 0
49 -33 -102 0
49 -33 -103 0
49 -33 -104 0
49 -33 -105 0
49 -34 -102 0
49 -34 -103 0
49 -34 -104 0
49 -34 -105 0
49 -34 -106 0
49 -35 -103 0
49 -35 -104 0
49 -35 -105 0
49 -35 -106 0
49 -36 -104 0
49 -36 -105 0
49 -36 -106 0
49 -5 -107 0
49 -5 -108 0
49 -5 -109 0
49 -5 -110 0
49 -5 -111 0
49 -5 -112 0
49 -5 -113 0
49 -5 -114 0
49 -5 -115 0
49 -6 -107 0
49 -6 -108 0
49 -6 -109 0
49 -6 -110 0
49 -6 -111 0
49 -6 -112 0
49 -6 -113 0
49 -6 -114 0
49 -6 -115 0
49 -6 -116 0
49 -7 -107 0
49 -7 -108 0
49 -7 -109 0
49 -7 -110 0
49 -7 -111 0
49 -7 -112 0
49 -7 -113 0
49 -7 -114 0
49 -7 -115 0
49 -7 -116 0
49 -7 -117 0
49 -8 -107 0
49 -8 -108 0
49 -8 -109 0
49 -8 -110 0
49 -8 -111 0
49 -8 -112 0
49 -8 -113 0
49 -8 -114 0
49 -8 -115 0
49 -8 -116 0
49 -8 -117 0
49 -8 -118 0
49 -9 -107 0
49 -9 -108 0
49 -9 -109 0
49 -9 -110 0
49 -9 -111 0
49 -9 -112 0
49 -9 -113 0
49 -9 -114 0
49 -9 -115 0
49 -9 -116 0
49 -9 -117 0
49 -9 -118 0
49 -9 -119 0
49 -10 -107 0
49 -10 -108 0
49 -10 -109 0
49 -10 -110 0
49 -10 -111 0
49 -10 -112 0
49 -10 -113 0
49 -10 -114 0
49 -10 -115 0
49 -10 -116 0
49 -10 -117 0
49 -10 -118 0
49 -10 -119 0
49 -10 -120 0
49 -11 -107 0
49 -11 -108 0
49 -11 -109 0
49 -11 -110 0
49 -11 -111 0
49 -11 -112 0
49 -11 -113 0
49 -11 -114 0
49 -11 -115 0
49 -11 -116 0
49 -11 -117 0
49 -11 -118 0
49 -11 -119 0
49 -11 -120 0
49 -11 -121 0
49 -12 -107 0
49 -12 -108 0
49 -12 -109 0
49 -12 -110 0
49 -12 -111 0
49 -12 -112 0
49 -12 -113 0
49 -12 -114 0
49 -12 -115 0
49 -12 -116 0
49 -12 -117 0
49 -12 -118 0
49 -12 -119 0
49 -12 -120 0
49 -12 -121 0
49 -12 -122 0
49 -13 -107 0
49 -13 -108 0
49 -13 -109 0
49 -13 -110 0
49 -13 -111 0
49 -13 -112 0
49 -13 -113 0
49 -13 -114 0
49 -13 -115 0
49 -13 -116 0
49 -13 -117 0
49 -13 -118 0
49 -13 -119 0
49 -13 -120 0
49 -13 -121 0
49 -13 -122 0
49 -13 -123 0
49 -14 -107 0
49 -14 -108 0
49 -14 -109 0
49 -14 -110 0
49 -14 -111 0
49 -14 -112 0
49 -14 -113 0
49 -14 -114 0
49 -14 -115 0
49 -14 -116 0
49 -14 -117 0
49 -14 -118 0
49 -14 -119 0
49 -14 -120 0
49 -14 -121 0
49 -14 -122 0
49 -14 -123 0
49 -14 -124 0
49 -15 -107 0
49 -15 -108 0
49 -15 -109 0
49 -15 -110 0
49 -15 -111 0
49 -15 -112 0
49 -15 -113 0
49 -15 -114 0
49 -15 -115 0
49 -15 -116 0
49 -15 -117 0
49 -15 -118 0
49 -15 -119 0
49 -15 -120 0
49 -15 -121 0
49 -15 -122 0
49 -15 -123 0
49 -15 -124 0
49 -15 -125 0
49 -16 -107 0
49 -16 -108 0
49 -16 -109 0
49 -16 -110 0
49 -16 -111 0
49 -16 -112 0
49 -16 -113 0
49 -16 -114 0
49 -16 -115 0
49 -16 -116 0
49 -16 -117 0
49 -16 -118 0
49 -16 -119 0
49 -16 -120 0
49 -16 -121 0
49 -16 -122 0
49 -16 -123 0
49 -16 -124 0
49 -16 -125 0
49 -16 -126 0
49 -16 -127 0
49 -16 -128 0
49 -16 -129 0
49 -16 -130 0
49 -16 -131 0
49 -16 -132 0
49 -17 -107 0
49 -17 -108 0
49 -17 -109 0
49 -17 -110 0
49 -17 -111 0
49 -17 -112 0
49 -17 -113 0
49 -17 -114 0
49 -17 -115 0
49 -17 -116 0
49 -17 -117 0
49 -17 -118 0
49 -17 -119 0
49 -17 -120 0
49 -17 -121 0
49 -17 -122 0
49 -17 -123 0
49 -17 -124 0
49 -17 -125 0
49 -17 -126 0
49 -17 -127 0
49 -17 -128 0
49 -17 -129 0
49 -17 -130 0
49 -17 -131 0
49 -17 -132 0
49 -17 -133 0
49 -18 -107 0
49 -18 -108 0
49 -18 -109 0
49 -18 -110 0
49 -18 -111 0
49 -18 -112 0
49 -18 -113 0
49 -18 -114 0
49 -18 -115 0
49 -18 -116 0
49 -18 -117 0
49 -18 -118 0
49 -18 -119 0
49 -18 -120 0
49 -18 -121 0
49 -18 -122 0
49 -18 -123 0
49 -18 -124 0
49 -18 -125 0
49 -18 -126 0
49 -18 -127 0
49 -18 -128 0
49 -18 -129 0
49 -18 -130 0
49 -18 -131 0
49 -18 -132 0
49 -18 -133 0
49 -18 -134 0
49 -19 -107 0
49 -19 -108 0
49 -19 -109 0
49 -19 -110 0
49 -19 -111 0
49 -19 -112 0
49 -19 -113 0
49 -19 -114 0
49 -19 -115 0
49 -19 -116 0
49 -19 -117 0
49 -19 -118 0
49 -19 -119 0
49 -19 -120 0
49 -19 -121 0
49 -19 -122 0
49 -19 -123 0
49 -19 -124 0
49 -19 -125 0
49 -19 -126 0
49 -19 -127 0
49 -19 -128 0
49 -19 -129 0
49 -19 -130 0
49 -19 -131 0
49 -19 -132 0
49 -19 -133 0
49 -19 -134 0
49 -20 -108 0
49 -20 -109 0
49 -20 -110 0
49 -20 -111 0
49 -20 -112 0
49 -20 -113 0
49 -20 -114 0
49 -20 -115 0
49 -20 -116 0
49 -20 -117 0
49 -20 -118 0
49 -20 -119 0
49 -20 -120 0
49 -20 -121 0
49 -20 -122 0
49 -20 -123 0
49 -20 -124 0
49 -20 -125 0
49 -20 -126 0
49 -20 -127 0
49 -20 -128 0
49 -20 -129 0
49 -20 -130 0
49 -20 -131 0
49 -20 -132 0
49 -20 -133 0
49 -20 -134 0
49 -21 -114 0
49 -21 -115 0
49 -21 -116 0
49 -21 -117 0
49 -21 -118 0
49 -21 -119 0
49 -21 -120 0
49 -21 -121 0
49 -21 -122 0
49 -21 -123 0
49 -21 -124 0
49 -21 -125 0
49 -21 -126 0
49 -21 -127 0
49 -21 -128 0
49 -21 -129 0
49 -21 -130 0
49 -21 -131 0
49 -21 -132 0
49 -21 -133 0
49 -21 -134 0
49 -21 -135 0
49 -21 -136 0
49 -21 -137 0
49 -21 -138 0
49 -21 -139 0
49 -21 -140 0
49 -22 -114 0
49 -22 -115 0
49 -22 -116 0
49 -22 -117 0
49 -22 -118 0
49 -22 -119 0
49 -22 -120 0
49 -22 -121 0
49 -22 -122 0
49 -22 -123 0
49 -22 -124 0
49 -22 -125 0
49 -22 -126 0
49 -22 -127 0
49 -22 -128 0
49 -22 -129 0
49 -22 -130 0
49 -22 -131 0
49 -22 -132 0
49 -22 -133 0
49 -22 -134 0
49 -22 -135 0
49 -22 -136 0
49 -22 -137 0
49 -22 -138 0
49 -22 -139 0
49 -22 -140 0
49 -22 -141 0
49 -23 -114 0
49 -23 -115 0
49 -23 -116 0
49 -23 -117 0
49 -23 -118 0
49 -23 -119 0
49 -23 -120 0
49 -23 -121 0
49 -23 -122 0
49 -23 -123 0
49 -23 -124 0
49 -23 -125 0
49 -23 -126 0
49 -23 -127 0
49 -23 -128 0
49 -23 -129 0
49 -23 -130 0
49 -23 -131 0
49 -23 -132 0
49 -23 -133 0
49 -23 -134 0
49 -23 -135 0
49 -23 -136 0
49 -23 -137 0
49 -23 -138 0
49 -23 -139 0
49 -23 -140 0
49 -23 -141 0
49 -23 -142 0
49 -24 -114 0
49 -24 -115 0
49 -24 -116 0
49 -24 -117 0
49 -24 -118 0
49 -24 -119 0
49 -24 -120 0
49 -24 -121 0
49 -24 -122 0
49 -24 -123 0
49 -24 -124 0
49 -24 -125 0
49 -24 -126 0
49 -24 -127 0
49 -24 -128 0
49 -24 -129 0
49 -24 -130 0
49 -24 -131 0
49 -24 -132 0
49 -24 -133 0
49 -24 -134 0
49 -24 -135 0
49 -24 -136 0
49 -24 -137 0
49 -24 -138 0
49 -24 -139 0
49 -24 -140 0
49 -24 -141 0
49 -24 -142 0
49 -25 -115 0
49 -25 -116 0
49 -25 -117 0
49 -25 -118 0
49 -25 -119 0
49 -25 -120 0
49 -25 -121 0
49 -25 -122 0
49 -25 -123 0
49 -25 -124 0
49 -25 -125 0
49 -25 -126 0
49 -25 -127 0
49 -25 -128 0
49 -25 -129 0
49 -25 -130 0
49 -25 -131 0
49 -25 -132 0
49 -25 -133 0
49 -25 -134 0
49 -25 -135 0
49 -25 -136 0
49 -25 -137 0
49 -25 -138 0
49 -25 -139 0
49 -25 -140 0
49 -25 -141 0
49 -25 -142 0
49 -26 -122 0
49 -26 -123 0
49 -26 -124 0
49 -26 -125 0
49 -26 -126 0
49 -26 -127 0
49 -26 -128 0
49 -26 -129 0
49 -26 -130 0
49 -26 -131 0
49 -26 -132 0
49 -26 -133 0
49 -26 -134 0
49 -26 -135 0
49 -26 -136 0
49 -26 -137 0
49 -26 -138 0
49 -26 -139 0
49 -26 -140 0
49 -26 -141 0
49 -26 -142 0
49 -27 -123 0
49 -27 -124 0
49 -27 -125 0
49 -27 -126 0
49 -27 -127 0
49 -27 -128 0
49 -27 -129 0
49 -27 -130 0
49 -27 -131 0
49 -27 -132 0
49 -27 -133 0
49 -27 -134 0
49 -27 -135 0
49 -27 -136 0
49 -27 -137 0
49 -27 -138 0
49 -27 -139 0
49 -27 -140 0
49 -27 -141 0
49 -27 -142 0
49 -28 -124 0
49 -28 -125 0
49 -28 -126 0
49 -28 -127 0
49 -28 -128 0
49 -28 -129 0
49 -28 -130 0
49 -28 -131 0
49 -28 -132 0
49 -28 -133 0
49 -28 -134 0
49 -28 -135 0
49 -28 -136 0
49 -28 -137 0
49 -28 -138 0
49 -28 -139 0
49 -28 -140 0
49 -28 -141 0
49 -28 -142 0
49 -29 -125 0
49 -29 -126 0
49 -29 -127 0
49 -29 -128 0
49 -29 -129 0
49 -29 -130 0
49 -29 -131 0
49 -29 -132 0
49 -29 -133 0
49 -29 -134 0
49 -29 -135 0
49 -29 -136 0
49 -29 -137 0
49 -29 -138 0
49 -29 -139 0
49 -29 -140 0
49 -29 -141 0
49 -29 -142 0
49 -30 -126 0
49 -30 -127 0
49 -30 -128 0
49 -30 -129 0
49 -30 -130 0
49 -30 -131 0
49 -30 -132 0
49 -30 -133 0
49 -30 -134 0
49 -30 -135 0
49 -30 -136 0
49 -30 -137 0
49 -30 -138 0
49 -30 -139 0
49 -30 -140 0
49 -30 -141 0
49 -30 -142 0
49 -31 -127 0
49 -31 -128 0
49 -31 -129 0
49 -31 -130 0
49 -31 -131 0
49 -31 -132 0
49 -31 -133 0
49 -31 -134 0
49 -31 -135 0
49 -31 -136 0
49 -31 -137 0
49 -31 -138 0
49 -31 -139 0
49 -31 -140 0
49 -31 -141 0
49 -31 -142 0
49 -32 -128 0
49 -32 -129 0
49 -32 -130 0
49 -32 -131 0
49 -32 -132 0
49 -32 -133 0
49 -32 -134 0
49 -32 -135 0
49 -32 -136 0
49 -32 -137 0
49 -32 -138 0
49 -32 -139 0
49 -32 -140 0
49 -32 -141 0
49 -32 -142 0
49 -33 -129 0
49 -33 -130 0
49 -33 -131 0
49 -33 -132 0
49 -33 -133 0
49 -33 -134 0
49 -33 -135 0
49 -33 -136 0
49 -33 -137 0
49 -33 -138 0
49 -33 -139 0
49 -33 -140 0
49 -33 -141 0
49 -33 -142 0
49 -34 -130 0
49 -34 -131 0
49 -34 -132 0
49 -34 -133 0
49 -34 -134 0
49 -34 -135 0
49 -34 -136 0
49 -34 -137 0
49 -34 -138 0
49 -34 -139 0
49 -34 -140 0
49 -34 -141 0
49 -34 -142 0
49 -35 -131 0
49 -35 -132 0
49 -35 -133 0
49 -35 -134 0
49 -35 -135 0
49 -35 -136 0
49 -35 -137 0
49 -35 -138 0
49 -35 -139 0
49 -35 -140 0
49 -35 -141 0
49 -35 -142 0
49 -36 -132 0
49 -36 -133 0
49 -36 -134 0
49 -36 -135 0
49 -36 -136 0
49 -36 -137 0
49 -36 -138 0
49 -36 -139 0
49 -36 -140 0
49 -36 -141 0
49 -36 -142 0
49 -5 -199 0
49 -6 -199 0
49 -6 -200 0
49 -7 -199 0
49 -7 -200 0
49 -7 -201 0
49 -8 -200 0
49 -8 -201 0
49 -8 -202 0
49 -9 -201 0
49 -9 -202 0
49 -9 -203 0
49 -10 -202 0
49 -10 -203 0
49 -10 -204 0
49 -11 -203 0
49 -11 -204 0
49 -11 -205 0
49 -12 -204 0
49 -12 -205 0
49 -12 -206 0
49 -13 -205 0
49 -13 -206 0
49 -13 -207 0
49 -14 -206 0
49 -14 -207 0
49 -15 -207 0
49 -16 -208 0
49 -17 -208 0
49 -17 -209 0
49 -18 -208 0
49 -18 -209 0
49 -18 -210 0
49 -19 -209 0
49 -19 -210 0
49 -19 -211 0
49 -20 -210 0
49 -20 -211 0
49 -20 -212 0
49 -21 -215 0
49 -21 -216 0
49 -21 -217 0
49 -22 -216 0
49 -22 -217 0
49 -22 -218 0
49 -23 -217 0
49 -23 -218 0
49 -23 -219 0
49 -24 -218 0
49 -24 -219 0
49 -25 -219 0
49 -26 -220 0
49 -27 -220 0
49 -27 -221 0
49 -28 -220 0
49 -28 -221 0
49 -28 -222 0
49 -29 -221 0
49 -29 -222 0
49 -29 -223 0
49 -30 -222 0
49 -30 -223 0
49 -30 -224 0
49 -31 -223 0
49 -31 -224 0
49 -31 -225 0
49 -32 -224 0
49 -32 -225 0
49 -32 -226 0
49 -33 -225 0
49 -33 -226 0
49 -33 -227 0
49 -34 -226 0
49 -34 -227 0
49 -34 -228 0
49 -35 -227 0
49 -35 -228 0
49 -36 -228 0
49 -5 -229 0
49 -5 -230 0
49 -5 -231 0
49 -5 -232 0
49 -5 -233 0
49 -5 -234 0
49 -5 -235 0
49 -6 -229 0
49 -6 -230 0
49 -6 -231 0
49 -6 -232 0
49 -6 -233 0
49 -6 -234 0
49 -6 -235 0
49 -6 -236 0
49 -7 -229 0
49 -7 -230 0
49 -7 -231 0
49 -7 -232 0
49 -7 -233 0
49 -7 -234 0
49 -7 -235 0
49 -7 -236 0
49 -7 -237 0
49 -8 -229 0
49 -8 -230 0
49 -8 -231 0
49 -8 -232 0
49 -8 -233 0
49 -8 -234 0
49 -8 -235 0
49 -8 -236 0
49 -8 -237 0
49 -8 -238 0
49 -9 -229 0
49 -9 -230 0
49 -9 -231 0
49 -9 -232 0
49 -9 -233 0
49 -9 -234 0
49 -9 -235 0
49 -9 -236 0
49 -9 -237 0
49 -9 -238 0
49 -9 -239 0
49 -10 -229 0
49 -10 -230 0
49 -10 -231 0
49 -10 -232 0
49 -10 -233 0
49 -10 -234 0
49 -10 -235 0
49 -10 -236 0
49 -10 -237 0
49 -10 -238 0
49 -10 -239 0
49 -10 -240 0
49 -11 -229 0
49 -11 -230 0
49 -11 -231 0
49 -11 -232 0
49 -11 -233 0
49 -11 -234 0
49 -11 -235 0
49 -11 -236 0
49 -11 -237 0
49 -11 -238 0
49 -11 -239 0
49 -11 -240 0
49 -11 -241 0
49 -12 -229 0
49 -12 -230 0
49 -12 -231 0
49 -12 -232 0
49 -12 -233 0
49 -12 -234 0
49 -12 -235 0
49 -12 -236 0
49 -12 -237 0
49 -12 -238 0
49 -12 -239 0
49 -12 -240 0
49 -12 -241 0
49 -12 -242 0
49 -13 -229 0
49 -13 -230 0
49 -13 -231 0
49 -13 -232 0
49 -13 -233 0
49 -13 -234 0
49 -13 -235 0
49 -13 -236 0
49 -13 -237 0
49 -13 -238 0
49 -13 -239 0
49 -13 -240 0
49 -13 -241 0
49 -13 -242 0
49 -13 -243 0
49 -14 -229 0
49 -14 -230 0
49 -14 -231 0
49 -14 -232 0
49 -14 -233 0
49 -14 -234 0
49 -14 -235 0
49 -14 -236 0
49 -14 -237 0
49 -14 -238 0
49 -14 -239 0
49 -14 -240 0
49 -14 -241 0
49 -14 -242 0
49 -14 -243 0
49 -15 -229 0
49 -15 -230 0
49 -15 -231 0
49 -15 -232 0
49 -15 -233 0
49 -15 -234 0
49 -15 -235 0
49 -15 -236 0
49 -15 -237 0
49 -15 -238 0
49 -15 -239 0
49 -15 -240 0
49 -15 -241 0
49 -15 -242 0
49 -15 -243 0
49 -16 -229 0
49 -16 -230 0
49 -16 -231 0
49 -16 -232 0
49 -16 -233 0
49 -16 -234 0
49 -16 -235 0
49 -16 -236 0
49 -16 -237 0
49 -16 -238 0
49 -16 -239 0
49 -16 -240 0
49 -16 -241 0
49 -16 -242 0
49 -16 -243 0
49 -16 -244 0
49 -16 -245 0
49 -16 -246 0
49 -16 -247 0
49 -16 -248 0
49 -16 -249 0
49 -16 -250 0
49 -17 -229 0
49 -17 -230 0
49 -17 -231 0
49 -17 -232 0
49 -17 -233 0
49 -17 -234 0
49 -17 -235 0
49 -17 -236 0
49 -17 -237 0
49 -17 -238 0
49 -17 -239 0
49 -17 -240 0
49 -17 -241 0
49 -17 -242 0
49 -17 -243 0
49 -17 -244 0
49 -17 -245 0
49 -17 -246 0
49 -17 -247 0
49 -17 -248 0
49 -17 -249 0
49 -17 -250 0
49 -17 -251 0
49 -18 -229 0
49 -18 -230 0
49 -18 -231 0
49 -18 -232 0
49 -18 -233 0
49 -18 -234 0
49 -18 -235 0
49 -18 -236 0
49 -18 -237 0
49 -18 -238 0
49 -18 -239 0
49 -18 -240 0
49 -18 -241 0
49 -18 -242 0
49 -18 -243 0
49 -18 -244 0
49 -18 -245 0
49 -18 -246 0
49 -18 -247 0
49 -18 -248 0
49 -18 -249 0
49 -18 -250 0
49 -18 -251 0
49 -18 -252 0
49 -19 -230 0
49 -19 -231 0
49 -19 -232 0
49 -19 -233 0
49 -19 -234 0
49 -19 -235 0
49 -19 -236 0
49 -19 -237 0
49 -19 -238 0
49 -19 -239 0
49 -19 -240 0
49 -19 -241 0
49 -19 -242 0
49 -19 -243 0
49 -19 -244 0
49 -19 -245 0
49 -19 -246 0
49 -19 -247 0
49 -19 -248 0
49 -19 -249 0
49 -19 -250 0
49 -19 -251 0
49 -19 -252 0
49 -20 -231 0
49 -20 -232 0
49 -20 -233 0
49 -20 -234 0
49 -20 -235 0
49 -20 -236 0
49 -20 -237 0
49 -20 -238 0
49 -20 -239 0
49 -20 -240 0
49 -20 -241 0
49 -20 -242 0
49 -20 -243 0
49 -20 -244 0
49 -20 -245 0
49 -20 -246 0
49 -20 -247 0
49 -20 -248 0
49 -20 -249 0
49 -20 -250 0
49 -20 -251 0
49 -20 -252 0
49 -21 -235 0
49 -21 -236 0
49 -21 -237 0
49 -21 -238 0
49 -21 -239 0
49 -21 -240 0
49 -21 -241 0
49 -21 -242 0
49 -21 -243 0
49 -21 -244 0
49 -21 -245 0
49 -21 -246 0
49 -21 -247 0
49 -21 -248 0
49 -21 -249 0
49 -21 -250 0
49 -21 -251 0
49 -21 -252 0
49 -21 -253 0
49 -21 -254 0
49 -21 -255 0
49 -21 -256 0
49 -22 -235 0
49 -22 -236 0
49 -22 -237 0
49 -22 -238 0
49 -22 -239 0
49 -22 -240 0
49 -22 -241 0
49 -22 -242 0
49 -22 -243 0
49 -22 -244 0
49 -22 -245 0
49 -22 -246 0
49 -22 -247 0
49 -22 -248 0
49 -22 -249 0
49 -22 -250 0
49 -22 -251 0
49 -22 -252 0
49 -22 -253 0
49 -22 -254 0
49 -22 -255 0
49 -22 -256 0
49 -22 -257 0
49 -23 -235 0
49 -23 -236 0
49 -23 -237 0
49 -23 -238 0
49 -23 -239 0
49 -23 -240 0
49 -23 -241 0
49 -23 -242 0
49 -23 -243 0
49 -23 -244 0
49 -23 -245 0
49 -23 -246 0
49 -23 -247 0
49 -23 -248 0
49 -23 -249 0
49 -23 -250 0
49 -23 -251 0
49 -23 -252 0
49 -23 -253 0
49 -23 -254 0
49 -23 -255 0
49 -23 -256 0
49 -23 -257 0
49 -23 -258 0
49 -24 -236 0
49 -24 -237 0
49 -24 -238 0
49 -24 -239 0
49 -24 -240 0
49 -24 -241 0
49 -24 -242 0
49 -24 -243 0
49 -24 -244 0
49 -24 -245 0
49 -24 -246 0
49 -24 -247 0
49 -24 -248 0
49 -24 -249 0
49 -24 -250 0
49 -24 -251 0
49 -24 -252 0
49 -24 -253 0
49 -24 -254 0
49 -24 -255 0
49 -24 -256 0
49 -24 -257 0
49 -24 -258 0
49 -25 -237 0
49 -25 -238 0
49 -25 -239 0
49 -25 -240 0
49 -25 -241 0
49 -25 -242 0
49 -25 -243 0
49 -25 -244 0
49 -25 -245 0
49 -25 -246 0
49 -25 -247 0
49 -25 -248 0
49 -25 -249 0
49 -25 -250 0
49 -25 -251 0
49 -25 -252 0
49 -25 -253 0
49 -25 -254 0
49 -25 -255 0
49 -25 -256 0
49 -25 -257 0
49 -25 -258 0
49 -26 -244 0
49 -26 -245 0
49 -26 -246 0
49 -26 -247 0
49 -26 -248 0
49 -26 -249 0
49 -26 -250 0
49 -26 -251 0
49 -26 -252 0
49 -26 -253 0
49 -26 -254 0
49 -26 -255 0
49 -26 -256 0
49 -26 -257 0
49 -26 -258 0
49 -27 -244 0
49 -27 -245 0
49 -27 -246 0
49 -27 -247 0
49 -27 -248 0
49 -27 -249 0
49 -27 -250 0
49 -27 -251 0
49 -27 -252 0
49 -27 -253 0
49 -27 -254 0
49 -27 -255 0
49 -27 -256 0
49 -27 -257 0
49 -27 -258 0
49 -28 -244 0
49 -28 -245 0
49 -28 -246 0
49 -28 -247 0
49 -28 -248 0
49 -28 -249 0
49 -28 -250 0
49 -28 -251 0
49 -28 -252 0
49 -28 -253 0
49 -28 -254 0
49 -28 -255 0
49 -28 -256 0
49 -28 -257 0
49 -28 -258 0
49 -29 -245 0
49 -29 -246 0
49 -29 -247 0
49 -29 -248 0
49 -29 -249 0
49 -29 -250 0
49 -29 -251 0
49 -29 -252 0
49 -29 -253 0
49 -29 -254 0
49 -29 -255 0
49 -29 -256 0
49 -29 -257 0
49 -29 -258 0
49 -30 -246 0
49 -30 -247 0
49 -30 -248 0
49 -30 -249 0
49 -30 -250 0
49 -30 -251 0
49 -30 -252 0
49 -30 -253 0
49 -30 -254 0
49 -30 -255 0
49 -30 -256 0
49 -30 -257 0
49 -30 -258 0
49 -31 -247 0
49 -31 -248 0
49 -31 -249 0
49 -31 -250 0
49 -31 -251 0
49 -31 -252 0
49 -31 -253 0
49 -31 -254 0
49 -31 -255 0
49 -31 -256 0
49 -31 -257 0
49 -31 -258 0
49 -32 -248 0
49 -32 -249 0
49 -32 -250 0
49 -32 -251 0
49 -32 -252 0
49 -32 -253 0
49 -32 -254 0
49 -32 -255 0
49 -32 -256 0
49 -32 -257 0
49 -32 -258 0
49 -33 -249 0
49 -33 -250 0
49 -33 -251 0
49 -33 -252 0
49 -33 -253 0
49 -33 -254 0
49 -33 -255 0
49 -33 -256 0
49 -33 -257 0
49 -33 -258 0
49 -34 -250 0
49 -34 -251 0
49 -34 -252 0
49 -34 -253 0
49 -34 -254 0
49 -34 -255 0
49 -34 -256 0
49 -34 -257 0
49 -34 -258 0
49 -35 -251 0
49 -35 -252 0
49 -35 -253 0
49 -35 -254 0
49 -35 -255 0
49 -35 -256 0
49 -35 -257 0
49 -35 -258 0
49 -36 -252 0
49 -36 -253 0
49 -36 -254 0
49 -36 -255 0
49 -36 -256 0
49 -36 -257 0
49 -36 -258 0
49 -6 -613 0
49 -7 -614 0
49 -8 -615 0
49 -9 -616 0
49 -34 -617 0
49 -35 -618 0
49 -8 -619 0
49 -9 -619 0
49 -9 -620 0
49 -10 -619 0
49 -10 -620 0
49 -10 -621 0
49 -11 -619 0
49 -11 -620 0
49 -11 -621 0
49 -11 -622 0
49 -12 -619 0
49 -12 -620 0
49 -12 -621 0
49 -12 -622 0
49 -13 -619 0
49 -13 -620 0
49 -13 -621 0
49 -13 -622 0
49 -14 -619 0
49 -14 -620 0
49 -14 -621 0
49 -14 -622 0
49 -15 -619 0
49 -15 -620 0
49 -15 -621 0
49 -15 -622 0
49 -16 -619 0
49 -16 -620 0
49 -16 -621 0
49 -16 -622 0
49 -17 -619 0
49 -17 -620 0
49 -17 -621 0
49 -17 -622 0
49 -18 -619 0
49 -18 -620 0
49 -18 -621 0
49 -18 -622 0
49 -19 -619 0
49 -19 -620 0
49 -19 -621 0
49 -19 -622 0
49 -20 -619 0
49 -20 -620 0
49 -20 -621 0
49 -20 -622 0
49 -20 -623 0
49 -21 -620 0
49 -21 -621 0
49 -21 -622 0
49 -21 -623 0
49 -21 -624 0
49 -22 -621 0
49 -22 -622 0
49 -22 -623 0
49 -22 -624 0
49 -23 -622 0
49 -23 -623 0
49 -23 -624 0
49 -24 -623 0
49 -24 -624 0
49 -25 -623 0
49 -25 -624 0
49 -26 -623 0
49 -26 -624 0
49 -27 -623 0
49 -27 -624 0
49 -28 -623 0
49 -28 -624 0
49 -29 -623 0
49 -29 -624 0
49 -30 -623 0
49 -30 -624 0
49 -31 -623 0
49 -31 -624 0
49 -32 -623 0
49 -32 -624 0
49 -33 -624 0
49 -37 -71 0
49 -37 -72 0
49 -37 -73 0
49 -37 -74 0
49 -37 -75 0
49 -37 -76 0
49 -37 -77 0
49 -37 -78 0
49 -37 -79 0
49 -37 -80 0
49 -38 -71 0
49 -38 -72 0
49 -38 -73 0
49 -38 -74 0
49 -38 -75 0
49 -38 -76 0
49 -38 -77 0
49 -38 -78 0
49 -38 -79 0
49 -38 -80 0
49 -39 -71 0
49 -39 -72 0
49 -39 -73 0
49 -39 -74 0
49 -39 -75 0
49 -39 -76 0
49 -39 -77 0
49 -39 -78 0
49 -39 -79 0
49 -39 -80 0
49 -40 -71 0
49 -40 -72 0
49 -40 -73 0
49 -40 -74 0
49 -40 -75 0
49 -40 -76 0
49 -40 -77 0
49 -40 -78 0
49 -40 -79 0
49 -40 -80 0
49 -41 -71 0
49 -41 -72 0
49 -41 -73 0
49 -41 -74 0
49 -41 -75 0
49 -41 -76 0
49 -41 -77 0
49 -41 -78 0
49 -41 -79 0
49 -41 -80 0
49 -42 -74 0
49 -42 -75 0
49 -42 -76 0
49 -42 -77 0
49 -42 -78 0
49 -42 -79 0
49 -42 -80 0
49 -42 -81 0
49 -42 -82 0
49 -42 -83 0
49 -42 -84 0
49 -42 -85 0
49 -42 -86 0
49 -42 -87 0
49 -43 -75 0
49 -43 -76 0
49 -43 -77 0
49 -43 -78 0
49 -43 -79 0
49 -43 -80 0
49 -43 -81 0
49 -43 -82 0
49 -43 -83 0
49 -43 -84 0
49 -43 -85 0
49 -43 -86 0
49 -43 -87 0
49 -43 -88 0
49 -44 -76 0
49 -44 -77 0
49 -44 -78 0
49 -44 -79 0
49 -44 -80 0
49 -44 -81 0
49 -44 -82 0
49 -44 -83 0
49 -44 -84 0
49 -44 -85 0
49 -44 -86 0
49 -44 -87 0
49 -44 -88 0
49 -44 -89 0
49 -45 -77 0
49 -45 -78 0
49 -45 -79 0
49 -45 -80 0
49 -45 -81 0
49 -45 -82 0
49 -45 -83 0
49 -45 -84 0
49 -45 -85 0
49 -45 -86 0
49 -45 -87 0
49 -45 -88 0
49 -45 -89 0
49 -45 -90 0
49 -46 -78 0
49 -46 -79 0
49 -46 -80 0
49 -46 -81 0
49 -46 -82 0
49 -46 -83 0
49 -46 -84 0
49 -46 -85 0
49 -46 -86 0
49 -46 -87 0
49 -46 -88 0
49 -46 -89 0
49 -46 -90 0
49 -46 -91 0
49 -47 -79 0
49 -47 -80 0
49 -47 -81 0
49 -47 -82 0
49 -47 -83 0
49 -47 -84 0
49 -47 -85 0
49 -47 -86 0
49 -47 -87 0
49 -47 -88 0
49 -47 -89 0
49 -47 -90 0
49 -47 -91 0
49 -47 -92 0
49 -48 -80 0
49 -48 -81 0
49 -48 -82 0
49 -48 -83 0
49 -48 -84 0
49 -48 -85 0
49 -48 -86 0
49 -48 -87 0
49 -48 -88 0
49 -48 -89 0
49 -48 -90 0
49 -48 -91 0
49 -48 -92 0
49 -48 -93 0
49 -49 -81 0
49 -49 -82 0
49 -49 -83 0
49 -49 -84 0
49 -49 -85 0
49 -49 -86 0
49 -49 -87 0
49 -49 -88 0
49 -49 -89 0
49 -49 -90 0
49 -49 -91 0
49 -49 -92 0
49 -49 -93 0
49 -49 -94 0
49 -50 -81 0
49 -50 -82 0
49 -50 -83 0
49 -50 -84 0
49 -50 -85 0
49 -50 -86 0
49 -50 -87 0
49 -50 -88 0
49 -50 -89 0
49 -50 -90 0
49 -50 -91 0
49 -50 -92 0
49 -50 -93 0
49 -50 -94 0
49 -50 -95 0
49 -51 -81 0
49 -51 -82 0
49 -51 -83 0
49 -51 -84 0
49 -51 -85 0
49 -51 -86 0
49 -51 -87 0
49 -51 -88 0
49 -51 -89 0
49 -51 -90 0
49 -51 -91 0
49 -51 -92 0
49 -51 -93 0
49 -51 -94 0
49 -51 -95 0
49 -52 -81 0
49 -52 -82 0
49 -52 -83 0
49 -52 -84 0
49 -52 -85 0
49 -52 -86 0
49 -52 -87 0
49 -52 -88 0
49 -52 -89 0
49 -52 -90 0
49 -52 -91 0
49 -52 -92 0
49 -52 -93 0
49 -52 -94 0
49 -52 -95 0
49 -53 -81 0
49 -53 -82 0
49 -53 -83 0
49 -53 -84 0
49 -53 -85 0
49 -53 -86 0
49 -53 -87 0
49 -53 -88 0
49 -53 -89 0
49 -53 -90 0
49 -53 -91 0
49 -53 -92 0
49 -53 -93 0
49 -53 -94 0
49 -53 -95 0
49 -54 -81 0
49 -54 -82 0
49 -54 -83 0
49 -54 -84 0
49 -54 -85 0
49 -54 -86 0
49 -54 -87 0
49 -54 -88 0
49 -54 -89 0
49 -54 -90 0
49 -54 -91 0
49 -54 -92 0
49 -54 -93 0
49 -54 -94 0
49 -54 -95 0
49 -55 -81 0
49 -55 -82 0
49 -55 -83 0
49 -55 -84 0
49 -55 -85 0
49 -55 -86 0
49 -55 -87 0
49 -55 -88 0
49 -55 -89 0
49 -55 -90 0
49 -55 -91 0
49 -55 -92 0
49 -55 -93 0
49 -55 -94 0
49 -55 -95 0
49 -56 -81 0
49 -56 -82 0
49 -56 -83 0
49 -56 -84 0
49 -56 -85 0
49 -56 -86 0
49 -56 -87 0
49 -56 -88 0
49 -56 -89 0
49 -56 -90 0
49 -56 -91 0
49 -56 -92 0
49 -56 -93 0
49 -56 -94 0
49 -56 -95 0
49 -57 -82 0
49 -57 -83 0
49 -57 -84 0
49 -57 -85 0
49 -57 -86 0
49 -57 -87 0
49 -57 -88 0
49 -57 -89 0
49 -57 -90 0
49 -57 -91 0
49 -57 -92 0
49 -57 -93 0
49 -57 -94 0
49 -57 -95 0
49 -57 -96 0
49 -58 -83 0
49 -58 -84 0
49 -58 -85 0
49 -58 -86 0
49 -58 -87 0
49 -58 -88 0
49 -58 -89 0
49 -58 -90 0
49 -58 -91 0
49 -58 -92 0
49 -58 -93 0
49 -58 -94 0
49 -58 -95 0
49 -58 -96 0
49 -58 -97 0
49 -59 -84 0
49 -59 -85 0
49 -59 -86 0
49 -59 -87 0
49 -59 -88 0
49 -59 -89 0
49 -59 -90 0
49 -59 -91 0
49 -59 -92 0
49 -59 -93 0
49 -59 -94 0
49 -59 -95 0
49 -59 -96 0
49 -59 -97 0
49 -59 -98 0
49 -60 -85 0
49 -60 -86 0
49 -60 -87 0
49 -60 -88 0
49 -60 -89 0
49 -60 -90 0
49 -60 -91 0
49 -60 -92 0
49 -60 -93 0
49 -60 -94 0
49 -60 -95 0
49 -60 -96 0
49 -60 -97 0
49 -60 -98 0
49 -60 -99 0
49 -61 -86 0
49 -61 -87 0
49 -61 -88 0
49 -61 -89 0
49 -61 -90 0
49 -61 -91 0
49 -61 -92 0
49 -61 -93 0
49 -61 -94 0
49 -61 -95 0
49 -61 -96 0
49 -61 -97 0
49 -61 -98 0
49 -61 -99 0
49 -61 -100 0
49 -62 -87 0
49 -62 -88 0
49 -62 -89 0
49 -62 -90 0
49 -62 -91 0
49 -62 -92 0
49 -62 -93 0
49 -62 -94 0
49 -62 -95 0
49 -62 -96 0
49 -62 -97 0
49 -62 -98 0
49 -62 -99 0
49 -62 -100 0
49 -62 -101 0
49 -63 -88 0
49 -63 -89 0
49 -63 -90 0
49 -63 -91 0
49 -63 -92 0
49 -63 -93 0
49 -63 -94 0
49 -63 -95 0
49 -63 -96 0
49 -63 -97 0
49 -63 -98 0
49 -63 -99 0
49 -63 -100 0
49 -63 -101 0
49 -63 -102 0
49 -64 -95 0
49 -64 -96 0
49 -64 -97 0
49 -64 -98 0
49 -64 -99 0
49 -64 -100 0
49 -64 -101 0
49 -64 -102 0
49 -64 -103 0
49 -64 -104 0
49 -64 -105 0
49 -64 -106 0
49 -65 -96 0
49 -65 -97 0
49 -65 -98 0
49 -65 -99 0
49 -65 -100 0
49 -65 -101 0
49 -65 -102 0
49 -65 -103 0
49 -65 -104 0
49 -65 -105 0
49 -65 -106 0
49 -66 -96 0
49 -66 -97 0
49 -66 -98 0
49 -66 -99 0
49 -66 -100 0
49 -66 -101 0
49 -66 -102 0
49 -66 -103 0
49 -66 -104 0
49 -66 -105 0
49 -66 -106 0
49 -67 -96 0
49 -67 -97 0
49 -67 -98 0
49 -67 -99 0
49 -67 -100 0
49 -67 -101 0
49 -67 -102 0
49 -67 -103 0
49 -67 -104 0
49 -67 -105 0
49 -67 -106 0
49 -68 -96 0
49 -68 -97 0
49 -68 -98 0
49 -68 -99 0
49 -68 -100 0
49 -68 -101 0
49 -68 -102 0
49 -68 -103 0
49 -68 -104 0
49 -68 -105 0
49 -68 -106 0
49 -37 -107 0
49 -37 -108 0
49 -38 -107 0
49 -38 -108 0
49 -38 -109 0
49 -39 -107 0
49 -39 -108 0
49 -39 -109 0
49 -39 -110 0
49 -40 -107 0
49 -40 -108 0
49 -40 -109 0
49 -40 -110 0
49 -40 -111 0
49 -41 -108 0
49 -41 -109 0
49 -41 -110 0
49 -41 -111 0
49 -41 -112 0
49 -42 -114 0
49 -42 -115 0
49 -43 -114 0
49 -43 -115 0
49 -43 -116 0
49 -44 -114 0
49 -44 -115 0
49 -44 -116 0
49 -44 -117 0
49 -45 -114 0
49 -45 -115 0
49 -45 -116 0
49 -45 -117 0
49 -45 -118 0
49 -46 -115 0
49 -46 -116 0
49 -46 -117 0
49 -46 -118 0
49 -46 -119 0
49 -47 -116 0
49 -47 -117 0
49 -47 -118 0
49 -47 -119 0
49 -47 -120 0
49 -48 -117 0
49 -48 -118 0
49 -48 -119 0
49 -48 -120 0
49 -48 -121 0
49 -49 -118 0
49 -49 -119 0
49 -49 -120 0
49 -49 -121 0
49 -49 -122 0
49 -50 -119 0
49 -50 -120 0
49 -50 -121 0
49 -50 -122 0
49 -50 -123 0
49 -51 -120 0
49 -51 -121 0
49 -51 -122 0
49 -51 -123 0
49 -51 -124 0
49 -52 -121 0
49 -52 -122 0
49 -52 -123 0
49 -52 -124 0
49 -52 -125 0
49 -53 -122 0
49 -53 -123 0
49 -53 -124 0
49 -53 -125 0
49 -53 -126 0
49 -54 -123 0
49 -54 -124 0
49 -54 -125 0
49 -54 -126 0
49 -54 -127 0
49 -55 -124 0
49 -55 -125 0
49 -55 -126 0
49 -55 -127 0
49 -55 -128 0
49 -56 -125 0
49 -56 -126 0
49 -56 -127 0
49 -56 -128 0
49 -56 -129 0
49 -57 -126 0
49 -57 -127 0
49 -57 -128 0
49 -57 -129 0
49 -57 -130 0
49 -58 -127 0
49 -58 -128 0
49 -58 -129 0
49 -58 -130 0
49 -58 -131 0
49 -59 -128 0
49 -59 -129 0
49 -59 -130 0
49 -59 -131 0
49 -59 -132 0
49 -60 -129 0
49 -60 -130 0
49 -60 -131 0
49 -60 -132 0
49 -60 -133 0
49 -61 -130 0
49 -61 -131 0
49 -61 -132 0
49 -61 -133 0
49 -61 -134 0
49 -62 -131 0
49 -62 -132 0
49 -62 -133 0
49 -62 -134 0
49 -63 -132 0
49 -63 -133 0
49 -63 -134 0
49 -64 -136 0
49 -64 -137 0
49 -64 -138 0
49 -64 -139 0
49 -64 -140 0
49 -65 -137 0
49 -65 -138 0
49 -65 -139 0
49 -65 -140 0
49 -65 -141 0
49 -66 -138 0
49 -66 -139 0
49 -66 -140 0
49 -66 -141 0
49 -66 -142 0
49 -67 -139 0
49 -67 -140 0
49 -67 -141 0
49 -67 -142 0
49 -68 -140 0
49 -68 -141 0
49 -68 -142 0
49 -37 -199 0
49 -37 -200 0
49 -37 -201 0
49 -37 -202 0
49 -37 -203 0
49 -37 -204 0
49 -37 -205 0
49 -37 -206 0
49 -37 -207 0
49 -38 -199 0
49 -38 -200 0
49 -38 -201 0
49 -38 -202 0
49 -38 -203 0
49 -38 -204 0
49 -38 -205 0
49 -38 -206 0
49 -38 -207 0
49 -39 -199 0
49 -39 -200 0
49 -39 -201 0
49 -39 -202 0
49 -39 -203 0
49 -39 -204 0
49 -39 -205 0
49 -39 -206 0
49 -39 -207 0
49 -40 -199 0
49 -40 -200 0
49 -40 -201 0
49 -40 -202 0
49 -40 -203 0
49 -40 -204 0
49 -40 -205 0
49 -40 -206 0
49 -40 -207 0
49 -41 -199 0
49 -41 -200 0
49 -41 -201 0
49 -41 -202 0
49 -41 -203 0
49 -41 -204 0
49 -41 -205 0
49 -41 -206 0
49 -41 -207 0
49 -41 -208 0
49 -42 -201 0
49 -42 -202 0
49 -42 -203 0
49 -42 -204 0
49 -42 -205 0
49 -42 -206 0
49 -42 -207 0
49 -42 -208 0
49 -42 -209 0
49 -42 -210 0
49 -42 -211 0
49 -42 -212 0
49 -42 -213 0
49 -43 -202 0
49 -43 -203 0
49 -43 -204 0
49 -43 -205 0
49 -43 -206 0
49 -43 -207 0
49 -43 -208 0
49 -43 -209 0
49 -43 -210 0
49 -43 -211 0
49 -43 -212 0
49 -43 -213 0
49 -43 -214 0
49 -44 -203 0
49 -44 -204 0
49 -44 -205 0
49 -44 -206 0
49 -44 -207 0
49 -44 -208 0
49 -44 -209 0
49 -44 -210 0
49 -44 -211 0
49 -44 -212 0
49 -44 -213 0
49 -44 -214 0
49 -44 -215 0
49 -45 -204 0
49 -45 -205 0
49 -45 -206 0
49 -45 -207 0
49 -45 -208 0
49 -45 -209 0
49 -45 -210 0
49 -45 -211 0
49 -45 -212 0
49 -45 -213 0
49 -45 -214 0
49 -45 -215 0
49 -45 -216 0
49 -46 -205 0
49 -46 -206 0
49 -46 -207 0
49 -46 -208 0
49 -46 -209 0
49 -46 -210 0
49 -46 -211 0
49 -46 -212 0
49 -46 -213 0
49 -46 -214 0
49 -46 -215 0
49 -46 -216 0
49 -46 -217 0
49 -47 -206 0
49 -47 -207 0
49 -47 -208 0
49 -47 -209 0
49 -47 -210 0
49 -47 -211 0
49 -47 -212 0
49 -47 -213 0
49 -47 -214 0
49 -47 -215 0
49 -47 -216 0
49 -47 -217 0
49 -47 -218 0
49 -48 -207 0
49 -48 -208 0
49 -48 -209 0
49 -48 -210 0
49 -48 -211 0
49 -48 -212 0
49 -48 -213 0
49 -48 -214 0
49 -48 -215 0
49 -48 -216 0
49 -48 -217 0
49 -48 -218 0
49 -48 -219 0
49 -49 -208 0
49 -49 -209 0
49 -49 -210 0
49 -49 -211 0
49 -49 -212 0
49 -49 -213 0
49 -49 -214 0
49 -49 -215 0
49 -49 -216 0
49 -49 -217 0
49 -49 -218 0
49 -49 -219 0
49 -50 -208 0
49 -50 -209 0
49 -50 -210 0
49 -50 -211 0
49 -50 -212 0
49 -50 -213 0
49 -50 -214 0
49 -50 -215 0
49 -50 -216 0
49 -50 -217 0
49 -50 -218 0
49 -50 -219 0
49 -51 -208 0
49 -51 -209 0
49 -51 -210 0
49 -51 -211 0
49 -51 -212 0
49 -51 -213 0
49 -51 -214 0
49 -51 -215 0
49 -51 -216 0
49 -51 -217 0
49 -51 -218 0
49 -51 -219 0
49 -52 -208 0
49 -52 -209 0
49 -52 -210 0
49 -52 -211 0
49 -52 -212 0
49 -52 -213 0
49 -52 -214 0
49 -52 -215 0
49 -52 -216 0
49 -52 -217 0
49 -52 -218 0
49 -52 -219 0
49 -53 -208 0
49 -53 -209 0
49 -53 -210 0
49 -53 -211 0
49 -53 -212 0
49 -53 -213 0
49 -53 -214 0
49 -53 -215 0
49 -53 -216 0
49 -53 -217 0
49 -53 -218 0
49 -53 -219 0
49 -54 -208 0
49 -54 -209 0
49 -54 -210 0
49 -54 -211 0
49 -54 -212 0
49 -54 -213 0
49 -54 -214 0
49 -54 -215 0
49 -54 -216 0
49 -54 -217 0
49 -54 -218 0
49 -54 -219 0
49 -55 -208 0
49 -55 -209 0
49 -55 -210 0
49 -55 -211 0
49 -55 -212 0
49 -55 -213 0
49 -55 -214 0
49 -55 -215 0
49 -55 -216 0
49 -55 -217 0
49 -55 -218 0
49 -55 -219 0
49 -56 -208 0
49 -56 -209 0
49 -56 -210 0
49 -56 -211 0
49 -56 -212 0
49 -56 -213 0
49 -56 -214 0
49 -56 -215 0
49 -56 -216 0
49 -56 -217 0
49 -56 -218 0
49 -56 -219 0
49 -57 -208 0
49 -57 -209 0
49 -57 -210 0
49 -57 -211 0
49 -57 -212 0
49 -57 -213 0
49 -57 -214 0
49 -57 -215 0
49 -57 -216 0
49 -57 -217 0
49 -57 -218 0
49 -57 -219 0
49 -57 -220 0
49 -58 -209 0
49 -58 -210 0
49 -58 -211 0
49 -58 -212 0
49 -58 -213 0
49 -58 -214 0
49 -58 -215 0
49 -58 -216 0
49 -58 -217 0
49 -58 -218 0
49 -58 -219 0
49 -58 -220 0
49 -58 -221 0
49 -59 -210 0
49 -59 -211 0
49 -59 -212 0
49 -59 -213 0
49 -59 -214 0
49 -59 -215 0
49 -59 -216 0
49 -59 -217 0
49 -59 -218 0
49 -59 -219 0
49 -59 -220 0
49 -59 -221 0
49 -59 -222 0
49 -60 -211 0
49 -60 -212 0
49 -60 -213 0
49 -60 -214 0
49 -60 -215 0
49 -60 -216 0
49 -60 -217 0
49 -60 -218 0
49 -60 -219 0
49 -60 -220 0
49 -60 -221 0
49 -60 -222 0
49 -60 -223 0
49 -61 -212 0
49 -61 -213 0
49 -61 -214 0
49 -61 -215 0
49 -61 -216 0
49 -61 -217 0
49 -61 -218 0
49 -61 -219 0
49 -61 -220 0
49 -61 -221 0
49 -61 -222 0
49 -61 -223 0
49 -61 -224 0
49 -62 -213 0
49 -62 -214 0
49 -62 -215 0
49 -62 -216 0
49 -62 -217 0
49 -62 -218 0
49 -62 -219 0
49 -62 -220 0
49 -62 -221 0
49 -62 -222 0
49 -62 -223 0
49 -62 -224 0
49 -62 -225 0
49 -63 -214 0
49 -63 -215 0
49 -63 -216 0
49 -63 -217 0
49 -63 -218 0
49 -63 -219 0
49 -63 -220 0
49 -63 -221 0
49 -63 -222 0
49 -63 -223 0
49 -63 -224 0
49 -63 -225 0
49 -63 -226 0
49 -64 -219 0
49 -64 -220 0
49 -64 -221 0
49 -64 -222 0
49 -64 -223 0
49 -64 -224 0
49 -64 -225 0
49 -64 -226 0
49 -64 -227 0
49 -64 -228 0
49 -65 -220 0
49 -65 -221 0
49 -65 -222 0
49 -65 -223 0
49 -65 -224 0
49 -65 -225 0
49 -65 -226 0
49 -65 -227 0
49 -65 -228 0
49 -66 -220 0
49 -66 -221 0
49 -66 -222 0
49 -66 -223 0
49 -66 -224 0
49 -66 -225 0
49 -66 -226 0
49 -66 -227 0
49 -66 -228 0
49 -67 -220 0
49 -67 -221 0
49 -67 -222 0
49 -67 -223 0
49 -67 -224 0
49 -67 -225 0
49 -67 -226 0
49 -67 -227 0
49 -67 -228 0
49 -68 -220 0
49 -68 -221 0
49 -68 -222 0
49 -68 -223 0
49 -68 -224 0
49 -68 -225 0
49 -68 -226 0
49 -68 -227 0
49 -68 -228 0
49 -37 -229 0
49 -38 -229 0
49 -38 -230 0
49 -39 -229 0
49 -39 -230 0
49 -39 -231 0
49 -40 -230 0
49 -40 -231 0
49 -40 -232 0
49 -41 -231 0
49 -41 -232 0
49 -41 -233 0
49 -42 -235 0
49 -43 -235 0
49 -43 -236 0
49 -44 -235 0
49 -44 -236 0
49 -44 -237 0
49 -45 -236 0
49 -45 -237 0
49 -45 -238 0
49 -46 -237 0
49 -46 -238 0
49 -46 -239 0
49 -47 -238 0
49 -47 -239 0
49 -47 -240 0
49 -48 -239 0
49 -48 -240 0
49 -48 -241 0
49 -49 -240 0
49 -49 -241 0
49 -49 -242 0
49 -50 -241 0
49 -50 -242 0
49 -50 -243 0
49 -51 -242 0
49 -51 -243 0
49 -52 -243 0
49 -53 -244 0
49 -54 -244 0
49 -54 -245 0
49 -55 -244 0
49 -55 -245 0
49 -55 -246 0
49 -56 -245 0
49 -56 -246 0
49 -56 -247 0
49 -57 -246 0
49 -57 -247 0
49 -57 -248 0
49 -58 -247 0
49 -58 -248 0
49 -58 -249 0
49 -59 -248 0
49 -59 -249 0
49 -59 -250 0
49 -60 -249 0
49 -60 -250 0
49 -60 -251 0
49 -61 -250 0
49 -61 -251 0
49 -61 -252 0
49 -62 -251 0
49 -62 -252 0
49 -63 -252 0
49 -64 -254 0
49 -64 -255 0
49 -64 -256 0
49 -65 -255 0
49 -65 -256 0
49 -65 -257 0
49 -66 -256 0
49 -66 -257 0
49 -66 -258 0
49 -67 -257 0
49 -67 -258 0
49 -68 -258 0
49 -37 -613 0
49 -37 -614 0
49 -37 -615 0
49 -37 -616 0
49 -38 -613 0
49 -38 -614 0
49 -38 -615 0
49 -38 -616 0
49 -39 -613 0
49 -39 -614 0
49 -39 -615 0
49 -39 -616 0
49 -40 -613 0
49 -40 -614 0
49 -40 -615 0
49 -40 -616 0
49 -41 -613 0
49 -41 -614 0
49 -41 -615 0
49 -41 -616 0
49 -42 -613 0
49 -42 -614 0
49 -42 -615 0
49 -42 -616 0
49 -43 -613 0
49 -43 -614 0
49 -43 -615 0
49 -43 -616 0
49 -44 -614 0
49 -44 -615 0
49 -44 -616 0
49 -45 -615 0
49 -45 -616 0
49 -46 -616 0
49 -61 -617 0
49 -62 -617 0
49 -62 -618 0
49 -63 -617 0
49 -63 -618 0
49 -64 -617 0
49 -64 -618 0
49 -65 -617 0
49 -65 -618 0
49 -66 -617 0
49 -66 -618 0
49 -67 -617 0
49 -67 -618 0
49 -68 -617 0
49 -68 -618 0
49 -43 -619 0
49 -44 -620 0
49 -45 -621 0
49 -46 -622 0
49 -61 -623 0
49 -62 -624 0
49 -69 70 0
49 -71 114 0
49 -72 115 0
49 -73 116 0
49 -74 117 0
49 -75 118 0
49 -76 119 0
49 -77 120 0
49 -78 121 0
49 -79 122 0
49 -80 123 0
49 -81 107 0
49 -82 108 0
49 -83 109 0
49 -84 110 0
49 -85 111 0
49 -86 112 0
49 -87 113 0
49 -88 135 0
49 -89 136 0
49 -90 137 0
49 -91 138 0
49 -92 139 0
49 -93 140 0
49 -94 141 0
49 -95 142 0
49 -96 124 0
49 -97 125 0
49 -98 126 0
49 -99 127 0
49 -100 128 0
49 -101 129 0
49 -102 130 0
49 -103 131 0
49 -104 132 0
49 -105 133 0
49 -106 134 0
49 -71 -199 0
49 -72 -200 0
49 -73 -201 0
49 -74 -202 0
49 -75 -203 0
49 -76 -204 0
49 -77 -205 0
49 -78 -206 0
49 -79 -207 0
49 -81 -208 0
49 -82 -209 0
49 -83 -210 0
49 -84 -211 0
49 -85 -212 0
49 -86 -213 0
49 -89 -214 0
49 -90 -215 0
49 -91 -216 0
49 -92 -217 0
49 -93 -218 0
49 -94 -219 0
49 -97 -220 0
49 -98 -221 0
49 -99 -222 0
49 -100 -223 0
49 -101 -224 0
49 -102 -225 0
49 -103 -226 0
49 -104 -227 0
49 -105 -228 0
49 -71 -229 0
49 -71 -230 0
49 -71 -231 0
49 -71 -232 0
49 -71 -233 0
49 -71 -234 0
49 -72 -229 0
49 -72 -230 0
49 -72 -231 0
49 -72 -232 0
49 -72 -233 0
49 -72 -234 0
49 -73 -229 0
49 -73 -230 0
49 -73 -231 0
49 -73 -232 0
49 -73 -233 0
49 -73 -234 0
49 -73 -235 0
49 -74 -229 0
49 -74 -230 0
49 -74 -231 0
49 -74 -232 0
49 -74 -233 0
49 -74 -234 0
49 -74 -235 0
49 -74 -236 0
49 -75 -229 0
49 -75 -230 0
49 -75 -231 0
49 -75 -232 0
49 -75 -233 0
49 -75 -234 0
49 -75 -235 0
49 -75 -236 0
49 -75 -237 0
49 -76 -229 0
49 -76 -230 0
49 -76 -231 0
49 -76 -232 0
49 -76 -233 0
49 -76 -234 0
49 -76 -235 0
49 -76 -236 0
49 -76 -237 0
49 -76 -238 0
49 -77 -229 0
49 -77 -230 0
49 -77 -231 0
49 -77 -232 0
49 -77 -233 0
49 -77 -234 0
49 -77 -235 0
49 -77 -236 0
49 -77 -237 0
49 -77 -238 0
49 -77 -239 0
49 -78 -229 0
49 -78 -230 0
49 -78 -231 0
49 -78 -232 0
49 -78 -233 0
49 -78 -234 0
49 -78 -235 0
49 -78 -236 0
49 -78 -237 0
49 -78 -238 0
49 -78 -239 0
49 -78 -240 0
49 -79 -229 0
49 -79 -230 0
49 -79 -231 0
49 -79 -232 0
49 -79 -233 0
49 -79 -234 0
49 -79 -235 0
49 -79 -236 0
49 -79 -237 0
49 -79 -238 0
49 -79 -239 0
49 -79 -240 0
49 -79 -241 0
49 -80 -229 0
49 -80 -230 0
49 -80 -231 0
49 -80 -232 0
49 -80 -233 0
49 -80 -234 0
49 -80 -235 0
49 -80 -236 0
49 -80 -237 0
49 -80 -238 0
49 -80 -239 0
49 -80 -240 0
49 -80 -241 0
49 -80 -242 0
49 -81 -231 0
49 -81 -232 0
49 -81 -233 0
49 -81 -234 0
49 -81 -235 0
49 -81 -236 0
49 -81 -237 0
49 -81 -238 0
49 -81 -239 0
49 -81 -240 0
49 -81 -241 0
49 -81 -242 0
49 -81 -243 0
49 -81 -244 0
49 -81 -245 0
49 -81 -246 0
49 -81 -247 0
49 -81 -248 0
49 -82 -232 0
49 -82 -233 0
49 -82 -234 0
49 -82 -235 0
49 -82 -236 0
49 -82 -237 0
49 -82 -238 0
49 -82 -239 0
49 -82 -240 0
49 -82 -241 0
49 -82 -242 0
49 -82 -243 0
49 -82 -244 0
49 -82 -245 0
49 -82 -246 0
49 -82 -247 0
49 -82 -248 0
49 -82 -249 0
49 -83 -233 0
49 -83 -234 0
49 -83 -235 0
49 -83 -236 0
49 -83 -237 0
49 -83 -238 0
49 -83 -239 0
49 -83 -240 0
49 -83 -241 0
49 -83 -242 0
49 -83 -243 0
49 -83 -244 0
49 -83 -245 0
49 -83 -246 0
49 -83 -247 0
49 -83 -248 0
49 -83 -249 0
49 -83 -250 0
49 -84 -234 0
49 -84 -235 0
49 -84 -236 0
49 -84 -237 0
49 -84 -238 0
49 -84 -239 0
49 -84 -240 0
49 -84 -241 0
49 -84 -242 0
49 -84 -243 0
49 -84 -244 0
49 -84 -245 0
49 -84 -246 0
49 -84 -247 0
49 -84 -248 0
49 -84 -249 0
49 -84 -250 0
49 -84 -251 0
49 -85 -235 0
49 -85 -236 0
49 -85 -237 0
49 -85 -238 0
49 -85 -239 0
49 -85 -240 0
49 -85 -241 0
49 -85 -242 0
49 -85 -243 0
49 -85 -244 0
49 -85 -245 0
49 -85 -246 0
49 -85 -247 0
49 -85 -248 0
49 -85 -249 0
49 -85 -250 0
49 -85 -251 0
49 -85 -252 0
49 -86 -235 0
49 -86 -236 0
49 -86 -237 0
49 -86 -238 0
49 -86 -239 0
49 -86 -240 0
49 -86 -241 0
49 -86 -242 0
49 -86 -243 0
49 -86 -244 0
49 -86 -245 0
49 -86 -246 0
49 -86 -247 0
49 -86 -248 0
49 -86 -249 0
49 -86 -250 0
49 -86 -251 0
49 -86 -252 0
49 -87 -235 0
49 -87 -236 0
49 -87 -237 0
49 -87 -238 0
49 -87 -239 0
49 -87 -240 0
49 -87 -241 0
49 -87 -242 0
49 -87 -243 0
49 -87 -244 0
49 -87 -245 0
49 -87 -246 0
49 -87 -247 0
49 -87 -248 0
49 -87 -249 0
49 -87 -250 0
49 -87 -251 0
49 -87 -252 0
49 -88 -235 0
49 -88 -236 0
49 -88 -237 0
49 -88 -238 0
49 -88 -239 0
49 -88 -240 0
49 -88 -241 0
49 -88 -242 0
49 -88 -243 0
49 -88 -244 0
49 -88 -245 0
49 -88 -246 0
49 -88 -247 0
49 -88 -248 0
49 -88 -249 0
49 -88 -250 0
49 -88 -251 0
49 -88 -252 0
49 -89 -235 0
49 -89 -236 0
49 -89 -237 0
49 -89 -238 0
49 -89 -239 0
49 -89 -240 0
49 -89 -241 0
49 -89 -242 0
49 -89 -243 0
49 -89 -244 0
49 -89 -245 0
49 -89 -246 0
49 -89 -247 0
49 -89 -248 0
49 -89 -249 0
49 -89 -250 0
49 -89 -251 0
49 -89 -252 0
49 -90 -235 0
49 -90 -236 0
49 -90 -237 0
49 -90 -238 0
49 -90 -239 0
49 -90 -240 0
49 -90 -241 0
49 -90 -242 0
49 -90 -243 0
49 -90 -244 0
49 -90 -245 0
49 -90 -246 0
49 -90 -247 0
49 -90 -248 0
49 -90 -249 0
49 -90 -250 0
49 -90 -251 0
49 -90 -252 0
49 -91 -236 0
49 -91 -237 0
49 -91 -238 0
49 -91 -239 0
49 -91 -240 0
49 -91 -241 0
49 -91 -242 0
49 -91 -243 0
49 -91 -244 0
49 -91 -245 0
49 -91 -246 0
49 -91 -247 0
49 -91 -248 0
49 -91 -249 0
49 -91 -250 0
49 -91 -251 0
49 -91 -252 0
49 -91 -253 0
49 -92 -237 0
49 -92 -238 0
49 -92 -239 0
49 -92 -240 0
49 -92 -241 0
49 -92 -242 0
49 -92 -243 0
49 -92 -244 0
49 -92 -245 0
49 -92 -246 0
49 -92 -247 0
49 -92 -248 0
49 -92 -249 0
49 -92 -250 0
49 -92 -251 0
49 -92 -252 0
49 -92 -253 0
49 -92 -254 0
49 -93 -238 0
49 -93 -239 0
49 -93 -240 0
49 -93 -241 0
49 -93 -242 0
49 -93 -243 0
49 -93 -244 0
49 -93 -245 0
49 -93 -246 0
49 -93 -247 0
49 -93 -248 0
49 -93 -249 0
49 -93 -250 0
49 -93 -251 0
49 -93 -252 0
49 -93 -253 0
49 -93 -254 0
49 -93 -255 0
49 -94 -239 0
49 -94 -240 0
49 -94 -241 0
49 -94 -242 0
49 -94 -243 0
49 -94 -244 0
49 -94 -245 0
49 -94 -246 0
49 -94 -247 0
49 -94 -248 0
49 -94 -249 0
49 -94 -250 0
49 -94 -251 0
49 -94 -252 0
49 -94 -253 0
49 -94 -254 0
49 -94 -255 0
49 -94 -256 0
49 -95 -240 0
49 -95 -241 0
49 -95 -242 0
49 -95 -243 0
49 -95 -244 0
49 -95 -245 0
49 -95 -246 0
49 -95 -247 0
49 -95 -248 0
49 -95 -249 0
49 -95 -250 0
49 -95 -251 0
49 -95 -252 0
49 -95 -253 0
49 -95 -254 0
49 -95 -255 0
49 -95 -256 0
49 -95 -257 0
49 -96 -245 0
49 -96 -246 0
49 -96 -247 0
49 -96 -248 0
49 -96 -249 0
49 -96 -250 0
49 -96 -251 0
49 -96 -252 0
49 -96 -253 0
49 -96 -254 0
49 -96 -255 0
49 -96 -256 0
49 -96 -257 0
49 -96 -258 0
49 -97 -246 0
49 -97 -247 0
49 -97 -248 0
49 -97 -249 0
49 -97 -250 0
49 -97 -251 0
49 -97 -252 0
49 -97 -253 0
49 -97 -254 0
49 -97 -255 0
49 -97 -256 0
49 -97 -257 0
49 -97 -258 0
49 -98 -247 0
49 -98 -248 0
49 -98 -249 0
49 -98 -250 0
49 -98 -251 0
49 -98 -252 0
49 -98 -253 0
49 -98 -254 0
49 -98 -255 0
49 -98 -256 0
49 -98 -257 0
49 -98 -258 0
49 -99 -248 0
49 -99 -249 0
49 -99 -250 0
49 -99 -251 0
49 -99 -252 0
49 -99 -253 0
49 -99 -254 0
49 -99 -255 0
49 -99 -256 0
49 -99 -257 0
49 -99 -258 0
49 -100 -249 0
49 -100 -250 0
49 -100 -251 0
49 -100 -252 0
49 -100 -253 0
49 -100 -254 0
49 -100 -255 0
49 -100 -256 0
49 -100 -257 0
49 -100 -258 0
49 -101 -250 0
49 -101 -251 0
49 -101 -252 0
49 -101 -253 0
49 -101 -254 0
49 -101 -255 0
49 -101 -256 0
49 -101 -257 0
49 -101 -258 0
49 -102 -251 0
49 -102 -252 0
49 -102 -253 0
49 -102 -254 0
49 -102 -255 0
49 -102 -256 0
49 -102 -257 0
49 -102 -258 0
49 -103 -252 0
49 -103 -253 0
49 -103 -254 0
49 -103 -255 0
49 -103 -256 0
49 -103 -257 0
49 -103 -258 0
49 -104 -253 0
49 -104 -254 0
49 -104 -255 0
49 -104 -256 0
49 -104 -257 0
49 -104 -258 0
49 -105 -253 0
49 -105 -254 0
49 -105 -255 0
49 -105 -256 0
49 -105 -257 0
49 -105 -258 0
49 -106 -253 0
49 -106 -254 0
49 -106 -255 0
49 -106 -256 0
49 -106 -257 0
49 -106 -258 0
49 -71 -613 0
49 -71 -614 0
49 -71 -615 0
49 -71 -616 0
49 -72 -613 0
49 -72 -614 0
49 -72 -615 0
49 -72 -616 0
49 -73 -613 0
49 -73 -614 0
49 -73 -615 0
49 -73 -616 0
49 -74 -613 0
49 -74 -614 0
49 -74 -615 0
49 -74 -616 0
49 -75 -614 0
49 -75 -615 0
49 -75 -616 0
49 -76 -615 0
49 -76 -616 0
49 -77 -616 0
49 -101 -617 0
49 -102 -617 0
49 -102 -618 0
49 -103 -617 0
49 -103 -618 0
49 -104 -617 0
49 -104 -618 0
49 -105 -617 0
49 -105 -618 0
49 -106 -617 0
49 -106 -618 0
49 -76 -619 0
49 -77 -619 0
49 -77 -620 0
49 -78 -619 0
49 -78 -620 0
49 -78 -621 0
49 -79 -619 0
49 -79 -620 0
49 -79 -621 0
49 -79 -622 0
49 -80 -619 0
49 -80 -620 0
49 -80 -621 0
49 -80 -622 0
49 -81 -619 0
49 -81 -620 0
49 -81 -621 0
49 -81 -622 0
49 -82 -619 0
49 -82 -620 0
49 -82 -621 0
49 -82 -622 0
49 -83 -619 0
49 -83 -620 0
49 -83 -621 0
49 -83 -622 0
49 -84 -619 0
49 -84 -620 0
49 -84 -621 0
49 -84 -622 0
49 -85 -619 0
49 -85 -620 0
49 -85 -621 0
49 -85 -622 0
49 -86 -619 0
49 -86 -620 0
49 -86 -621 0
49 -86 -622 0
49 -87 -619 0
49 -87 -620 0
49 -87 -621 0
49 -87 -622 0
49 -87 -623 0
49 -88 -620 0
49 -88 -621 0
49 -88 -622 0
49 -88 -623 0
49 -88 -624 0
49 -89 -621 0
49 -89 -622 0
49 -89 -623 0
49 -89 -624 0
49 -90 -622 0
49 -90 -623 0
49 -90 -624 0
49 -91 -623 0
49 -91 -624 0
49 -92 -623 0
49 -92 -624 0
49 -93 -623 0
49 -93 -624 0
49 -94 -623 0
49 -94 -624 0
49 -95 -623 0
49 -95 -624 0
49 -96 -623 0
49 -96 -624 0
49 -97 -623 0
49 -97 -624 0
49 -98 -623 0
49 -98 -624 0
49 -99 -623 0
49 -99 -624 0
49 -100 -624 0
49 -107 -199 0
49 -107 -200 0
49 -107 -201 0
49 -107 -202 0
49 -107 -203 0
49 -107 -204 0
49 -107 -205 0
49 -107 -206 0
49 -107 -207 0
49 -107 -208 0
49 -108 -199 0
49 -108 -200 0
49 -108 -201 0
49 -108 -202 0
49 -108 -203 0
49 -108 -204 0
49 -108 -205 0
49 -108 -206 0
49 -108 -207 0
49 -108 -208 0
49 -108 -209 0
49 -109 -199 0
49 -109 -200 0
49 -109 -201 0
49 -109 -202 0
49 -109 -203 0
49 -109 -204 0
49 -109 -205 0
49 -109 -206 0
49 -109 -207 0
49 -109 -208 0
49 -109 -209 0
49 -109 -210 0
49 -110 -199 0
49 -110 -200 0
49 -110 -201 0
49 -110 -202 0
49 -110 -203 0
49 -110 -204 0
49 -110 -205 0
49 -110 -206 0
49 -110 -207 0
49 -110 -208 0
49 -110 -209 0
49 -110 -210 0
49 -110 -211 0
49 -111 -199 0
49 -111 -200 0
49 -111 -201 0
49 -111 -202 0
49 -111 -203 0
49 -111 -204 0
49 -111 -205 0
49 -111 -206 0
49 -111 -207 0
49 -111 -208 0
49 -111 -209 0
49 -111 -210 0
49 -111 -211 0
49 -111 -212 0
49 -112 -199 0
49 -112 -200 0
49 -112 -201 0
49 -112 -202 0
49 -112 -203 0
49 -112 -204 0
49 -112 -205 0
49 -112 -206 0
49 -112 -207 0
49 -112 -208 0
49 -112 -209 0
49 -112 -210 0
49 -112 -211 0
49 -112 -212 0
49 -112 -213 0
49 -113 -199 0
49 -113 -200 0
49 -113 -201 0
49 -113 -202 0
49 -113 -203 0
49 -113 -204 0
49 -113 -205 0
49 -113 -206 0
49 -113 -207 0
49 -113 -208 0
49 -113 -209 0
49 -113 -210 0
49 -113 -211 0
49 -113 -212 0
49 -113 -213 0
49 -114 -199 0
49 -114 -200 0
49 -114 -201 0
49 -114 -202 0
49 -114 -203 0
49 -114 -204 0
49 -114 -205 0
49 -114 -206 0
49 -114 -207 0
49 -114 -208 0
49 -114 -209 0
49 -114 -210 0
49 -114 -211 0
49 -114 -212 0
49 -114 -213 0
49 -114 -214 0
49 -114 -215 0
49 -114 -216 0
49 -114 -217 0
49 -115 -200 0
49 -115 -201 0
49 -115 -202 0
49 -115 -203 0
49 -115 -204 0
49 -115 -205 0
49 -115 -206 0
49 -115 -207 0
49 -115 -208 0
49 -115 -209 0
49 -115 -210 0
49 -115 -211 0
49 -115 -212 0
49 -115 -213 0
49 -115 -214 0
49 -115 -215 0
49 -115 -216 0
49 -115 -217 0
49 -115 -218 0
49 -116 -201 0
49 -116 -202 0
49 -116 -203 0
49 -116 -204 0
49 -116 -205 0
49 -116 -206 0
49 -116 -207 0
49 -116 -208 0
49 -116 -209 0
49 -116 -210 0
49 -116 -211 0
49 -116 -212 0
49 -116 -213 0
49 -116 -214 0
49 -116 -215 0
49 -116 -216 0
49 -116 -217 0
49 -116 -218 0
49 -116 -219 0
49 -117 -202 0
49 -117 -203 0
49 -117 -204 0
49 -117 -205 0
49 -117 -206 0
49 -117 -207 0
49 -117 -208 0
49 -117 -209 0
49 -117 -210 0
49 -117 -211 0
49 -117 -212 0
49 -117 -213 0
49 -117 -214 0
49 -117 -215 0
49 -117 -216 0
49 -117 -217 0
49 -117 -218 0
49 -117 -219 0
49 -118 -203 0
49 -118 -204 0
49 -118 -205 0
49 -118 -206 0
49 -118 -207 0
49 -118 -208 0
49 -118 -209 0
49 -118 -210 0
49 -118 -211 0
49 -118 -212 0
49 -118 -213 0
49 -118 -214 0
49 -118 -215 0
49 -118 -216 0
49 -118 -217 0
49 -118 -218 0
49 -118 -219 0
49 -119 -204 0
49 -119 -205 0
49 -119 -206 0
49 -119 -207 0
49 -119 -208 0
49 -119 -209 0
49 -119 -210 0
49 -119 -211 0
49 -119 -212 0
49 -119 -213 0
49 -119 -214 0
49 -119 -215 0
49 -119 -216 0
49 -119 -217 0
49 -119 -218 0
49 -119 -219 0
49 -120 -205 0
49 -120 -206 0
49 -120 -207 0
49 -120 -208 0
49 -120 -209 0
49 -120 -210 0
49 -120 -211 0
49 -120 -212 0
49 -120 -213 0
49 -120 -214 0
49 -120 -215 0
49 -120 -216 0
49 -120 -217 0
49 -120 -218 0
49 -120 -219 0
49 -121 -206 0
49 -121 -207 0
49 -121 -208 0
49 -121 -209 0
49 -121 -210 0
49 -121 -211 0
49 -121 -212 0
49 -121 -213 0
49 -121 -214 0
49 -121 -215 0
49 -121 -216 0
49 -121 -217 0
49 -121 -218 0
49 -121 -219 0
49 -122 -207 0
49 -122 -208 0
49 -122 -209 0
49 -122 -210 0
49 -122 -211 0
49 -122 -212 0
49 -122 -213 0
49 -122 -214 0
49 -122 -215 0
49 -122 -216 0
49 -122 -217 0
49 -122 -218 0
49 -122 -219 0
49 -123 -208 0
49 -123 -209 0
49 -123 -210 0
49 -123 -211 0
49 -123 -212 0
49 -123 -213 0
49 -123 -214 0
49 -123 -215 0
49 -123 -216 0
49 -123 -217 0
49 -123 -218 0
49 -123 -219 0
49 -124 -208 0
49 -124 -209 0
49 -124 -210 0
49 -124 -211 0
49 -124 -212 0
49 -124 -213 0
49 -124 -214 0
49 -124 -215 0
49 -124 -216 0
49 -124 -217 0
49 -124 -218 0
49 -124 -219 0
49 -125 -208 0
49 -125 -209 0
49 -125 -210 0
49 -125 -211 0
49 -125 -212 0
49 -125 -213 0
49 -125 -214 0
49 -125 -215 0
49 -125 -216 0
49 -125 -217 0
49 -125 -218 0
49 -125 -219 0
49 -125 -220 0
49 -126 -208 0
49 -126 -209 0
49 -126 -210 0
49 -126 -211 0
49 -126 -212 0
49 -126 -213 0
49 -126 -214 0
49 -126 -215 0
49 -126 -216 0
49 -126 -217 0
49 -126 -218 0
49 -126 -219 0
49 -126 -220 0
49 -126 -221 0
49 -127 -208 0
49 -127 -209 0
49 -127 -210 0
49 -127 -211 0
49 -127 -212 0
49 -127 -213 0
49 -127 -214 0
49 -127 -215 0
49 -127 -216 0
49 -127 -217 0
49 -127 -218 0
49 -127 -219 0
49 -127 -220 0
49 -127 -221 0
49 -127 -222 0
49 -128 -208 0
49 -128 -209 0
49 -128 -210 0
49 -128 -211 0
49 -128 -212 0
49 -128 -213 0
49 -128 -214 0
49 -128 -215 0
49 -128 -216 0
49 -128 -217 0
49 -128 -218 0
49 -128 -219 0
49 -128 -220 0
49 -128 -221 0
49 -128 -222 0
49 -128 -223 0
49 -129 -208 0
49 -129 -209 0
49 -129 -210 0
49 -129 -211 0
49 -129 -212 0
49 -129 -213 0
49 -129 -214 0
49 -129 -215 0
49 -129 -216 0
49 -129 -217 0
49 -129 -218 0
49 -129 -219 0
49 -129 -220 0
49 -129 -221 0
49 -129 -222 0
49 -129 -223 0
49 -129 -224 0
49 -130 -208 0
49 -130 -209 0
49 -130 -210 0
49 -130 -211 0
49 -130 -212 0
49 -130 -213 0
49 -130 -214 0
49 -130 -215 0
49 -130 -216 0
49 -130 -217 0
49 -130 -218 0
49 -130 -219 0
49 -130 -220 0
49 -130 -221 0
49 -130 -222 0
49 -130 -223 0
49 -130 -224 0
49 -130 -225 0
49 -131 -208 0
49 -131 -209 0
49 -131 -210 0
49 -131 -211 0
49 -131 -212 0
49 -131 -213 0
49 -131 -214 0
49 -131 -215 0
49 -131 -216 0
49 -131 -217 0
49 -131 -218 0
49 -131 -219 0
49 -131 -220 0
49 -131 -221 0
49 -131 -222 0
49 -131 -223 0
49 -131 -224 0
49 -131 -225 0
49 -131 -226 0
49 -132 -209 0
49 -132 -210 0
49 -132 -211 0
49 -132 -212 0
49 -132 -213 0
49 -132 -214 0
49 -132 -215 0
49 -132 -216 0
49 -132 -217 0
49 -132 -218 0
49 -132 -219 0
49 -132 -220 0
49 -132 -221 0
49 -132 -222 0
49 -132 -223 0
49 -132 -224 0
49 -132 -225 0
49 -132 -226 0
49 -132 -227 0
49 -133 -210 0
49 -133 -211 0
49 -133 -212 0
49 -133 -213 0
49 -133 -214 0
49 -133 -215 0
49 -133 -216 0
49 -133 -217 0
49 -133 -218 0
49 -133 -219 0
49 -133 -220 0
49 -133 -221 0
49 -133 -222 0
49 -133 -223 0
49 -133 -224 0
49 -133 -225 0
49 -133 -226 0
49 -133 -227 0
49 -133 -228 0
49 -134 -211 0
49 -134 -212 0
49 -134 -213 0
49 -134 -214 0
49 -134 -215 0
49 -134 -216 0
49 -134 -217 0
49 -134 -218 0
49 -134 -219 0
49 -134 -220 0
49 -134 -221 0
49 -134 -222 0
49 -134 -223 0
49 -134 -224 0
49 -134 -225 0
49 -134 -226 0
49 -134 -227 0
49 -134 -228 0
49 -135 -214 0
49 -135 -215 0
49 -135 -216 0
49 -135 -217 0
49 -135 -218 0
49 -135 -219 0
49 -135 -220 0
49 -135 -221 0
49 -135 -222 0
49 -135 -223 0
49 -135 -224 0
49 -135 -225 0
49 -135 -226 0
49 -135 -227 0
49 -135 -228 0
49 -136 -214 0
49 -136 -215 0
49 -136 -216 0
49 -136 -217 0
49 -136 -218 0
49 -136 -219 0
49 -136 -220 0
49 -136 -221 0
49 -136 -222 0
49 -136 -223 0
49 -136 -224 0
49 -136 -225 0
49 -136 -226 0
49 -136 -227 0
49 -136 -228 0
49 -137 -215 0
49 -137 -216 0
49 -137 -217 0
49 -137 -218 0
49 -137 -219 0
49 -137 -220 0
49 -137 -221 0
49 -137 -222 0
49 -137 -223 0
49 -137 -224 0
49 -137 -225 0
49 -137 -226 0
49 -137 -227 0
49 -137 -228 0
49 -138 -216 0
49 -138 -217 0
49 -138 -218 0
49 -138 -219 0
49 -138 -220 0
49 -138 -221 0
49 -138 -222 0
49 -138 -223 0
49 -138 -224 0
49 -138 -225 0
49 -138 -226 0
49 -138 -227 0
49 -138 -228 0
49 -139 -217 0
49 -139 -218 0
49 -139 -219 0
49 -139 -220 0
49 -139 -221 0
49 -139 -222 0
49 -139 -223 0
49 -139 -224 0
49 -139 -225 0
49 -139 -226 0
49 -139 -227 0
49 -139 -228 0
49 -140 -218 0
49 -140 -219 0
49 -140 -220 0
49 -140 -221 0
49 -140 -222 0
49 -140 -223 0
49 -140 -224 0
49 -140 -225 0
49 -140 -226 0
49 -140 -227 0
49 -140 -228 0
49 -141 -219 0
49 -141 -220 0
49 -141 -221 0
49 -141 -222 0
49 -141 -223 0
49 -141 -224 0
49 -141 -225 0
49 -141 -226 0
49 -141 -227 0
49 -141 -228 0
49 -142 -220 0
49 -142 -221 0
49 -142 -222 0
49 -142 -223 0
49 -142 -224 0
49 -142 -225 0
49 -142 -226 0
49 -142 -227 0
49 -142 -228 0
49 -107 -229 0
49 -108 -230 0
49 -109 -231 0
49 -110 -232 0
49 -111 -233 0
49 -112 -234 0
49 -114 -235 0
49 -115 -236 0
49 -116 -237 0
49 -117 -238 0
49 -118 -239 0
49 -119 -240 0
49 -120 -241 0
49 -121 -242 0
49 -122 -243 0
49 -125 -244 0
49 -126 -245 0
49 -127 -246 0
49 -128 -247 0
49 -129 -248 0
49 -130 -249 0
49 -131 -250 0
49 -132 -251 0
49 -133 -252 0
49 -136 -253 0
49 -137 -254 0
49 -138 -255 0
49 -139 -256 0
49 -140 -257 0
49 -141 -258 0
49 -107 -613 0
49 -107 -614 0
49 -107 -615 0
49 -107 -616 0
49 -108 -613 0
49 -108 -614 0
49 -108 -615 0
49 -108 -616 0
49 -109 -613 0
49 -109 -614 0
49 -109 -615 0
49 -109 -616 0
49 -110 -613 0
49 -110 -614 0
49 -110 -615 0
49 -110 -616 0
49 -111 -613 0
49 -111 -614 0
49 -111 -615 0
49 -111 -616 0
49 -112 -613 0
49 -112 -614 0
49 -112 -615 0
49 -112 -616 0
49 -113 -613 0
49 -113 -614 0
49 -113 -615 0
49 -113 -616 0
49 -114 -613 0
49 -114 -614 0
49 -114 -615 0
49 -114 -616 0
49 -115 -613 0
49 -115 -614 0
49 -115 -615 0
49 -115 -616 0
49 -116 -613 0
49 -116 -614 0
49 -116 -615 0
49 -116 -616 0
49 -117 -613 0
49 -117 -614 0
49 -117 -615 0
49 -117 -616 0
49 -118 -614 0
49 -118 -615 0
49 -118 -616 0
49 -119 -615 0
49 -119 -616 0
49 -120 -616 0
49 -129 -617 0
49 -130 -617 0
49 -130 -618 0
49 -131 -617 0
49 -131 -618 0
49 -132 -617 0
49 -132 -618 0
49 -133 -617 0
49 -133 -618 0
49 -134 -617 0
49 -134 -618 0
49 -135 -617 0
49 -135 -618 0
49 -136 -617 0
49 -136 -618 0
49 -137 -617 0
49 -137 -618 0
49 -138 -617 0
49 -138 -618 0
49 -139 -617 0
49 -139 -618 0
49 -140 -617 0
49 -140 -618 0
49 -141 -617 0
49 -141 -618 0
49 -142 -617 0
49 -142 -618 0
49 -114 -619 0
49 -114 -620 0
49 -114 -621 0
49 -114 -622 0
49 -115 -619 0
49 -115 -620 0
49 -115 -621 0
49 -115 -622 0
49 -116 -619 0
49 -116 -620 0
49 -116 -621 0
49 -116 -622 0
49 -117 -619 0
49 -117 -620 0
49 -117 -621 0
49 -117 -622 0
49 -118 -620 0
49 -118 -621 0
49 -118 -622 0
49 -119 -621 0
49 -119 -622 0
49 -120 -622 0
49 -129 -623 0
49 -130 -623 0
49 -130 -624 0
49 -131 -623 0
49 -131 -624 0
49 -132 -623 0
49 -132 -624 0
49 -133 -623 0
49 -133 -624 0
49 -134 -623 0
49 -134 -624 0
49 -143 154 0
49 -144 155 0
49 -145 156 0
49 -146 157 0
49 -147 158 0
49 -148 159 0
49 -149 160 0
49 -150 161 0
49 -151 162 0
49 -152 163 0
49 -153 164 0
49 -147 -168 0
49 -148 -168 0
49 -149 -168 0
49 -143 -170 0
49 -144 -170 0
49 -145 -170 0
49 -146 -170 0
49 -147 -170 0
49 -148 -170 0
49 -149 -170 0
49 -150 -170 0
49 -151 -170 0
49 -152 -170 0
49 -165 166 0
49 -167 169 0
49 -168 170 0
49 -168 -443 0
49 -168 -444 0
49 -168 -445 0
49 -168 -446 0
49 -168 -447 0
49 -168 -448 0
49 -168 -449 0
49 -168 -450 0
49 -168 -451 0
49 -168 -452 0
49 -170 -443 0
49 -170 -444 0
49 -170 -445 0
49 -170 -446 0
49 -170 -447 0
49 -170 -448 0
49 -170 -449 0
49 -170 -450 0
49 -170 -451 0
49 -171 172 0
49 -173 174 0
49 -175 176 0
49 -177 178 0
49 -179 180 0
49 -181 184 0
49 -182 185 0
49 -183 186 0
49 -187 188 0
49 -189 190 0
49 -191 192 0
49 -193 194 0
49 -195 196 0
49 -197 198 0
49 -199 235 0
49 -200 236 0
49 -201 237 0
49 -202 238 0
49 -203 239 0
49 -204 240 0
49 -205 241 0
49 -206 242 0
49 -207 243 0
49 -208 229 0
49 -209 230 0
49 -210 231 0
49 -211 232 0
49 -212 233 0
49 -213 234 0
49 -214 253 0
49 -215 254 0
49 -216 255 0
49 -217 256 0
49 -218 257 0
49 -219 258 0
49 -220 244 0
49 -221 245 0
49 -222 246 0
49 -223 247 0
49 -224 248 0
49 -225 249 0
49 -226 250 0
49 -227 251 0
49 -228 252 0
49 -199 -613 0
49 -199 -614 0
49 -199 -615 0
49 -200 -613 0
49 -200 -614 0
49 -200 -615 0
49 -200 -616 0
49 -201 -613 0
49 -201 -614 0
49 -201 -615 0
49 -201 -616 0
49 -202 -614 0
49 -202 -615 0
49 -202 -616 0
49 -203 -615 0
49 -203 -616 0
49 -204 -616 0
49 -225 -617 0
49 -226 -617 0
49 -226 -618 0
49 -227 -617 0
49 -227 -618 0
49 -228 -617 0
49 -228 -618 0
49 -203 -619 0
49 -204 -619 0
49 -204 -620 0
49 -205 -619 0
49 -205 -620 0
49 -205 -621 0
49 -206 -619 0
49 -206 -620 0
49 -206 -621 0
49 -206 -622 0
49 -207 -619 0
49 -207 -620 0
49 -207 -621 0
49 -207 -622 0
49 -208 -619 0
49 -208 -620 0
49 -208 -621 0
49 -208 -622 0
49 -209 -619 0
49 -209 -620 0
49 -209 -621 0
49 -209 -622 0
49 -210 -619 0
49 -210 -620 0
49 -210 -621 0
49 -210 -622 0
49 -211 -619 0
49 -211 -620 0
49 -211 -621 0
49 -211 -622 0
49 -212 -619 0
49 -212 -620 0
49 -212 -621 0
49 -212 -622 0
49 -213 -619 0
49 -213 -620 0
49 -213 -621 0
49 -213 -622 0
49 -213 -623 0
49 -214 -620 0
49 -214 -621 0
49 -214 -622 0
49 -214 -623 0
49 -214 -624 0
49 -215 -621 0
49 -215 -622 0
49 -215 -623 0
49 -215 -624 0
49 -216 -622 0
49 -216 -623 0
49 -216 -624 0
49 -217 -623 0
49 -217 -624 0
49 -218 -623 0
49 -218 -624 0
49 -219 -623 0
49 -219 -624 0
49 -220 -623 0
49 -220 -624 0
49 -221 -623 0
49 -221 -624 0
49 -222 -623 0
49 -222 -624 0
49 -223 -623 0
49 -223 -624 0
49 -224 -624 0
49 -229 -613 0
49 -229 -614 0
49 -229 -615 0
49 -229 -616 0
49 -230 -613 0
49 -230 -614 0
49 -230 -615 0
49 -230 -616 0
49 -231 -613 0
49 -231 -614 0
49 -231 -615 0
49 -231 -616 0
49 -232 -613 0
49 -232 -614 0
49 -232 -615 0
49 -232 -616 0
49 -233 -613 0
49 -233 -614 0
49 -233 -615 0
49 -233 -616 0
49 -234 -613 0
49 -234 -614 0
49 -234 -615 0
49 -234 -616 0
49 -235 -613 0
49 -235 -614 0
49 -235 -615 0
49 -235 -616 0
49 -236 -613 0
49 -236 -614 0
49 -236 -615 0
49 -236 -616 0
49 -237 -613 0
49 -237 -614 0
49 -237 -615 0
49 -237 -616 0
49 -238 -614 0
49 -238 -615 0
49 -238 -616 0
49 -239 -615 0
49 -239 -616 0
49 -240 -616 0
49 -249 -617 0
49 -250 -617 0
49 -250 -618 0
49 -251 -617 0
49 -251 -618 0
49 -252 -617 0
49 -252 -618 0
49 -253 -617 0
49 -253 -618 0
49 -254 -617 0
49 -254 -618 0
49 -255 -617 0
49 -255 -618 0
49 -256 -617 0
49 -256 -618 0
49 -257 -617 0
49 -257 -618 0
49 -258 -617 0
49 -258 -618 0
49 -235 -619 0
49 -235 -620 0
49 -235 -621 0
49 -236 -619 0
49 -236 -620 0
49 -236 -621 0
49 -236 -622 0
49 -237 -619 0
49 -237 -620 0
49 -237 -621 0
49 -237 -622 0
49 -238 -620 0
49 -238 -621 0
49 -238 -622 0
49 -239 -621 0
49 -239 -622 0
49 -240 -622 0
49 -249 -623 0
49 -250 -623 0
49 -250 -624 0
49 -251 -623 0
49 -251 -624 0
49 -252 -623 0
49 -252 -624 0
49 -259 262 0
49 -260 263 0
49 -261 264 0
49 -265 266 0
49 -267 268 0
49 -269 280 0
49 -270 281 0
49 -271 282 0
49 -272 283 0
49 -273 284 0
49 -274 285 0
49 -275 286 0
49 -276 287 0
49 -277 288 0
49 -278 289 0
49 -279 290 0
49 -291 292 0
49 -293 294 0
49 -295 296 0
49 -297 298 0
49 -299 300 0
49 -301 302 0
49 -303 306 0
49 -304 307 0
49 -305 308 0
49 -309 310 0
49 -311 312 0
49 -313 317 0
49 -314 318 0
49 -315 319 0
49 -316 320 0
49 -314 -495 0
49 -314 -496 0
49 -314 -497 0
49 -314 -498 0
49 -314 -499 0
49 -314 -500 0
49 -314 -501 0
49 -314 -502 0
49 -314 -503 0
49 -314 -504 0
49 -315 -496 0
49 -315 -497 0
49 -315 -498 0
49 -315 -499 0
49 -315 -500 0
49 -315 -501 0
49 -315 -502 0
49 -315 -503 0
49 -315 -504 0
49 -316 -497 0
49 -316 -498 0
49 -316 -499 0
49 -316 -500 0
49 -316 -501 0
49 -316 -502 0
49 -316 -503 0
49 -316 -504 0
49 -315 -516 0
49 -316 -516 0
49 -316 -517 0
49 -314 -522 0
49 -314 -523 0
49 -314 -524 0
49 -315 -523 0
49 -315 -524 0
49 -316 -524 0
49 -314 -601 0
49 -314 -602 0
49 -314 -603 0
49 -314 -604 0
49 -314 -605 0
49 -314 -606 0
49 -315 -602 0
49 -315 -603 0
49 -315 -604 0
49 -315 -605 0
49 -315 -606 0
49 -316 -603 0
49 -316 -604 0
49 -316 -605 0
49 -316 -606 0
49 -318 -483 0
49 -318 -484 0
49 -318 -485 0
49 -318 -486 0
49 -318 -487 0
49 -318 -488 0
49 -318 -489 0
49 -318 -490 0
49 -319 -483 0
49 -319 -484 0
49 -319 -485 0
49 -319 -486 0
49 -319 -487 0
49 -319 -488 0
49 -319 -489 0
49 -319 -490 0
49 -319 -491 0
49 -320 -483 0
49 -320 -484 0
49 -320 -485 0
49 -320 -486 0
49 -320 -487 0
49 -320 -488 0
49 -320 -489 0
49 -320 -490 0
49 -320 -491 0
49 -320 -492 0
49 -318 -495 0
49 -318 -496 0
49 -318 -497 0
49 -318 -498 0
49 -318 -499 0
49 -318 -500 0
49 -318 -501 0
49 -319 -496 0
49 -319 -497 0
49 -319 -498 0
49 -319 -499 0
49 -319 -500 0
49 -319 -501 0
49 -319 -502 0
49 -320 -497 0
49 -320 -498 0
49 -320 -499 0
49 -320 -500 0
49 -320 -501 0
49 -320 -502 0
49 -320 -503 0
49 -319 -516 0
49 -320 -516 0
49 -320 -517 0
49 -319 -521 0
49 -320 -521 0
49 -320 -522 0
49 -321 324 0
49 -322 325 0
49 -323 326 0
49 -327 328 0
49 -329 330 0
49 -331 332 0
49 -333 334 0
49 -335 336 0
49 -337 338 0
49 -339 340 0
49 -341 342 0
49 -343 354 0
49 -344 355 0
49 -345 356 0
49 -346 357 0
49 -347 358 0
49 -348 359 0
49 -349 360 0
49 -350 361 0
49 -351 362 0
49 -352 363 0
49 -353 364 0
49 -365 366 0
49 -367 368 0
49 -369 370 0
49 -371 382 0
49 -372 383 0
49 -373 384 0
49 -374 385 0
49 -375 386 0
49 -376 387 0
49 -377 388 0
49 -378 389 0
49 -379 390 0
49 -380 391 0
49 -381 392 0
49 -393 394 0
49 -395 396 0
49 -397 400 0
49 -398 401 0
49 -399 402 0
49 -403 404 0
49 -405 406 0
49 -407 409 0
49 -408 410 0
49 -411 412 0
49 -413 414 0
49 -415 416 0
49 -417 418 0
49 -419 420 0
49 -421 422 0
49 -423 424 0
49 -425 426 0
49 -427 428 0
49 -429 430 0
49 -431 442 0
49 -432 443 0
49 -433 444 0
49 -434 445 0
49 -435 446 0
49 -436 447 0
49 -437 448 0
49 -438 449 0
49 -439 450 0
49 -440 451 0
49 -441 452 0
49 -444 -617 0
49 -445 -617 0
49 -445 -618 0
49 -446 -617 0
49 -446 -618 0
49 -447 -617 0
49 -447 -618 0
49 -448 -617 0
49 -448 -618 0
49 -449 -617 0
49 -449 -618 0
49 -450 -617 0
49 -450 -618 0
49 -451 -617 0
49 -451 -618 0
49 -452 -617 0
49 -452 -618 0
49 -443 -623 0
49 -444 -623 0
49 -444 -624 0
49 -445 -623 0
49 -445 -624 0
49 -446 -623 0
49 -446 -624 0
49 -447 -623 0
49 -447 -624 0
49 -448 -623 0
49 -448 -624 0
49 -449 -623 0
49 -449 -624 0
49 -450 -623 0
49 -450 -624 0
49 -451 -623 0
49 -451 -624 0
49 -452 -623 0
49 -452 -624 0
49 -453 464 0
49 -454 465 0
49 -455 466 0
49 -456 467 0
49 -457 468 0
49 -458 469 0
49 -459 470 0
49 -460 471 0
49 -461 472 0
49 -462 473 0
49 -463 474 0
49 -475 476 0
49 -477 478 0
49 -479 480 0
49 -481 482 0
49 -483 494 0
49 -484 495 0
49 -485 496 0
49 -486 497 0
49 -487 498 0
49 -488 499 0
49 -489 500 0
49 -490 501 0
49 -491 502 0
49 -492 503 0
49 -493 504 0
49 -488 -516 0
49 -489 -516 0
49 -489 -517 0
49 -490 -516 0
49 -490 -517 0
49 -490 -518 0
49 -491 -516 0
49 -491 -517 0
49 -491 -518 0
49 -491 -519 0
49 -492 -516 0
49 -492 -517 0
49 -492 -518 0
49 -492 -519 0
49 -493 -517 0
49 -493 -518 0
49 -493 -519 0
49 -483 -600 0
49 -483 -601 0
49 -483 -602 0
49 -483 -603 0
49 -483 -604 0
49 -483 -605 0
49 -483 -606 0
49 -484 -600 0
49 -484 -601 0
49 -484 -602 0
49 -484 -603 0
49 -484 -604 0
49 -484 -605 0
49 -484 -606 0
49 -485 -600 0
49 -485 -601 0
49 -485 -602 0
49 -485 -603 0
49 -485 -604 0
49 -485 -605 0
49 -485 -606 0
49 -486 -600 0
49 -486 -601 0
49 -486 -602 0
49 -486 -603 0
49 -486 -604 0
49 -486 -605 0
49 -486 -606 0
49 -487 -601 0
49 -487 -602 0
49 -487 -603 0
49 -487 -604 0
49 -487 -605 0
49 -487 -606 0
49 -488 -602 0
49 -488 -603 0
49 -488 -604 0
49 -488 -605 0
49 -488 -606 0
49 -489 -603 0
49 -489 -604 0
49 -489 -605 0
49 -489 -606 0
49 -490 -604 0
49 -490 -605 0
49 -490 -606 0
49 -491 -605 0
49 -491 -606 0
49 -492 -606 0
49 -495 -521 0
49 -496 -521 0
49 -496 -522 0
49 -497 -521 0
49 -497 -522 0
49 -497 -523 0
49 -498 -521 0
49 -498 -522 0
49 -498 -523 0
49 -498 -524 0
49 -499 -521 0
49 -499 -522 0
49 -499 -523 0
49 -499 -524 0
49 -500 -521 0
49 -500 -522 0
49 -500 -523 0
49 -500 -524 0
49 -501 -521 0
49 -501 -522 0
49 -501 -523 0
49 -501 -524 0
49 -502 -521 0
49 -502 -522 0
49 -502 -523 0
49 -502 -524 0
49 -503 -521 0
49 -503 -522 0
49 -503 -523 0
49 -503 -524 0
49 -504 -521 0
49 -504 -522 0
49 -504 -523 0
49 -504 -524 0
49 -495 -592 0
49 -496 -592 0
49 -496 -593 0
49 -497 -592 0
49 -497 -593 0
49 -497 -594 0
49 -498 -592 0
49 -498 -593 0
49 -498 -594 0
49 -498 -595 0
49 -499 -592 0
49 -499 -593 0
49 -499 -594 0
49 -499 -595 0
49 -499 -596 0
49 -500 -592 0
49 -500 -593 0
49 -500 -594 0
49 -500 -595 0
49 -500 -596 0
49 -500 -597 0
49 -501 -592 0
49 -501 -593 0
49 -501 -594 0
49 -501 -595 0
49 -501 -596 0
49 -501 -597 0
49 -501 -598 0
49 -502 -592 0
49 -502 -593 0
49 -502 -594 0
49 -502 -595 0
49 -502 -596 0
49 -502 -597 0
49 -502 -598 0
49 -503 -592 0
49 -503 -593 0
49 -503 -594 0
49 -503 -595 0
49 -503 -596 0
49 -503 -597 0
49 -503 -598 0
49 -504 -592 0
49 -504 -593 0
49 -504 -594 0
49 -504 -595 0
49 -504 -596 0
49 -504 -597 0
49 -504 -598 0
49 -495 -600 0
49 -496 -600 0
49 -496 -601 0
49 -497 -600 0
49 -497 -601 0
49 -497 -602 0
49 -498 -601 0
49 -498 -602 0
49 -498 -603 0
49 -499 -602 0
49 -499 -603 0
49 -499 -604 0
49 -500 -603 0
49 -500 -604 0
49 -500 -605 0
49 -501 -604 0
49 -501 -605 0
49 -501 -606 0
49 -502 -605 0
49 -502 -606 0
49 -503 -606 0
49 -505 506 0
49 -507 508 0
49 -509 510 0
49 -511 513 0
49 -512 514 0
49 -515 520 0
49 -516 521 0
49 -517 522 0
49 -518 523 0
49 -519 524 0
49 -516 -601 0
49 -516 -602 0
49 -516 -603 0
49 -516 -604 0
49 -516 -605 0
49 -516 -606 0
49 -517 -602 0
49 -517 -603 0
49 -517 -604 0
49 -517 -605 0
49 -517 -606 0
49 -518 -603 0
49 -518 -604 0
49 -518 -605 0
49 -518 -606 0
49 -519 -604 0
49 -519 -605 0
49 -519 -606 0
49 -522 -592 0
49 -523 -592 0
49 -523 -593 0
49 -524 -592 0
49 -524 -593 0
49 -524 -594 0
49 -521 -601 0
49 -521 -602 0
49 -521 -603 0
49 -521 -604 0
49 -521 -605 0
49 -521 -606 0
49 -522 -602 0
49 -522 -603 0
49 -522 -604 0
49 -522 -605 0
49 -522 -606 0
49 -523 -603 0
49 -523 -604 0
49 -523 -605 0
49 -523 -606 0
49 -524 -604 0
49 -524 -605 0
49 -524 -606 0
49 -525 526 0
49 -527 528 0
49 -529 533 0
49 -530 534 0
49 -531 535 0
49 -532 536 0
49 -530 -544 0
49 -530 -545 0
49 -530 -546 0
49 -530 -547 0
49 -530 -548 0
49 -530 -549 0
49 -530 -550 0
49 -530 -551 0
49 -531 -545 0
49 -531 -546 0
49 -531 -547 0
49 -531 -548 0
49 -531 -549 0
49 -531 -550 0
49 -531 -551 0
49 -532 -546 0
49 -532 -547 0
49 -532 -548 0
49 -532 -549 0
49 -532 -550 0
49 -532 -551 0
49 -530 -554 0
49 -530 -555 0
49 -530 -556 0
49 -530 -557 0
49 -530 -558 0
49 -530 -559 0
49 -530 -560 0
49 -530 -561 0
49 -530 -562 0
49 -531 -555 0
49 -531 -556 0
49 -531 -557 0
49 -531 -558 0
49 -531 -559 0
49 -531 -560 0
49 -531 -561 0
49 -531 -562 0
49 -532 -556 0
49 -532 -557 0
49 -532 -558 0
49 -532 -559 0
49 -532 -560 0
49 -532 -561 0
49 -532 -562 0
49 -530 -564 0
49 -530 -565 0
49 -531 -564 0
49 -531 -565 0
49 -532 -564 0
49 -532 -565 0
49 -530 -567 0
49 -530 -568 0
49 -531 -567 0
49 -531 -568 0
49 -532 -567 0
49 -532 -568 0
49 -534 -567 0
49 -534 -568 0
49 -535 -567 0
49 -535 -568 0
49 -536 -567 0
49 -536 -568 0
49 -537 538 0
49 -539 540 0
49 -541 552 0
49 -542 553 0
49 -543 554 0
49 -544 555 0
49 -545 556 0
49 -546 557 0
49 -547 558 0
49 -548 559 0
49 -549 560 0
49 -550 561 0
49 -551 562 0
49 -563 566 0
49 -564 567 0
49 -565 568 0
49 -569 570 0
49 -571 572 0
49 -573 574 0
49 -575 576 0
49 -577 578 0
49 -579 580 0
49 -581 582 0
49 -583 584 0
49 -585 586 0
49 -587 588 0
49 -589 590 0
49 -591 599 0
49 -592 600 0
49 -593 601 0
49 -594 602 0
49 -595 603 0
49 -596 604 0
49 -597 605 0
49 -598 606 0
49 -607 608 0
49 -609 610 0
49 -611 612 0
49 -613 619 0
49 -614 620 0
49 -615 621 0
49 -616 622 0
49 -617 623 0
49 -618 624 0
49 -1 2442 0
49 -2 2455 0
49 -3 2442 0
49 -4 2455 0
49 -5 2437 0
49 -6 2438 0
49 -7 2439 0
49 -8 2440 0
49 -9 2441 0
49 -10 2442 0
49 -11 2443 0
49 -12 2444 0
49 -13 2445 0
49 -14 2446 0
49 -15 2447 0
49 -16 2450 0
49 -17 2451 0
49 -18 2452 0
49 -19 2453 0
49 -20 2454 0
49 -21 2469 0
49 -22 2470 0
49 -23 2471 0
49 -24 2472 0
49 -25 2473 0
49 -26 2474 0
49 -27 2475 0
49 -28 2476 0
49 -29 2477 0
49 -30 2478 0
49 -31 2479 0
49 -32 2480 0
49 -33 2481 0
49 -34 2482 0
49 -35 2483 0
49 -36 2484 0
49 -37 2437 0
49 -38 2438 0
49 -39 2439 0
49 -40 2440 0
49 -41 2441 0
49 -42 2450 0
49 -43 2451 0
49 -44 2452 0
49 -45 2453 0
49 -46 2454 0
49 -47 2455 0
49 -48 2456 0
49 -49 2457 0
49 -50 2458 0
49 -51 2459 0
49 -52 2460 0
49 -53 2462 0
49 -54 2463 0
49 -55 2464 0
49 -56 2465 0
49 -57 2466 0
49 -58 2468 0
49 -59 2469 0
49 -60 2470 0
49 -61 2471 0
49 -62 2472 0
49 -63 2473 0
49 -64 2480 0
49 -65 2481 0
49 -66 2482 0
49 -67 2483 0
49 -68 2484 0
49 -69 2447 0
49 -70 2460 0
49 -71 2438 0
49 -72 2439 0
49 -73 2440 0
49 -74 2441 0
49 -75 2442 0
49 -76 2443 0
49 -77 2444 0
49 -78 2445 0
49 -79 2446 0
49 -80 2447 0
49 -81 2451 0
49 -82 2452 0
49 -83 2453 0
49 -84 2454 0
49 -85 2455 0
49 -86 2456 0
49 -87 2457 0
49 -88 2465 0
49 -89 2466 0
49 -90 2468 0
49 -91 2469 0
49 -92 2470 0
49 -93 2471 0
49 -94 2472 0
49 -95 2473 0
49 -96 2474 0
49 -97 2475 0
49 -98 2476 0
49 -99 2477 0
49 -100 2478 0
49 -101 2479 0
49 -102 2480 0
49 -103 2481 0
49 -104 2482 0
49 -105 2483 0
49 -106 2484 0
49 -107 2438 0
49 -108 2439 0
49 -109 2440 0
49 -110 2441 0
49 -111 2442 0
49 -112 2443 0
49 -113 2444 0
49 -114 2451 0
49 -115 2452 0
49 -116 2453 0
49 -117 2454 0
49 -118 2455 0
49 -119 2456 0
49 -120 2457 0
49 -121 2458 0
49 -122 2459 0
49 -123 2460 0
49 -124 2462 0
49 -125 2463 0
49 -126 2464 0
49 -127 2465 0
49 -128 2466 0
49 -129 2468 0
49 -130 2469 0
49 -131 2470 0
49 -132 2471 0
49 -133 2472 0
49 -134 2473 0
49 -135 2477 0
49 -136 2478 0
49 -137 2479 0
49 -138 2480 0
49 -139 2481 0
49 -140 2482 0
49 -141 2483 0
49 -142 2484 0
49 -143 2474 0
49 -144 2475 0
49 -145 2476 0
49 -146 2477 0
49 -147 2478 0
49 -148 2479 0
49 -149 2480 0
49 -150 2481 0
49 -151 2482 0
49 -152 2483 0
49 -153 2484 0
49 -154 2462 0
49 -155 2463 0
49 -156 2464 0
49 -157 2465 0
49 -158 2466 0
49 -159 2468 0
49 -160 2469 0
49 -161 2470 0
49 -162 2471 0
49 -163 2472 0
49 -164 2473 0
49 -165 2442 0
49 -166 2455 0
49 -167 2444 0
49 -168 2479 0
49 -169 2457 0
49 -170 2468 0
49 -171 2447 0
49 -172 2460 0
49 -173 2443 0
49 -174 2456 0
49 -175 2447 0
49 -176 2460 0
49 -177 2442 0
49 -178 2455 0
49 -179 2443 0
49 -180 2456 0
49 -181 2474 0
49 -182 2483 0
49 -183 2484 0
49 -184 2462 0
49 -185 2472 0
49 -186 2473 0
49 -187 2448 0
49 -188 2461 0
49 -189 2445 0
49 -190 2458 0
49 -191 2441 0
49 -192 2454 0
49 -193 2447 0
49 -194 2460 0
49 -195 2445 0
49 -196 2458 0
49 -197 2443 0
49 -198 2456 0
49 -199 2438 0
49 -200 2439 0
49 -201 2440 0
49 -202 2441 0
49 -203 2442 0
49 -204 2443 0
49 -205 2444 0
49 -206 2445 0
49 -207 2446 0
49 -208 2451 0
49 -209 2452 0
49 -210 2453 0
49 -211 2454 0
49 -212 2455 0
49 -213 2456 0
49 -214 2466 0
49 -215 2468 0
49 -216 2469 0
49 -217 2470 0
49 -218 2471 0
49 -219 2472 0
49 -220 2475 0
49 -221 2476 0
49 -222 2477 0
49 -223 2478 0
49 -224 2479 0
49 -225 2480 0
49 -226 2481 0
49 -227 2482 0
49 -228 2483 0
49 -229 2438 0
49 -230 2439 0
49 -231 2440 0
49 -232 2441 0
49 -233 2442 0
49 -234 2443 0
49 -235 2451 0
49 -236 2452 0
49 -237 2453 0
49 -238 2454 0
49 -239 2455 0
49 -240 2456 0
49 -241 2457 0
49 -242 2458 0
49 -243 2459 0
49 -244 2463 0
49 -245 2464 0
49 -246 2465 0
49 -247 2466 0
49 -248 2468 0
49 -249 2469 0
49 -250 2470 0
49 -251 2471 0
49 -252 2472 0
49 -253 2478 0
49 -254 2479 0
49 -255 2480 0
49 -256 2481 0
49 -257 2482 0
49 -258 2483 0
49 -259 2474 0
49 -260 2483 0
49 -261 2484 0
49 -262 2462 0
49 -263 2472 0
49 -264 2473 0
49 -265 2448 0
49 -266 2461 0
49 -267 2441 0
49 -268 2454 0
49 -269 2474 0
49 -270 2475 0
49 -271 2476 0
49 -272 2477 0
49 -273 2478 0
49 -274 2479 0
49 -275 2480 0
49 -276 2481 0
49 -277 2482 0
49 -278 2483 0
49 -279 2484 0
49 -280 2462 0
49 -281 2463 0
49 -282 2464 0
49 -283 2465 0
49 -284 2466 0
49 -285 2468 0
49 -286 2469 0
49 -287 2470 0
49 -288 2471 0
49 -289 2472 0
49 -290 2473 0
49 -291 2443 0
49 -292 2456 0
49 -293 2446 0
49 -294 2459 0
49 -295 2442 0
49 -296 2455 0
49 -297 2447 0
49 -298 2460 0
49 -299 2448 0
49 -300 2461 0
49 -301 2444 0
49 -302 2457 0
49 -303 2474 0
49 -304 2483 0
49 -305 2484 0
49 -306 2462 0
49 -307 2472 0
49 -308 2473 0
49 -309 2449 0
49 -310 2467 0
49 -311 2443 0
49 -312 2456 0
49 -313 2445 0
49 -314 2478 0
49 -315 2479 0
49 -316 2480 0
49 -317 2458 0
49 -318 2466 0
49 -319 2468 0
49 -320 2469 0
49 -321 2474 0
49 -322 2483 0
49 -323 2484 0
49 -324 2462 0
49 -325 2472 0
49 -326 2473 0
49 -327 2446 0
49 -328 2459 0
49 -329 2441 0
49 -330 2454 0
49 -331 2445 0
49 -332 2458 0
49 -333 2441 0
49 -334 2454 0
49 -335 2445 0
49 -336 2458 0
49 -337 2441 0
49 -338 2454 0
49 -339 2448 0
49 -340 2461 0
49 -341 2445 0
49 -342 2458 0
49 -343 2474 0
49 -344 2475 0
49 -345 2476 0
49 -346 2477 0
49 -347 2478 0
49 -348 2479 0
49 -349 2480 0
49 -350 2481 0
49 -351 2482 0
49 -352 2483 0
49 -353 2484 0
49 -354 2462 0
49 -355 2463 0
49 -356 2464 0
49 -357 2465 0
49 -358 2466 0
49 -359 2468 0
49 -360 2469 0
49 -361 2470 0
49 -362 2471 0
49 -363 2472 0
49 -364 2473 0
49 -365 2448 0
49 -366 2461 0
49 -367 2449 0
49 -368 2467 0
49 -369 2447 0
49 -370 2460 0
49 -371 2474 0
49 -372 2475 0
49 -373 2476 0
49 -374 2477 0
49 -375 2478 0
49 -376 2479 0
49 -377 2480 0
49 -378 2481 0
49 -379 2482 0
49 -380 2483 0
49 -381 2484 0
49 -382 2462 0
49 -383 2463 0
49 -384 2464 0
49 -385 2465 0
49 -386 2466 0
49 -387 2468 0
49 -388 2469 0
49 -389 2470 0
49 -390 2471 0
49 -391 2472 0
49 -392 2473 0
49 -393 2444 0
49 -394 2457 0
49 -395 2441 0
49 -396 2454 0
49 -397 2474 0
49 -398 2483 0
49 -399 2484 0
49 -400 2462 0
49 -401 2472 0
49 -402 2473 0
49 -403 2441 0
49 -404 2454 0
49 -405 2447 0
49 -406 2460 0
49 -407 2474 0
49 -408 2484 0
49 -409 2462 0
49 -410 2473 0
49 -411 2448 0
49 -412 2461 0
49 -413 2441 0
49 -414 2454 0
49 -415 2443 0
49 -416 2456 0
49 -417 2441 0
49 -418 2454 0
49 -419 2443 0
49 -420 2456 0
49 -421 2441 0
49 -422 2454 0
49 -423 2442 0
49 -424 2455 0
49 -425 2441 0
49 -426 2454 0
49 -427 2445 0
49 -428 2458 0
49 -429 2441 0
49 -430 2454 0
49 -431 2474 0
49 -432 2475 0
49 -433 2476 0
49 -434 2477 0
49 -435 2478 0
49 -436 2479 0
49 -437 2480 0
49 -438 2481 0
49 -439 2482 0
49 -440 2483 0
49 -441 2484 0
49 -442 2462 0
49 -443 2463 0
49 -444 2464 0
49 -445 2465 0
49 -446 2466 0
49 -447 2468 0
49 -448 2469 0
49 -449 2470 0
49 -450 2471 0
49 -451 2472 0
49 -452 2473 0
49 -453 2474 0
49 -454 2475 0
49 -455 2476 0
49 -456 2477 0
49 -457 2478 0
49 -458 2479 0
49 -459 2480 0
49 -460 2481 0
49 -461 2482 0
49 -462 2483 0
49 -463 2484 0
49 -464 2462 0
49 -465 2463 0
49 -466 2464 0
49 -467 2465 0
49 -468 2466 0
49 -469 2468 0
49 -470 2469 0
49 -471 2470 0
49 -472 2471 0
49 -473 2472 0
49 -474 2473 0
49 -475 2448 0
49 -476 2461 0
49 -477 2442 0
49 -478 2455 0
49 -479 2445 0
49 -480 2458 0
49 -481 2447 0
49 -482 2460 0
49 -483 2474 0
49 -484 2475 0
49 -485 2476 0
49 -486 2477 0
49 -487 2478 0
49 -488 2479 0
49 -489 2480 0
49 -490 2481 0
49 -491 2482 0
49 -492 2483 0
49 -493 2484 0
49 -494 2462 0
49 -495 2463 0
49 -496 2464 0
49 -497 2465 0
49 -498 2466 0
49 -499 2468 0
49 -500 2469 0
49 -501 2470 0
49 -502 2471 0
49 -503 2472 0
49 -504 2473 0
49 -505 2449 0
49 -506 2467 0
49 -507 2441 0
49 -508 2454 0
49 -509 2444 0
49 -510 2457 0
49 -511 2474 0
49 -512 2484 0
49 -513 2462 0
49 -514 2473 0
49 -515 2442 0
49 -516 2481 0
49 -517 2482 0
49 -518 2483 0
49 -519 2484 0
49 -520 2455 0
49 -521 2470 0
49 -522 2471 0
49 -523 2472 0
49 -524 2473 0
49 -525 2444 0
49 -526 2457 0
49 -527 2444 0
49 -528 2457 0
49 -529 2442 0
49 -530 2482 0
49 -531 2483 0
49 -532 2484 0
49 -533 2455 0
49 -534 2471 0
49 -535 2472 0
49 -536 2473 0
49 -537 2441 0
49 -538 2454 0
49 -539 2442 0
49 -540 2455 0
49 -541 2474 0
49 -542 2475 0
49 -543 2476 0
49 -544 2477 0
49 -545 2478 0
49 -546 2479 0
49 -547 2480 0
49 -548 2481 0
49 -549 2482 0
49 -550 2483 0
49 -551 2484 0
49 -552 2462 0
49 -553 2463 0
49 -554 2464 0
49 -555 2465 0
49 -556 2466 0
49 -557 2468 0
49 -558 2469 0
49 -559 2470 0
49 -560 2471 0
49 -561 2472 0
49 -562 2473 0
49 -563 2474 0
49 -564 2483 0
49 -565 2484 0
49 -566 2462 0
49 -567 2472 0
49 -568 2473 0
49 -569 2449 0
49 -570 2467 0
49 -571 2449 0
49 -572 2467 0
49 -573 2443 0
49 -574 2456 0
49 -575 2441 0
49 -576 2454 0
49 -577 2442 0
49 -578 2455 0
49 -579 2442 0
49 -580 2455 0
49 -581 2446 0
49 -582 2459 0
49 -583 2446 0
49 -584 2459 0
49 -585 2441 0
49 -586 2454 0
49 -587 2449 0
49 -588 2467 0
49 -589 2449 0
49 -590 2467 0
49 -591 2447 0
49 -592 2476 0
49 -593 2477 0
49 -594 2478 0
49 -595 2479 0
49 -596 2480 0
49 -597 2481 0
49 -598 2482 0
49 -599 2460 0
49 -600 2464 0
49 -601 2465 0
49 -602 2466 0
49 -603 2468 0
49 -604 2469 0
49 -605 2470 0
49 -606 2471 0
49 -607 2448 0
49 -608 2461 0
49 -609 2448 0
49 -610 2461 0
49 -611 2447 0
49 -612 2460 0
49 -613 2438 0
49 -614 2439 0
49 -615 2440 0
49 -616 2441 0
49 -617 2482 0
49 -618 2483 0
49 -619 2451 0
49 -620 2452 0
49 -621 2453 0
49 -622 2454 0
49 -623 2471 0
49 -624 2472 0
