c Dataset: TUD916.2
c Encoding: DSE
c DecisionVars: 1180
c OrderVars: 0
c CardinalityAuxVars: 808
c LabelVars: 48
c TotalVars: 2036
c OrderClauses: 0
c CardinalityClauses: 2702
c DistanceClauses: 646
c LabelLinkClauses: 1180
c SoftClauses: 48
c HardClauses: 4528
c TotalClauses: 4576
p wcnf 2036 4576 49
1 -1989 0
1 -1990 0
1 -1991 0
1 -1992 0
1 -1993 0
1 -1994 0
1 -1995 0
1 -1996 0
1 -1997 0
1 -1998 0
1 -1999 0
1 -2000 0
1 -2001 0
1 -2002 0
1 -2003 0
1 -2004 0
1 -2005 0
1 -2006 0
1 -2007 0
1 -2008 0
1 -2009 0
1 -2010 0
1 -2011 0
1 -2012 0
1 -2013 0
1 -2014 0
1 -2015 0
1 -2016 0
1 -2017 0
1 -2018 0
1 -2019 0
1 -2020 0
1 -2021 0
1 -2022 0
1 -2023 0
1 -2024 0
1 -2025 0
1 -2026 0
1 -2027 0
1 -2028 0
1 -2029 0
1 -2030 0
1 -2031 0
1 -2032 0
1 -2033 0
1 -2034 0
1 -2035 0
1 -2036 0
49 1 0
49 2 0
49 3 0
49 4 0
49 5 0
49 6 0
49 7 0
49 8 0
49 9 0
49 10 0
49 11 0
49 12 0
49 13 0
49 14 0
49 15 16 17 18 19 20 21 22 23 24 25 0
49 -1198 1181 0
49 -1199 1182 0
49 -1200 1183 0
49 -1201 1184 0
49 -1202 1185 0
49 -1192 1181 0
49 -1193 1182 0
49 -1194 1183 0
49 -1195 1184 0
49 -1196 1185 0
49 -1197 1186 0
49 -1192 -1198 1182 0
49 -1192 -1199 1183 0
49 -1192 -1200 1184 0
49 -1192 -1201 1185 0
49 -1192 -1202 1186 0
49 -1193 -1198 1183 0
49 -1193 -1199 1184 0
49 -1193 -1200 1185 0
49 -1193 -1201 1186 0
49 -1193 -1202 1187 0
49 -1194 -1198 1184 0
49 -1194 -1199 1185 0
49 -1194 -1200 1186 0
49 -1194 -1201 1187 0
49 -1194 -1202 1188 0
49 -1195 -1198 1185 0
49 -1195 -1199 1186 0
49 -1195 -1200 1187 0
49 -1195 -1201 1188 0
49 -1195 -1202 1189 0
49 -1196 -1198 1186 0
49 -1196 -1199 1187 0
49 -1196 -1200 1188 0
49 -1196 -1201 1189 0
49 -1196 -1202 1190 0
49 -1197 -1198 1187 0
49 -1197 -1199 1188 0
49 -1197 -1200 1189 0
49 -1197 -1201 1190 0
49 -1197 -1202 1191 0
49 -1206 1198 0
49 -1207 1199 0
49 -1203 1198 0
49 -1204 1199 0
49 -1205 1200 0
49 -1203 -1206 1199 0
49 -1203 -1207 1200 0
49 -1204 -1206 1200 0
49 -1204 -1207 1201 0
49 -1205 -1206 1201 0
49 -1205 -1207 1202 0
49 -25 1206 0
49 -24 1206 0
49 -24 -25 1207 0
49 -23 1203 0
49 -1208 1203 0
49 -1209 1204 0
49 -1208 -23 1204 0
49 -1209 -23 1205 0
49 -22 1208 0
49 -21 1208 0
49 -21 -22 1209 0
49 -1213 1192 0
49 -1214 1193 0
49 -1215 1194 0
49 -1210 1192 0
49 -1211 1193 0
49 -1212 1194 0
49 -1210 -1213 1193 0
49 -1210 -1214 1194 0
49 -1210 -1215 1195 0
49 -1211 -1213 1194 0
49 -1211 -1214 1195 0
49 -1211 -1215 1196 0
49 -1212 -1213 1195 0
49 -1212 -1214 1196 0
49 -1212 -1215 1197 0
49 -20 1213 0
49 -1216 1213 0
49 -1217 1214 0
49 -1216 -20 1214 0
49 -1217 -20 1215 0
49 -19 1216 0
49 -18 1216 0
49 -18 -19 1217 0
49 -17 1210 0
49 -1218 1210 0
49 -1219 1211 0
49 -1218 -17 1211 0
49 -1219 -17 1212 0
49 -16 1218 0
49 -15 1218 0
49 -15 -16 1219 0
49 -1182 0
49 26 27 28 29 30 31 32 33 34 35 36 0
49 -1237 1220 0
49 -1238 1221 0
49 -1239 1222 0
49 -1240 1223 0
49 -1241 1224 0
49 -1231 1220 0
49 -1232 1221 0
49 -1233 1222 0
49 -1234 1223 0
49 -1235 1224 0
49 -1236 1225 0
49 -1231 -1237 1221 0
49 -1231 -1238 1222 0
49 -1231 -1239 1223 0
49 -1231 -1240 1224 0
49 -1231 -1241 1225 0
49 -1232 -1237 1222 0
49 -1232 -1238 1223 0
49 -1232 -1239 1224 0
49 -1232 -1240 1225 0
49 -1232 -1241 1226 0
49 -1233 -1237 1223 0
49 -1233 -1238 1224 0
49 -1233 -1239 1225 0
49 -1233 -1240 1226 0
49 -1233 -1241 1227 0
49 -1234 -1237 1224 0
49 -1234 -1238 1225 0
49 -1234 -1239 1226 0
49 -1234 -1240 1227 0
49 -1234 -1241 1228 0
49 -1235 -1237 1225 0
49 -1235 -1238 1226 0
49 -1235 -1239 1227 0
49 -1235 -1240 1228 0
49 -1235 -1241 1229 0
49 -1236 -1237 1226 0
49 -1236 -1238 1227 0
49 -1236 -1239 1228 0
49 -1236 -1240 1229 0
49 -1236 -1241 1230 0
49 -1245 1237 0
49 -1246 1238 0
49 -1242 1237 0
49 -1243 1238 0
49 -1244 1239 0
49 -1242 -1245 1238 0
49 -1242 -1246 1239 0
49 -1243 -1245 1239 0
49 -1243 -1246 1240 0
49 -1244 -1245 1240 0
49 -1244 -1246 1241 0
49 -36 1245 0
49 -35 1245 0
49 -35 -36 1246 0
49 -34 1242 0
49 -1247 1242 0
49 -1248 1243 0
49 -1247 -34 1243 0
49 -1248 -34 1244 0
49 -33 1247 0
49 -32 1247 0
49 -32 -33 1248 0
49 -1252 1231 0
49 -1253 1232 0
49 -1254 1233 0
49 -1249 1231 0
49 -1250 1232 0
49 -1251 1233 0
49 -1249 -1252 1232 0
49 -1249 -1253 1233 0
49 -1249 -1254 1234 0
49 -1250 -1252 1233 0
49 -1250 -1253 1234 0
49 -1250 -1254 1235 0
49 -1251 -1252 1234 0
49 -1251 -1253 1235 0
49 -1251 -1254 1236 0
49 -31 1252 0
49 -1255 1252 0
49 -1256 1253 0
49 -1255 -31 1253 0
49 -1256 -31 1254 0
49 -30 1255 0
49 -29 1255 0
49 -29 -30 1256 0
49 -28 1249 0
49 -1257 1249 0
49 -1258 1250 0
49 -1257 -28 1250 0
49 -1258 -28 1251 0
49 -27 1257 0
49 -26 1257 0
49 -26 -27 1258 0
49 -1221 0
49 37 38 39 40 0
49 -1265 1259 0
49 -1266 1260 0
49 -1263 1259 0
49 -1264 1260 0
49 -1263 -1265 1260 0
49 -1263 -1266 1261 0
49 -1264 -1265 1261 0
49 -1264 -1266 1262 0
49 -40 1265 0
49 -39 1265 0
49 -39 -40 1266 0
49 -38 1263 0
49 -37 1263 0
49 -37 -38 1264 0
49 -1260 0
49 41 42 43 44 0
49 -1273 1267 0
49 -1274 1268 0
49 -1271 1267 0
49 -1272 1268 0
49 -1271 -1273 1268 0
49 -1271 -1274 1269 0
49 -1272 -1273 1269 0
49 -1272 -1274 1270 0
49 -44 1273 0
49 -43 1273 0
49 -43 -44 1274 0
49 -42 1271 0
49 -41 1271 0
49 -41 -42 1272 0
49 -1268 0
49 45 0
49 46 0
49 47 0
49 48 0
49 49 0
49 50 0
49 51 0
49 52 0
49 53 0
49 54 0
49 55 0
49 56 0
49 57 0
49 58 0
49 59 60 61 62 63 64 65 66 67 68 69 70 0
49 -1293 1275 0
49 -1294 1276 0
49 -1295 1277 0
49 -1296 1278 0
49 -1297 1279 0
49 -1298 1280 0
49 -1287 1275 0
49 -1288 1276 0
49 -1289 1277 0
49 -1290 1278 0
49 -1291 1279 0
49 -1292 1280 0
49 -1287 -1293 1276 0
49 -1287 -1294 1277 0
49 -1287 -1295 1278 0
49 -1287 -1296 1279 0
49 -1287 -1297 1280 0
49 -1287 -1298 1281 0
49 -1288 -1293 1277 0
49 -1288 -1294 1278 0
49 -1288 -1295 1279 0
49 -1288 -1296 1280 0
49 -1288 -1297 1281 0
49 -1288 -1298 1282 0
49 -1289 -1293 1278 0
49 -1289 -1294 1279 0
49 -1289 -1295 1280 0
49 -1289 -1296 1281 0
49 -1289 -1297 1282 0
49 -1289 -1298 1283 0
49 -1290 -1293 1279 0
49 -1290 -1294 1280 0
49 -1290 -1295 1281 0
49 -1290 -1296 1282 0
49 -1290 -1297 1283 0
49 -1290 -1298 1284 0
49 -1291 -1293 1280 0
49 -1291 -1294 1281 0
49 -1291 -1295 1282 0
49 -1291 -1296 1283 0
49 -1291 -1297 1284 0
49 -1291 -1298 1285 0
49 -1292 -1293 1281 0
49 -1292 -1294 1282 0
49 -1292 -1295 1283 0
49 -1292 -1296 1284 0
49 -1292 -1297 1285 0
49 -1292 -1298 1286 0
49 -1302 1293 0
49 -1303 1294 0
49 -1304 1295 0
49 -1299 1293 0
49 -1300 1294 0
49 -1301 1295 0
49 -1299 -1302 1294 0
49 -1299 -1303 1295 0
49 -1299 -1304 1296 0
49 -1300 -1302 1295 0
49 -1300 -1303 1296 0
49 -1300 -1304 1297 0
49 -1301 -1302 1296 0
49 -1301 -1303 1297 0
49 -1301 -1304 1298 0
49 -70 1302 0
49 -1305 1302 0
49 -1306 1303 0
49 -1305 -70 1303 0
49 -1306 -70 1304 0
49 -69 1305 0
49 -68 1305 0
49 -68 -69 1306 0
49 -67 1299 0
49 -1307 1299 0
49 -1308 1300 0
49 -1307 -67 1300 0
49 -1308 -67 1301 0
49 -66 1307 0
49 -65 1307 0
49 -65 -66 1308 0
49 -1312 1287 0
49 -1313 1288 0
49 -1314 1289 0
49 -1309 1287 0
49 -1310 1288 0
49 -1311 1289 0
49 -1309 -1312 1288 0
49 -1309 -1313 1289 0
49 -1309 -1314 1290 0
49 -1310 -1312 1289 0
49 -1310 -1313 1290 0
49 -1310 -1314 1291 0
49 -1311 -1312 1290 0
49 -1311 -1313 1291 0
49 -1311 -1314 1292 0
49 -64 1312 0
49 -1315 1312 0
49 -1316 1313 0
49 -1315 -64 1313 0
49 -1316 -64 1314 0
49 -63 1315 0
49 -62 1315 0
49 -62 -63 1316 0
49 -61 1309 0
49 -1317 1309 0
49 -1318 1310 0
49 -1317 -61 1310 0
49 -1318 -61 1311 0
49 -60 1317 0
49 -59 1317 0
49 -59 -60 1318 0
49 -1276 0
49 71 72 73 74 75 76 77 78 79 80 81 82 0
49 -1337 1319 0
49 -1338 1320 0
49 -1339 1321 0
49 -1340 1322 0
49 -1341 1323 0
49 -1342 1324 0
49 -1331 1319 0
49 -1332 1320 0
49 -1333 1321 0
49 -1334 1322 0
49 -1335 1323 0
49 -1336 1324 0
49 -1331 -1337 1320 0
49 -1331 -1338 1321 0
49 -1331 -1339 1322 0
49 -1331 -1340 1323 0
49 -1331 -1341 1324 0
49 -1331 -1342 1325 0
49 -1332 -1337 1321 0
49 -1332 -1338 1322 0
49 -1332 -1339 1323 0
49 -1332 -1340 1324 0
49 -1332 -1341 1325 0
49 -1332 -1342 1326 0
49 -1333 -1337 1322 0
49 -1333 -1338 1323 0
49 -1333 -1339 1324 0
49 -1333 -1340 1325 0
49 -1333 -1341 1326 0
49 -1333 -1342 1327 0
49 -1334 -1337 1323 0
49 -1334 -1338 1324 0
49 -1334 -1339 1325 0
49 -1334 -1340 1326 0
49 -1334 -1341 1327 0
49 -1334 -1342 1328 0
49 -1335 -1337 1324 0
49 -1335 -1338 1325 0
49 -1335 -1339 1326 0
49 -1335 -1340 1327 0
49 -1335 -1341 1328 0
49 -1335 -1342 1329 0
49 -1336 -1337 1325 0
49 -1336 -1338 1326 0
49 -1336 -1339 1327 0
49 -1336 -1340 1328 0
49 -1336 -1341 1329 0
49 -1336 -1342 1330 0
49 -1346 1337 0
49 -1347 1338 0
49 -1348 1339 0
49 -1343 1337 0
49 -1344 1338 0
49 -1345 1339 0
49 -1343 -1346 1338 0
49 -1343 -1347 1339 0
49 -1343 -1348 1340 0
49 -1344 -1346 1339 0
49 -1344 -1347 1340 0
49 -1344 -1348 1341 0
49 -1345 -1346 1340 0
49 -1345 -1347 1341 0
49 -1345 -1348 1342 0
49 -82 1346 0
49 -1349 1346 0
49 -1350 1347 0
49 -1349 -82 1347 0
49 -1350 -82 1348 0
49 -81 1349 0
49 -80 1349 0
49 -80 -81 1350 0
49 -79 1343 0
49 -1351 1343 0
49 -1352 1344 0
49 -1351 -79 1344 0
49 -1352 -79 1345 0
49 -78 1351 0
49 -77 1351 0
49 -77 -78 1352 0
49 -1356 1331 0
49 -1357 1332 0
49 -1358 1333 0
49 -1353 1331 0
49 -1354 1332 0
49 -1355 1333 0
49 -1353 -1356 1332 0
49 -1353 -1357 1333 0
49 -1353 -1358 1334 0
49 -1354 -1356 1333 0
49 -1354 -1357 1334 0
49 -1354 -1358 1335 0
49 -1355 -1356 1334 0
49 -1355 -1357 1335 0
49 -1355 -1358 1336 0
49 -76 1356 0
49 -1359 1356 0
49 -1360 1357 0
49 -1359 -76 1357 0
49 -1360 -76 1358 0
49 -75 1359 0
49 -74 1359 0
49 -74 -75 1360 0
49 -73 1353 0
49 -1361 1353 0
49 -1362 1354 0
49 -1361 -73 1354 0
49 -1362 -73 1355 0
49 -72 1361 0
49 -71 1361 0
49 -71 -72 1362 0
49 -1320 0
49 83 0
49 84 0
49 85 0
49 86 0
49 87 0
49 88 0
49 89 0
49 90 0
49 91 0
49 92 0
49 93 0
49 94 0
49 95 0
49 96 0
49 97 0
49 98 0
49 99 0
49 100 0
49 101 0
49 102 0
49 103 0
49 104 0
49 105 0
49 106 0
49 107 0
49 108 0
49 109 0
49 110 0
49 111 0
49 112 0
49 113 0
49 114 0
49 115 0
49 116 0
49 117 0
49 118 0
49 119 0
49 120 0
49 121 122 123 124 125 0
49 -1371 1363 0
49 -1372 1364 0
49 -1368 1363 0
49 -1369 1364 0
49 -1370 1365 0
49 -1368 -1371 1364 0
49 -1368 -1372 1365 0
49 -1369 -1371 1365 0
49 -1369 -1372 1366 0
49 -1370 -1371 1366 0
49 -1370 -1372 1367 0
49 -125 1371 0
49 -124 1371 0
49 -124 -125 1372 0
49 -123 1368 0
49 -1373 1368 0
49 -1374 1369 0
49 -1373 -123 1369 0
49 -1374 -123 1370 0
49 -122 1373 0
49 -121 1373 0
49 -121 -122 1374 0
49 -1364 0
49 126 127 128 129 130 0
49 -1383 1375 0
49 -1384 1376 0
49 -1380 1375 0
49 -1381 1376 0
49 -1382 1377 0
49 -1380 -1383 1376 0
49 -1380 -1384 1377 0
49 -1381 -1383 1377 0
49 -1381 -1384 1378 0
49 -1382 -1383 1378 0
49 -1382 -1384 1379 0
49 -130 1383 0
49 -129 1383 0
49 -129 -130 1384 0
49 -128 1380 0
49 -1385 1380 0
49 -1386 1381 0
49 -1385 -128 1381 0
49 -1386 -128 1382 0
49 -127 1385 0
49 -126 1385 0
49 -126 -127 1386 0
49 -1376 0
49 131 0
49 132 0
49 133 0
49 134 0
49 135 136 137 138 0
49 -1393 1387 0
49 -1394 1388 0
49 -1391 1387 0
49 -1392 1388 0
49 -1391 -1393 1388 0
49 -1391 -1394 1389 0
49 -1392 -1393 1389 0
49 -1392 -1394 1390 0
49 -138 1393 0
49 -137 1393 0
49 -137 -138 1394 0
49 -136 1391 0
49 -135 1391 0
49 -135 -136 1392 0
49 -1388 0
49 139 140 141 142 0
49 -1401 1395 0
49 -1402 1396 0
49 -1399 1395 0
49 -1400 1396 0
49 -1399 -1401 1396 0
49 -1399 -1402 1397 0
49 -1400 -1401 1397 0
49 -1400 -1402 1398 0
49 -142 1401 0
49 -141 1401 0
49 -141 -142 1402 0
49 -140 1399 0
49 -139 1399 0
49 -139 -140 1400 0
49 -1396 0
49 143 0
49 144 0
49 145 0
49 146 0
49 147 0
49 148 0
49 149 0
49 150 0
49 151 0
49 152 0
49 153 154 155 0
49 -155 1403 0
49 -1406 1403 0
49 -1407 1404 0
49 -1406 -155 1404 0
49 -1407 -155 1405 0
49 -154 1406 0
49 -153 1406 0
49 -153 -154 1407 0
49 -1404 0
49 156 157 158 0
49 -158 1408 0
49 -1411 1408 0
49 -1412 1409 0
49 -1411 -158 1409 0
49 -1412 -158 1410 0
49 -157 1411 0
49 -156 1411 0
49 -156 -157 1412 0
49 -1409 0
49 159 0
49 160 0
49 161 162 163 164 165 166 167 0
49 -1424 1413 0
49 -1425 1414 0
49 -1426 1415 0
49 -1420 1413 0
49 -1421 1414 0
49 -1422 1415 0
49 -1423 1416 0
49 -1420 -1424 1414 0
49 -1420 -1425 1415 0
49 -1420 -1426 1416 0
49 -1421 -1424 1415 0
49 -1421 -1425 1416 0
49 -1421 -1426 1417 0
49 -1422 -1424 1416 0
49 -1422 -1425 1417 0
49 -1422 -1426 1418 0
49 -1423 -1424 1417 0
49 -1423 -1425 1418 0
49 -1423 -1426 1419 0
49 -167 1424 0
49 -1427 1424 0
49 -1428 1425 0
49 -1427 -167 1425 0
49 -1428 -167 1426 0
49 -166 1427 0
49 -165 1427 0
49 -165 -166 1428 0
49 -1431 1420 0
49 -1432 1421 0
49 -1429 1420 0
49 -1430 1421 0
49 -1429 -1431 1421 0
49 -1429 -1432 1422 0
49 -1430 -1431 1422 0
49 -1430 -1432 1423 0
49 -164 1431 0
49 -163 1431 0
49 -163 -164 1432 0
49 -162 1429 0
49 -161 1429 0
49 -161 -162 1430 0
49 -1414 0
49 168 169 170 171 172 173 174 0
49 -1444 1433 0
49 -1445 1434 0
49 -1446 1435 0
49 -1440 1433 0
49 -1441 1434 0
49 -1442 1435 0
49 -1443 1436 0
49 -1440 -1444 1434 0
49 -1440 -1445 1435 0
49 -1440 -1446 1436 0
49 -1441 -1444 1435 0
49 -1441 -1445 1436 0
49 -1441 -1446 1437 0
49 -1442 -1444 1436 0
49 -1442 -1445 1437 0
49 -1442 -1446 1438 0
49 -1443 -1444 1437 0
49 -1443 -1445 1438 0
49 -1443 -1446 1439 0
49 -174 1444 0
49 -1447 1444 0
49 -1448 1445 0
49 -1447 -174 1445 0
49 -1448 -174 1446 0
49 -173 1447 0
49 -172 1447 0
49 -172 -173 1448 0
49 -1451 1440 0
49 -1452 1441 0
49 -1449 1440 0
49 -1450 1441 0
49 -1449 -1451 1441 0
49 -1449 -1452 1442 0
49 -1450 -1451 1442 0
49 -1450 -1452 1443 0
49 -171 1451 0
49 -170 1451 0
49 -170 -171 1452 0
49 -169 1449 0
49 -168 1449 0
49 -168 -169 1450 0
49 -1434 0
49 175 0
49 176 0
49 177 0
49 178 0
49 179 0
49 180 0
49 181 0
49 182 0
49 183 0
49 184 0
49 185 0
49 186 0
49 187 0
49 188 0
49 189 0
49 190 0
49 191 0
49 192 0
49 193 0
49 194 0
49 195 0
49 196 0
49 197 0
49 198 0
49 199 0
49 200 0
49 201 0
49 202 0
49 203 0
49 204 0
49 205 0
49 206 0
49 207 208 0
49 -207 -208 0
49 209 210 0
49 -209 -210 0
49 211 0
49 212 0
49 213 0
49 214 0
49 215 0
49 216 0
49 217 218 219 220 221 0
49 -1461 1453 0
49 -1462 1454 0
49 -1458 1453 0
49 -1459 1454 0
49 -1460 1455 0
49 -1458 -1461 1454 0
49 -1458 -1462 1455 0
49 -1459 -1461 1455 0
49 -1459 -1462 1456 0
49 -1460 -1461 1456 0
49 -1460 -1462 1457 0
49 -221 1461 0
49 -220 1461 0
49 -220 -221 1462 0
49 -219 1458 0
49 -1463 1458 0
49 -1464 1459 0
49 -1463 -219 1459 0
49 -1464 -219 1460 0
49 -218 1463 0
49 -217 1463 0
49 -217 -218 1464 0
49 -1454 0
49 222 223 224 225 226 0
49 -1473 1465 0
49 -1474 1466 0
49 -1470 1465 0
49 -1471 1466 0
49 -1472 1467 0
49 -1470 -1473 1466 0
49 -1470 -1474 1467 0
49 -1471 -1473 1467 0
49 -1471 -1474 1468 0
49 -1472 -1473 1468 0
49 -1472 -1474 1469 0
49 -226 1473 0
49 -225 1473 0
49 -225 -226 1474 0
49 -224 1470 0
49 -1475 1470 0
49 -1476 1471 0
49 -1475 -224 1471 0
49 -1476 -224 1472 0
49 -223 1475 0
49 -222 1475 0
49 -222 -223 1476 0
49 -1466 0
49 227 0
49 228 0
49 229 0
49 230 0
49 231 0
49 232 0
49 233 0
49 234 0
49 235 0
49 236 0
49 237 0
49 238 0
49 239 0
49 240 0
49 241 0
49 242 0
49 243 0
49 244 0
49 245 0
49 246 0
49 247 0
49 248 0
49 249 0
49 250 0
49 251 0
49 252 0
49 253 254 255 256 257 258 259 0
49 -1488 1477 0
49 -1489 1478 0
49 -1490 1479 0
49 -1484 1477 0
49 -1485 1478 0
49 -1486 1479 0
49 -1487 1480 0
49 -1484 -1488 1478 0
49 -1484 -1489 1479 0
49 -1484 -1490 1480 0
49 -1485 -1488 1479 0
49 -1485 -1489 1480 0
49 -1485 -1490 1481 0
49 -1486 -1488 1480 0
49 -1486 -1489 1481 0
49 -1486 -1490 1482 0
49 -1487 -1488 1481 0
49 -1487 -1489 1482 0
49 -1487 -1490 1483 0
49 -259 1488 0
49 -1491 1488 0
49 -1492 1489 0
49 -1491 -259 1489 0
49 -1492 -259 1490 0
49 -258 1491 0
49 -257 1491 0
49 -257 -258 1492 0
49 -1495 1484 0
49 -1496 1485 0
49 -1493 1484 0
49 -1494 1485 0
49 -1493 -1495 1485 0
49 -1493 -1496 1486 0
49 -1494 -1495 1486 0
49 -1494 -1496 1487 0
49 -256 1495 0
49 -255 1495 0
49 -255 -256 1496 0
49 -254 1493 0
49 -253 1493 0
49 -253 -254 1494 0
49 -1478 0
49 260 261 262 263 264 265 266 0
49 -1508 1497 0
49 -1509 1498 0
49 -1510 1499 0
49 -1504 1497 0
49 -1505 1498 0
49 -1506 1499 0
49 -1507 1500 0
49 -1504 -1508 1498 0
49 -1504 -1509 1499 0
49 -1504 -1510 1500 0
49 -1505 -1508 1499 0
49 -1505 -1509 1500 0
49 -1505 -1510 1501 0
49 -1506 -1508 1500 0
49 -1506 -1509 1501 0
49 -1506 -1510 1502 0
49 -1507 -1508 1501 0
49 -1507 -1509 1502 0
49 -1507 -1510 1503 0
49 -266 1508 0
49 -1511 1508 0
49 -1512 1509 0
49 -1511 -266 1509 0
49 -1512 -266 1510 0
49 -265 1511 0
49 -264 1511 0
49 -264 -265 1512 0
49 -1515 1504 0
49 -1516 1505 0
49 -1513 1504 0
49 -1514 1505 0
49 -1513 -1515 1505 0
49 -1513 -1516 1506 0
49 -1514 -1515 1506 0
49 -1514 -1516 1507 0
49 -263 1515 0
49 -262 1515 0
49 -262 -263 1516 0
49 -261 1513 0
49 -260 1513 0
49 -260 -261 1514 0
49 -1498 0
49 267 0
49 268 0
49 269 0
49 270 0
49 271 0
49 272 0
49 273 0
49 274 0
49 275 0
49 276 0
49 277 0
49 278 0
49 279 0
49 280 0
49 281 0
49 282 0
49 283 0
49 284 0
49 285 0
49 286 0
49 287 0
49 288 0
49 289 0
49 290 0
49 291 0
49 292 0
49 293 294 0
49 -293 -294 0
49 295 296 0
49 -295 -296 0
49 297 0
49 298 0
49 299 0
49 300 0
49 301 0
49 302 0
49 303 0
49 304 0
49 305 0
49 306 0
49 307 0
49 308 0
49 309 0
49 310 0
49 311 0
49 312 0
49 313 0
49 314 0
49 315 0
49 316 0
49 317 0
49 318 0
49 319 0
49 320 0
49 321 0
49 322 0
49 323 0
49 324 0
49 325 326 0
49 -325 -326 0
49 327 328 0
49 -327 -328 0
49 329 0
49 330 0
49 331 0
49 332 0
49 333 0
49 334 0
49 335 0
49 336 0
49 337 0
49 338 0
49 339 0
49 340 0
49 341 0
49 342 0
49 343 0
49 344 0
49 345 0
49 346 0
49 347 348 349 350 351 352 353 354 355 356 357 0
49 -1534 1517 0
49 -1535 1518 0
49 -1536 1519 0
49 -1537 1520 0
49 -1538 1521 0
49 -1528 1517 0
49 -1529 1518 0
49 -1530 1519 0
49 -1531 1520 0
49 -1532 1521 0
49 -1533 1522 0
49 -1528 -1534 1518 0
49 -1528 -1535 1519 0
49 -1528 -1536 1520 0
49 -1528 -1537 1521 0
49 -1528 -1538 1522 0
49 -1529 -1534 1519 0
49 -1529 -1535 1520 0
49 -1529 -1536 1521 0
49 -1529 -1537 1522 0
49 -1529 -1538 1523 0
49 -1530 -1534 1520 0
49 -1530 -1535 1521 0
49 -1530 -1536 1522 0
49 -1530 -1537 1523 0
49 -1530 -1538 1524 0
49 -1531 -1534 1521 0
49 -1531 -1535 1522 0
49 -1531 -1536 1523 0
49 -1531 -1537 1524 0
49 -1531 -1538 1525 0
49 -1532 -1534 1522 0
49 -1532 -1535 1523 0
49 -1532 -1536 1524 0
49 -1532 -1537 1525 0
49 -1532 -1538 1526 0
49 -1533 -1534 1523 0
49 -1533 -1535 1524 0
49 -1533 -1536 1525 0
49 -1533 -1537 1526 0
49 -1533 -1538 1527 0
49 -1542 1534 0
49 -1543 1535 0
49 -1539 1534 0
49 -1540 1535 0
49 -1541 1536 0
49 -1539 -1542 1535 0
49 -1539 -1543 1536 0
49 -1540 -1542 1536 0
49 -1540 -1543 1537 0
49 -1541 -1542 1537 0
49 -1541 -1543 1538 0
49 -357 1542 0
49 -356 1542 0
49 -356 -357 1543 0
49 -355 1539 0
49 -1544 1539 0
49 -1545 1540 0
49 -1544 -355 1540 0
49 -1545 -355 1541 0
49 -354 1544 0
49 -353 1544 0
49 -353 -354 1545 0
49 -1549 1528 0
49 -1550 1529 0
49 -1551 1530 0
49 -1546 1528 0
49 -1547 1529 0
49 -1548 1530 0
49 -1546 -1549 1529 0
49 -1546 -1550 1530 0
49 -1546 -1551 1531 0
49 -1547 -1549 1530 0
49 -1547 -1550 1531 0
49 -1547 -1551 1532 0
49 -1548 -1549 1531 0
49 -1548 -1550 1532 0
49 -1548 -1551 1533 0
49 -352 1549 0
49 -1552 1549 0
49 -1553 1550 0
49 -1552 -352 1550 0
49 -1553 -352 1551 0
49 -351 1552 0
49 -350 1552 0
49 -350 -351 1553 0
49 -349 1546 0
49 -1554 1546 0
49 -1555 1547 0
49 -1554 -349 1547 0
49 -1555 -349 1548 0
49 -348 1554 0
49 -347 1554 0
49 -347 -348 1555 0
49 -1518 0
49 358 359 360 361 362 363 364 365 366 367 368 0
49 -1573 1556 0
49 -1574 1557 0
49 -1575 1558 0
49 -1576 1559 0
49 -1577 1560 0
49 -1567 1556 0
49 -1568 1557 0
49 -1569 1558 0
49 -1570 1559 0
49 -1571 1560 0
49 -1572 1561 0
49 -1567 -1573 1557 0
49 -1567 -1574 1558 0
49 -1567 -1575 1559 0
49 -1567 -1576 1560 0
49 -1567 -1577 1561 0
49 -1568 -1573 1558 0
49 -1568 -1574 1559 0
49 -1568 -1575 1560 0
49 -1568 -1576 1561 0
49 -1568 -1577 1562 0
49 -1569 -1573 1559 0
49 -1569 -1574 1560 0
49 -1569 -1575 1561 0
49 -1569 -1576 1562 0
49 -1569 -1577 1563 0
49 -1570 -1573 1560 0
49 -1570 -1574 1561 0
49 -1570 -1575 1562 0
49 -1570 -1576 1563 0
49 -1570 -1577 1564 0
49 -1571 -1573 1561 0
49 -1571 -1574 1562 0
49 -1571 -1575 1563 0
49 -1571 -1576 1564 0
49 -1571 -1577 1565 0
49 -1572 -1573 1562 0
49 -1572 -1574 1563 0
49 -1572 -1575 1564 0
49 -1572 -1576 1565 0
49 -1572 -1577 1566 0
49 -1581 1573 0
49 -1582 1574 0
49 -1578 1573 0
49 -1579 1574 0
49 -1580 1575 0
49 -1578 -1581 1574 0
49 -1578 -1582 1575 0
49 -1579 -1581 1575 0
49 -1579 -1582 1576 0
49 -1580 -1581 1576 0
49 -1580 -1582 1577 0
49 -368 1581 0
49 -367 1581 0
49 -367 -368 1582 0
49 -366 1578 0
49 -1583 1578 0
49 -1584 1579 0
49 -1583 -366 1579 0
49 -1584 -366 1580 0
49 -365 1583 0
49 -364 1583 0
49 -364 -365 1584 0
49 -1588 1567 0
49 -1589 1568 0
49 -1590 1569 0
49 -1585 1567 0
49 -1586 1568 0
49 -1587 1569 0
49 -1585 -1588 1568 0
49 -1585 -1589 1569 0
49 -1585 -1590 1570 0
49 -1586 -1588 1569 0
49 -1586 -1589 1570 0
49 -1586 -1590 1571 0
49 -1587 -1588 1570 0
49 -1587 -1589 1571 0
49 -1587 -1590 1572 0
49 -363 1588 0
49 -1591 1588 0
49 -1592 1589 0
49 -1591 -363 1589 0
49 -1592 -363 1590 0
49 -362 1591 0
49 -361 1591 0
49 -361 -362 1592 0
49 -360 1585 0
49 -1593 1585 0
49 -1594 1586 0
49 -1593 -360 1586 0
49 -1594 -360 1587 0
49 -359 1593 0
49 -358 1593 0
49 -358 -359 1594 0
49 -1557 0
49 369 0
49 370 0
49 371 0
49 372 0
49 373 0
49 374 0
49 375 0
49 376 0
49 377 378 379 380 381 382 383 384 0
49 -1607 1595 0
49 -1608 1596 0
49 -1609 1597 0
49 -1610 1598 0
49 -1603 1595 0
49 -1604 1596 0
49 -1605 1597 0
49 -1606 1598 0
49 -1603 -1607 1596 0
49 -1603 -1608 1597 0
49 -1603 -1609 1598 0
49 -1603 -1610 1599 0
49 -1604 -1607 1597 0
49 -1604 -1608 1598 0
49 -1604 -1609 1599 0
49 -1604 -1610 1600 0
49 -1605 -1607 1598 0
49 -1605 -1608 1599 0
49 -1605 -1609 1600 0
49 -1605 -1610 1601 0
49 -1606 -1607 1599 0
49 -1606 -1608 1600 0
49 -1606 -1609 1601 0
49 -1606 -1610 1602 0
49 -1613 1607 0
49 -1614 1608 0
49 -1611 1607 0
49 -1612 1608 0
49 -1611 -1613 1608 0
49 -1611 -1614 1609 0
49 -1612 -1613 1609 0
49 -1612 -1614 1610 0
49 -384 1613 0
49 -383 1613 0
49 -383 -384 1614 0
49 -382 1611 0
49 -381 1611 0
49 -381 -382 1612 0
49 -1617 1603 0
49 -1618 1604 0
49 -1615 1603 0
49 -1616 1604 0
49 -1615 -1617 1604 0
49 -1615 -1618 1605 0
49 -1616 -1617 1605 0
49 -1616 -1618 1606 0
49 -380 1617 0
49 -379 1617 0
49 -379 -380 1618 0
49 -378 1615 0
49 -377 1615 0
49 -377 -378 1616 0
49 -1596 0
49 385 386 387 388 389 390 391 392 0
49 -1631 1619 0
49 -1632 1620 0
49 -1633 1621 0
49 -1634 1622 0
49 -1627 1619 0
49 -1628 1620 0
49 -1629 1621 0
49 -1630 1622 0
49 -1627 -1631 1620 0
49 -1627 -1632 1621 0
49 -1627 -1633 1622 0
49 -1627 -1634 1623 0
49 -1628 -1631 1621 0
49 -1628 -1632 1622 0
49 -1628 -1633 1623 0
49 -1628 -1634 1624 0
49 -1629 -1631 1622 0
49 -1629 -1632 1623 0
49 -1629 -1633 1624 0
49 -1629 -1634 1625 0
49 -1630 -1631 1623 0
49 -1630 -1632 1624 0
49 -1630 -1633 1625 0
49 -1630 -1634 1626 0
49 -1637 1631 0
49 -1638 1632 0
49 -1635 1631 0
49 -1636 1632 0
49 -1635 -1637 1632 0
49 -1635 -1638 1633 0
49 -1636 -1637 1633 0
49 -1636 -1638 1634 0
49 -392 1637 0
49 -391 1637 0
49 -391 -392 1638 0
49 -390 1635 0
49 -389 1635 0
49 -389 -390 1636 0
49 -1641 1627 0
49 -1642 1628 0
49 -1639 1627 0
49 -1640 1628 0
49 -1639 -1641 1628 0
49 -1639 -1642 1629 0
49 -1640 -1641 1629 0
49 -1640 -1642 1630 0
49 -388 1641 0
49 -387 1641 0
49 -387 -388 1642 0
49 -386 1639 0
49 -385 1639 0
49 -385 -386 1640 0
49 -1620 0
49 393 0
49 394 0
49 395 0
49 396 0
49 397 398 399 0
49 -399 1643 0
49 -1646 1643 0
49 -1647 1644 0
49 -1646 -399 1644 0
49 -1647 -399 1645 0
49 -398 1646 0
49 -397 1646 0
49 -397 -398 1647 0
49 -1644 0
49 400 401 402 0
49 -402 1648 0
49 -1651 1648 0
49 -1652 1649 0
49 -1651 -402 1649 0
49 -1652 -402 1650 0
49 -401 1651 0
49 -400 1651 0
49 -400 -401 1652 0
49 -1649 0
49 403 0
49 404 0
49 405 0
49 406 0
49 407 0
49 408 0
49 409 0
49 410 0
49 411 0
49 412 0
49 413 0
49 414 0
49 415 0
49 416 0
49 417 418 419 420 0
49 -1659 1653 0
49 -1660 1654 0
49 -1657 1653 0
49 -1658 1654 0
49 -1657 -1659 1654 0
49 -1657 -1660 1655 0
49 -1658 -1659 1655 0
49 -1658 -1660 1656 0
49 -420 1659 0
49 -419 1659 0
49 -419 -420 1660 0
49 -418 1657 0
49 -417 1657 0
49 -417 -418 1658 0
49 -1654 0
49 421 422 423 424 0
49 -1667 1661 0
49 -1668 1662 0
49 -1665 1661 0
49 -1666 1662 0
49 -1665 -1667 1662 0
49 -1665 -1668 1663 0
49 -1666 -1667 1663 0
49 -1666 -1668 1664 0
49 -424 1667 0
49 -423 1667 0
49 -423 -424 1668 0
49 -422 1665 0
49 -421 1665 0
49 -421 -422 1666 0
49 -1662 0
49 425 0
49 426 0
49 427 0
49 428 0
49 429 430 431 432 433 434 435 0
49 -1680 1669 0
49 -1681 1670 0
49 -1682 1671 0
49 -1676 1669 0
49 -1677 1670 0
49 -1678 1671 0
49 -1679 1672 0
49 -1676 -1680 1670 0
49 -1676 -1681 1671 0
49 -1676 -1682 1672 0
49 -1677 -1680 1671 0
49 -1677 -1681 1672 0
49 -1677 -1682 1673 0
49 -1678 -1680 1672 0
49 -1678 -1681 1673 0
49 -1678 -1682 1674 0
49 -1679 -1680 1673 0
49 -1679 -1681 1674 0
49 -1679 -1682 1675 0
49 -435 1680 0
49 -1683 1680 0
49 -1684 1681 0
49 -1683 -435 1681 0
49 -1684 -435 1682 0
49 -434 1683 0
49 -433 1683 0
49 -433 -434 1684 0
49 -1687 1676 0
49 -1688 1677 0
49 -1685 1676 0
49 -1686 1677 0
49 -1685 -1687 1677 0
49 -1685 -1688 1678 0
49 -1686 -1687 1678 0
49 -1686 -1688 1679 0
49 -432 1687 0
49 -431 1687 0
49 -431 -432 1688 0
49 -430 1685 0
49 -429 1685 0
49 -429 -430 1686 0
49 -1670 0
49 436 437 438 439 440 441 442 0
49 -1700 1689 0
49 -1701 1690 0
49 -1702 1691 0
49 -1696 1689 0
49 -1697 1690 0
49 -1698 1691 0
49 -1699 1692 0
49 -1696 -1700 1690 0
49 -1696 -1701 1691 0
49 -1696 -1702 1692 0
49 -1697 -1700 1691 0
49 -1697 -1701 1692 0
49 -1697 -1702 1693 0
49 -1698 -1700 1692 0
49 -1698 -1701 1693 0
49 -1698 -1702 1694 0
49 -1699 -1700 1693 0
49 -1699 -1701 1694 0
49 -1699 -1702 1695 0
49 -442 1700 0
49 -1703 1700 0
49 -1704 1701 0
49 -1703 -442 1701 0
49 -1704 -442 1702 0
49 -441 1703 0
49 -440 1703 0
49 -440 -441 1704 0
49 -1707 1696 0
49 -1708 1697 0
49 -1705 1696 0
49 -1706 1697 0
49 -1705 -1707 1697 0
49 -1705 -1708 1698 0
49 -1706 -1707 1698 0
49 -1706 -1708 1699 0
49 -439 1707 0
49 -438 1707 0
49 -438 -439 1708 0
49 -437 1705 0
49 -436 1705 0
49 -436 -437 1706 0
49 -1690 0
49 443 0
49 444 0
49 445 0
49 446 0
49 447 448 449 0
49 -449 1709 0
49 -1712 1709 0
49 -1713 1710 0
49 -1712 -449 1710 0
49 -1713 -449 1711 0
49 -448 1712 0
49 -447 1712 0
49 -447 -448 1713 0
49 -1710 0
49 450 451 452 0
49 -452 1714 0
49 -1717 1714 0
49 -1718 1715 0
49 -1717 -452 1715 0
49 -1718 -452 1716 0
49 -451 1717 0
49 -450 1717 0
49 -450 -451 1718 0
49 -1715 0
49 453 454 0
49 -453 -454 0
49 455 456 0
49 -455 -456 0
49 457 0
49 458 0
49 459 0
49 460 0
49 461 0
49 462 0
49 463 0
49 464 0
49 465 0
49 466 0
49 467 0
49 468 0
49 469 0
49 470 0
49 471 0
49 472 0
49 473 0
49 474 0
49 475 0
49 476 0
49 477 478 0
49 -477 -478 0
49 479 480 0
49 -479 -480 0
49 481 0
49 482 0
49 483 0
49 484 0
49 485 0
49 486 0
49 487 0
49 488 0
49 489 0
49 490 0
49 491 0
49 492 0
49 493 0
49 494 0
49 495 496 497 498 499 500 0
49 -1728 1719 0
49 -1729 1720 0
49 -1730 1721 0
49 -1725 1719 0
49 -1726 1720 0
49 -1727 1721 0
49 -1725 -1728 1720 0
49 -1725 -1729 1721 0
49 -1725 -1730 1722 0
49 -1726 -1728 1721 0
49 -1726 -1729 1722 0
49 -1726 -1730 1723 0
49 -1727 -1728 1722 0
49 -1727 -1729 1723 0
49 -1727 -1730 1724 0
49 -500 1728 0
49 -1731 1728 0
49 -1732 1729 0
49 -1731 -500 1729 0
49 -1732 -500 1730 0
49 -499 1731 0
49 -498 1731 0
49 -498 -499 1732 0
49 -497 1725 0
49 -1733 1725 0
49 -1734 1726 0
49 -1733 -497 1726 0
49 -1734 -497 1727 0
49 -496 1733 0
49 -495 1733 0
49 -495 -496 1734 0
49 -1720 0
49 501 502 503 504 505 506 0
49 -1744 1735 0
49 -1745 1736 0
49 -1746 1737 0
49 -1741 1735 0
49 -1742 1736 0
49 -1743 1737 0
49 -1741 -1744 1736 0
49 -1741 -1745 1737 0
49 -1741 -1746 1738 0
49 -1742 -1744 1737 0
49 -1742 -1745 1738 0
49 -1742 -1746 1739 0
49 -1743 -1744 1738 0
49 -1743 -1745 1739 0
49 -1743 -1746 1740 0
49 -506 1744 0
49 -1747 1744 0
49 -1748 1745 0
49 -1747 -506 1745 0
49 -1748 -506 1746 0
49 -505 1747 0
49 -504 1747 0
49 -504 -505 1748 0
49 -503 1741 0
49 -1749 1741 0
49 -1750 1742 0
49 -1749 -503 1742 0
49 -1750 -503 1743 0
49 -502 1749 0
49 -501 1749 0
49 -501 -502 1750 0
49 -1736 0
49 507 0
49 508 0
49 509 0
49 510 0
49 511 0
49 512 0
49 513 0
49 514 0
49 515 0
49 516 0
49 517 0
49 518 0
49 519 0
49 520 0
49 521 0
49 522 0
49 523 524 525 526 527 528 529 0
49 -1762 1751 0
49 -1763 1752 0
49 -1764 1753 0
49 -1758 1751 0
49 -1759 1752 0
49 -1760 1753 0
49 -1761 1754 0
49 -1758 -1762 1752 0
49 -1758 -1763 1753 0
49 -1758 -1764 1754 0
49 -1759 -1762 1753 0
49 -1759 -1763 1754 0
49 -1759 -1764 1755 0
49 -1760 -1762 1754 0
49 -1760 -1763 1755 0
49 -1760 -1764 1756 0
49 -1761 -1762 1755 0
49 -1761 -1763 1756 0
49 -1761 -1764 1757 0
49 -529 1762 0
49 -1765 1762 0
49 -1766 1763 0
49 -1765 -529 1763 0
49 -1766 -529 1764 0
49 -528 1765 0
49 -527 1765 0
49 -527 -528 1766 0
49 -1769 1758 0
49 -1770 1759 0
49 -1767 1758 0
49 -1768 1759 0
49 -1767 -1769 1759 0
49 -1767 -1770 1760 0
49 -1768 -1769 1760 0
49 -1768 -1770 1761 0
49 -526 1769 0
49 -525 1769 0
49 -525 -526 1770 0
49 -524 1767 0
49 -523 1767 0
49 -523 -524 1768 0
49 -1752 0
49 530 531 532 533 534 535 536 0
49 -1782 1771 0
49 -1783 1772 0
49 -1784 1773 0
49 -1778 1771 0
49 -1779 1772 0
49 -1780 1773 0
49 -1781 1774 0
49 -1778 -1782 1772 0
49 -1778 -1783 1773 0
49 -1778 -1784 1774 0
49 -1779 -1782 1773 0
49 -1779 -1783 1774 0
49 -1779 -1784 1775 0
49 -1780 -1782 1774 0
49 -1780 -1783 1775 0
49 -1780 -1784 1776 0
49 -1781 -1782 1775 0
49 -1781 -1783 1776 0
49 -1781 -1784 1777 0
49 -536 1782 0
49 -1785 1782 0
49 -1786 1783 0
49 -1785 -536 1783 0
49 -1786 -536 1784 0
49 -535 1785 0
49 -534 1785 0
49 -534 -535 1786 0
49 -1789 1778 0
49 -1790 1779 0
49 -1787 1778 0
49 -1788 1779 0
49 -1787 -1789 1779 0
49 -1787 -1790 1780 0
49 -1788 -1789 1780 0
49 -1788 -1790 1781 0
49 -533 1789 0
49 -532 1789 0
49 -532 -533 1790 0
49 -531 1787 0
49 -530 1787 0
49 -530 -531 1788 0
49 -1772 0
49 537 0
49 538 0
49 539 0
49 540 0
49 541 0
49 542 0
49 543 0
49 544 0
49 545 0
49 546 0
49 547 0
49 548 0
49 549 0
49 550 0
49 551 552 0
49 -551 -552 0
49 553 554 0
49 -553 -554 0
49 555 0
49 556 0
49 557 0
49 558 0
49 559 0
49 560 0
49 561 0
49 562 0
49 563 0
49 564 0
49 565 0
49 566 0
49 567 0
49 568 0
49 569 0
49 570 0
49 571 0
49 572 0
49 573 0
49 574 0
49 575 0
49 576 0
49 577 0
49 578 0
49 579 0
49 580 0
49 581 0
49 582 0
49 583 0
49 584 0
49 585 0
49 586 0
49 587 0
49 588 0
49 589 0
49 590 0
49 591 0
49 592 0
49 593 0
49 594 0
49 595 0
49 596 0
49 597 598 0
49 -597 -598 0
49 599 600 0
49 -599 -600 0
49 601 0
49 602 0
49 603 0
49 604 0
49 605 0
49 606 0
49 607 0
49 608 0
49 609 0
49 610 0
49 611 612 613 614 615 616 0
49 -1800 1791 0
49 -1801 1792 0
49 -1802 1793 0
49 -1797 1791 0
49 -1798 1792 0
49 -1799 1793 0
49 -1797 -1800 1792 0
49 -1797 -1801 1793 0
49 -1797 -1802 1794 0
49 -1798 -1800 1793 0
49 -1798 -1801 1794 0
49 -1798 -1802 1795 0
49 -1799 -1800 1794 0
49 -1799 -1801 1795 0
49 -1799 -1802 1796 0
49 -616 1800 0
49 -1803 1800 0
49 -1804 1801 0
49 -1803 -616 1801 0
49 -1804 -616 1802 0
49 -615 1803 0
49 -614 1803 0
49 -614 -615 1804 0
49 -613 1797 0
49 -1805 1797 0
49 -1806 1798 0
49 -1805 -613 1798 0
49 -1806 -613 1799 0
49 -612 1805 0
49 -611 1805 0
49 -611 -612 1806 0
49 -1792 0
49 617 618 619 620 621 622 0
49 -1816 1807 0
49 -1817 1808 0
49 -1818 1809 0
49 -1813 1807 0
49 -1814 1808 0
49 -1815 1809 0
49 -1813 -1816 1808 0
49 -1813 -1817 1809 0
49 -1813 -1818 1810 0
49 -1814 -1816 1809 0
49 -1814 -1817 1810 0
49 -1814 -1818 1811 0
49 -1815 -1816 1810 0
49 -1815 -1817 1811 0
49 -1815 -1818 1812 0
49 -622 1816 0
49 -1819 1816 0
49 -1820 1817 0
49 -1819 -622 1817 0
49 -1820 -622 1818 0
49 -621 1819 0
49 -620 1819 0
49 -620 -621 1820 0
49 -619 1813 0
49 -1821 1813 0
49 -1822 1814 0
49 -1821 -619 1814 0
49 -1822 -619 1815 0
49 -618 1821 0
49 -617 1821 0
49 -617 -618 1822 0
49 -1808 0
49 623 0
49 624 0
49 625 0
49 626 0
49 627 0
49 628 0
49 629 0
49 630 0
49 631 0
49 632 0
49 633 0
49 634 0
49 635 0
49 636 0
49 637 0
49 638 0
49 639 0
49 640 0
49 641 642 0
49 -641 -642 0
49 643 644 0
49 -643 -644 0
49 645 0
49 646 0
49 647 0
49 648 0
49 649 0
49 650 0
49 651 0
49 652 0
49 653 0
49 654 0
49 655 0
49 656 0
49 657 0
49 658 0
49 659 0
49 660 0
49 661 0
49 662 0
49 663 0
49 664 0
49 665 0
49 666 0
49 667 0
49 668 0
49 669 670 0
49 -669 -670 0
49 671 672 0
49 -671 -672 0
49 673 0
49 674 0
49 675 0
49 676 0
49 677 0
49 678 0
49 679 0
49 680 0
49 681 0
49 682 0
49 683 0
49 684 0
49 685 0
49 686 0
49 687 0
49 688 0
49 689 0
49 690 0
49 691 0
49 692 0
49 693 0
49 694 0
49 695 0
49 696 0
49 697 0
49 698 0
49 699 0
49 700 0
49 701 0
49 702 0
49 703 0
49 704 0
49 705 0
49 706 0
49 707 0
49 708 0
49 709 0
49 710 0
49 711 0
49 712 0
49 713 0
49 714 0
49 715 0
49 716 0
49 717 0
49 718 0
49 719 0
49 720 0
49 721 722 723 0
49 -723 1823 0
49 -1826 1823 0
49 -1827 1824 0
49 -1826 -723 1824 0
49 -1827 -723 1825 0
49 -722 1826 0
49 -721 1826 0
49 -721 -722 1827 0
49 -1824 0
49 724 725 726 0
49 -726 1828 0
49 -1831 1828 0
49 -1832 1829 0
49 -1831 -726 1829 0
49 -1832 -726 1830 0
49 -725 1831 0
49 -724 1831 0
49 -724 -725 1832 0
49 -1829 0
49 727 0
49 728 0
49 729 0
49 730 0
49 731 0
49 732 0
49 733 0
49 734 0
49 735 0
49 736 0
49 737 0
49 738 0
49 739 0
49 740 0
49 741 0
49 742 0
49 743 0
49 744 0
49 745 746 747 0
49 -747 1833 0
49 -1836 1833 0
49 -1837 1834 0
49 -1836 -747 1834 0
49 -1837 -747 1835 0
49 -746 1836 0
49 -745 1836 0
49 -745 -746 1837 0
49 -1834 0
49 748 749 750 0
49 -750 1838 0
49 -1841 1838 0
49 -1842 1839 0
49 -1841 -750 1839 0
49 -1842 -750 1840 0
49 -749 1841 0
49 -748 1841 0
49 -748 -749 1842 0
49 -1839 0
49 751 0
49 752 0
49 753 0
49 754 0
49 755 0
49 756 0
49 757 0
49 758 0
49 759 0
49 760 0
49 761 0
49 762 0
49 763 0
49 764 0
49 765 0
49 766 0
49 767 0
49 768 0
49 769 0
49 770 0
49 771 0
49 772 0
49 773 0
49 774 0
49 775 0
49 776 0
49 777 0
49 778 0
49 779 0
49 780 0
49 781 0
49 782 0
49 783 0
49 784 0
49 785 0
49 786 0
49 787 0
49 788 0
49 789 0
49 790 0
49 791 0
49 792 0
49 793 0
49 794 0
49 795 0
49 796 0
49 797 0
49 798 0
49 799 0
49 800 0
49 801 0
49 802 0
49 803 0
49 804 0
49 805 0
49 806 0
49 807 0
49 808 0
49 809 0
49 810 0
49 811 0
49 812 0
49 813 0
49 814 0
49 815 0
49 816 0
49 817 0
49 818 0
49 819 0
49 820 0
49 821 0
49 822 0
49 823 0
49 824 0
49 825 0
49 826 0
49 827 828 829 830 831 832 0
49 -1852 1843 0
49 -1853 1844 0
49 -1854 1845 0
49 -1849 1843 0
49 -1850 1844 0
49 -1851 1845 0
49 -1849 -1852 1844 0
49 -1849 -1853 1845 0
49 -1849 -1854 1846 0
49 -1850 -1852 1845 0
49 -1850 -1853 1846 0
49 -1850 -1854 1847 0
49 -1851 -1852 1846 0
49 -1851 -1853 1847 0
49 -1851 -1854 1848 0
49 -832 1852 0
49 -1855 1852 0
49 -1856 1853 0
49 -1855 -832 1853 0
49 -1856 -832 1854 0
49 -831 1855 0
49 -830 1855 0
49 -830 -831 1856 0
49 -829 1849 0
49 -1857 1849 0
49 -1858 1850 0
49 -1857 -829 1850 0
49 -1858 -829 1851 0
49 -828 1857 0
49 -827 1857 0
49 -827 -828 1858 0
49 -1844 0
49 833 834 835 836 837 838 0
49 -1868 1859 0
49 -1869 1860 0
49 -1870 1861 0
49 -1865 1859 0
49 -1866 1860 0
49 -1867 1861 0
49 -1865 -1868 1860 0
49 -1865 -1869 1861 0
49 -1865 -1870 1862 0
49 -1866 -1868 1861 0
49 -1866 -1869 1862 0
49 -1866 -1870 1863 0
49 -1867 -1868 1862 0
49 -1867 -1869 1863 0
49 -1867 -1870 1864 0
49 -838 1868 0
49 -1871 1868 0
49 -1872 1869 0
49 -1871 -838 1869 0
49 -1872 -838 1870 0
49 -837 1871 0
49 -836 1871 0
49 -836 -837 1872 0
49 -835 1865 0
49 -1873 1865 0
49 -1874 1866 0
49 -1873 -835 1866 0
49 -1874 -835 1867 0
49 -834 1873 0
49 -833 1873 0
49 -833 -834 1874 0
49 -1860 0
49 839 0
49 840 0
49 841 0
49 842 0
49 843 0
49 844 0
49 845 0
49 846 0
49 847 0
49 848 0
49 849 0
49 850 0
49 851 0
49 852 0
49 853 0
49 854 0
49 855 0
49 856 0
49 857 0
49 858 0
49 859 0
49 860 0
49 861 0
49 862 0
49 863 0
49 864 0
49 865 0
49 866 0
49 867 0
49 868 0
49 869 870 871 0
49 -871 1875 0
49 -1878 1875 0
49 -1879 1876 0
49 -1878 -871 1876 0
49 -1879 -871 1877 0
49 -870 1878 0
49 -869 1878 0
49 -869 -870 1879 0
49 -1876 0
49 872 873 874 0
49 -874 1880 0
49 -1883 1880 0
49 -1884 1881 0
49 -1883 -874 1881 0
49 -1884 -874 1882 0
49 -873 1883 0
49 -872 1883 0
49 -872 -873 1884 0
49 -1881 0
49 875 0
49 876 0
49 877 0
49 878 0
49 879 0
49 880 0
49 881 0
49 882 0
49 883 0
49 884 0
49 885 0
49 886 0
49 887 0
49 888 0
49 889 0
49 890 0
49 891 0
49 892 0
49 893 0
49 894 0
49 895 0
49 896 0
49 897 0
49 898 0
49 899 0
49 900 0
49 901 902 0
49 -901 -902 0
49 903 904 0
49 -903 -904 0
49 905 0
49 906 0
49 907 0
49 908 0
49 909 0
49 910 0
49 911 0
49 912 0
49 913 0
49 914 0
49 915 0
49 916 0
49 917 0
49 918 0
49 919 0
49 920 0
49 921 0
49 922 0
49 923 0
49 924 0
49 925 926 927 0
49 -927 1885 0
49 -1888 1885 0
49 -1889 1886 0
49 -1888 -927 1886 0
49 -1889 -927 1887 0
49 -926 1888 0
49 -925 1888 0
49 -925 -926 1889 0
49 -1886 0
49 928 929 930 0
49 -930 1890 0
49 -1893 1890 0
49 -1894 1891 0
49 -1893 -930 1891 0
49 -1894 -930 1892 0
49 -929 1893 0
49 -928 1893 0
49 -928 -929 1894 0
49 -1891 0
49 931 0
49 932 0
49 933 0
49 934 0
49 935 0
49 936 0
49 937 0
49 938 0
49 939 0
49 940 0
49 941 0
49 942 0
49 943 0
49 944 0
49 945 0
49 946 0
49 947 0
49 948 0
49 949 0
49 950 0
49 951 0
49 952 0
49 953 0
49 954 0
49 955 0
49 956 0
49 957 0
49 958 0
49 959 0
49 960 0
49 961 0
49 962 0
49 963 0
49 964 0
49 965 0
49 966 0
49 967 0
49 968 0
49 969 0
49 970 0
49 971 0
49 972 0
49 973 0
49 974 0
49 975 0
49 976 0
49 977 0
49 978 0
49 979 0
49 980 0
49 981 0
49 982 0
49 983 0
49 984 0
49 985 0
49 986 0
49 987 0
49 988 0
49 989 0
49 990 0
49 991 0
49 992 0
49 993 994 995 996 0
49 -1901 1895 0
49 -1902 1896 0
49 -1899 1895 0
49 -1900 1896 0
49 -1899 -1901 1896 0
49 -1899 -1902 1897 0
49 -1900 -1901 1897 0
49 -1900 -1902 1898 0
49 -996 1901 0
49 -995 1901 0
49 -995 -996 1902 0
49 -994 1899 0
49 -993 1899 0
49 -993 -994 1900 0
49 -1896 0
49 997 998 999 1000 0
49 -1909 1903 0
49 -1910 1904 0
49 -1907 1903 0
49 -1908 1904 0
49 -1907 -1909 1904 0
49 -1907 -1910 1905 0
49 -1908 -1909 1905 0
49 -1908 -1910 1906 0
49 -1000 1909 0
49 -999 1909 0
49 -999 -1000 1910 0
49 -998 1907 0
49 -997 1907 0
49 -997 -998 1908 0
49 -1904 0
49 1001 0
49 1002 0
49 1003 0
49 1004 0
49 1005 0
49 1006 0
49 1007 0
49 1008 0
49 1009 0
49 1010 0
49 1011 0
49 1012 0
49 1013 0
49 1014 0
49 1015 0
49 1016 0
49 1017 0
49 1018 0
49 1019 0
49 1020 0
49 1021 0
49 1022 0
49 1023 0
49 1024 0
49 1025 0
49 1026 0
49 1027 0
49 1028 0
49 1029 0
49 1030 0
49 1031 0
49 1032 0
49 1033 0
49 1034 0
49 1035 0
49 1036 0
49 1037 1038 0
49 -1037 -1038 0
49 1039 1040 0
49 -1039 -1040 0
49 1041 0
49 1042 0
49 1043 0
49 1044 0
49 1045 0
49 1046 0
49 1047 0
49 1048 0
49 1049 0
49 1050 0
49 1051 0
49 1052 0
49 1053 0
49 1054 0
49 1055 0
49 1056 0
49 1057 0
49 1058 0
49 1059 0
49 1060 0
49 1061 0
49 1062 0
49 1063 1064 1065 1066 1067 1068 1069 1070 1071 1072 1073 0
49 -1928 1911 0
49 -1929 1912 0
49 -1930 1913 0
49 -1931 1914 0
49 -1932 1915 0
49 -1922 1911 0
49 -1923 1912 0
49 -1924 1913 0
49 -1925 1914 0
49 -1926 1915 0
49 -1927 1916 0
49 -1922 -1928 1912 0
49 -1922 -1929 1913 0
49 -1922 -1930 1914 0
49 -1922 -1931 1915 0
49 -1922 -1932 1916 0
49 -1923 -1928 1913 0
49 -1923 -1929 1914 0
49 -1923 -1930 1915 0
49 -1923 -1931 1916 0
49 -1923 -1932 1917 0
49 -1924 -1928 1914 0
49 -1924 -1929 1915 0
49 -1924 -1930 1916 0
49 -1924 -1931 1917 0
49 -1924 -1932 1918 0
49 -1925 -1928 1915 0
49 -1925 -1929 1916 0
49 -1925 -1930 1917 0
49 -1925 -1931 1918 0
49 -1925 -1932 1919 0
49 -1926 -1928 1916 0
49 -1926 -1929 1917 0
49 -1926 -1930 1918 0
49 -1926 -1931 1919 0
49 -1926 -1932 1920 0
49 -1927 -1928 1917 0
49 -1927 -1929 1918 0
49 -1927 -1930 1919 0
49 -1927 -1931 1920 0
49 -1927 -1932 1921 0
49 -1936 1928 0
49 -1937 1929 0
49 -1933 1928 0
49 -1934 1929 0
49 -1935 1930 0
49 -1933 -1936 1929 0
49 -1933 -1937 1930 0
49 -1934 -1936 1930 0
49 -1934 -1937 1931 0
49 -1935 -1936 1931 0
49 -1935 -1937 1932 0
49 -1073 1936 0
49 -1072 1936 0
49 -1072 -1073 1937 0
49 -1071 1933 0
49 -1938 1933 0
49 -1939 1934 0
49 -1938 -1071 1934 0
49 -1939 -1071 1935 0
49 -1070 1938 0
49 -1069 1938 0
49 -1069 -1070 1939 0
49 -1943 1922 0
49 -1944 1923 0
49 -1945 1924 0
49 -1940 1922 0
49 -1941 1923 0
49 -1942 1924 0
49 -1940 -1943 1923 0
49 -1940 -1944 1924 0
49 -1940 -1945 1925 0
49 -1941 -1943 1924 0
49 -1941 -1944 1925 0
49 -1941 -1945 1926 0
49 -1942 -1943 1925 0
49 -1942 -1944 1926 0
49 -1942 -1945 1927 0
49 -1068 1943 0
49 -1946 1943 0
49 -1947 1944 0
49 -1946 -1068 1944 0
49 -1947 -1068 1945 0
49 -1067 1946 0
49 -1066 1946 0
49 -1066 -1067 1947 0
49 -1065 1940 0
49 -1948 1940 0
49 -1949 1941 0
49 -1948 -1065 1941 0
49 -1949 -1065 1942 0
49 -1064 1948 0
49 -1063 1948 0
49 -1063 -1064 1949 0
49 -1912 0
49 1074 1075 1076 1077 1078 1079 1080 1081 1082 1083 1084 0
49 -1967 1950 0
49 -1968 1951 0
49 -1969 1952 0
49 -1970 1953 0
49 -1971 1954 0
49 -1961 1950 0
49 -1962 1951 0
49 -1963 1952 0
49 -1964 1953 0
49 -1965 1954 0
49 -1966 1955 0
49 -1961 -1967 1951 0
49 -1961 -1968 1952 0
49 -1961 -1969 1953 0
49 -1961 -1970 1954 0
49 -1961 -1971 1955 0
49 -1962 -1967 1952 0
49 -1962 -1968 1953 0
49 -1962 -1969 1954 0
49 -1962 -1970 1955 0
49 -1962 -1971 1956 0
49 -1963 -1967 1953 0
49 -1963 -1968 1954 0
49 -1963 -1969 1955 0
49 -1963 -1970 1956 0
49 -1963 -1971 1957 0
49 -1964 -1967 1954 0
49 -1964 -1968 1955 0
49 -1964 -1969 1956 0
49 -1964 -1970 1957 0
49 -1964 -1971 1958 0
49 -1965 -1967 1955 0
49 -1965 -1968 1956 0
49 -1965 -1969 1957 0
49 -1965 -1970 1958 0
49 -1965 -1971 1959 0
49 -1966 -1967 1956 0
49 -1966 -1968 1957 0
49 -1966 -1969 1958 0
49 -1966 -1970 1959 0
49 -1966 -1971 1960 0
49 -1975 1967 0
49 -1976 1968 0
49 -1972 1967 0
49 -1973 1968 0
49 -1974 1969 0
49 -1972 -1975 1968 0
49 -1972 -1976 1969 0
49 -1973 -1975 1969 0
49 -1973 -1976 1970 0
49 -1974 -1975 1970 0
49 -1974 -1976 1971 0
49 -1084 1975 0
49 -1083 1975 0
49 -1083 -1084 1976 0
49 -1082 1972 0
49 -1977 1972 0
49 -1978 1973 0
49 -1977 -1082 1973 0
49 -1978 -1082 1974 0
49 -1081 1977 0
49 -1080 1977 0
49 -1080 -1081 1978 0
49 -1982 1961 0
49 -1983 1962 0
49 -1984 1963 0
49 -1979 1961 0
49 -1980 1962 0
49 -1981 1963 0
49 -1979 -1982 1962 0
49 -1979 -1983 1963 0
49 -1979 -1984 1964 0
49 -1980 -1982 1963 0
49 -1980 -1983 1964 0
49 -1980 -1984 1965 0
49 -1981 -1982 1964 0
49 -1981 -1983 1965 0
49 -1981 -1984 1966 0
49 -1079 1982 0
49 -1985 1982 0
49 -1986 1983 0
49 -1985 -1079 1983 0
49 -1986 -1079 1984 0
49 -1078 1985 0
49 -1077 1985 0
49 -1077 -1078 1986 0
49 -1076 1979 0
49 -1987 1979 0
49 -1988 1980 0
49 -1987 -1076 1980 0
49 -1988 -1076 1981 0
49 -1075 1987 0
49 -1074 1987 0
49 -1074 -1075 1988 0
49 -1951 0
49 1085 0
49 1086 0
49 1087 0
49 1088 0
49 1089 0
49 1090 0
49 1091 0
49 1092 0
49 1093 0
49 1094 0
49 1095 0
49 1096 0
49 1097 0
49 1098 0
49 1099 0
49 1100 0
49 1101 0
49 1102 0
49 1103 0
49 1104 0
49 1105 0
49 1106 0
49 1107 0
49 1108 0
49 1109 0
49 1110 0
49 1111 0
49 1112 0
49 1113 0
49 1114 0
49 1115 0
49 1116 0
49 1117 0
49 1118 0
49 1119 0
49 1120 0
49 1121 0
49 1122 0
49 1123 0
49 1124 0
49 1125 0
49 1126 0
49 1127 0
49 1128 0
49 1129 0
49 1130 0
49 1131 0
49 1132 0
49 1133 0
49 1134 0
49 1135 0
49 1136 0
49 1137 0
49 1138 0
49 1139 0
49 1140 0
49 1141 0
49 1142 0
49 1143 0
49 1144 0
49 1145 0
49 1146 0
49 1147 0
49 1148 0
49 1149 0
49 1150 0
49 1151 0
49 1152 0
49 1153 0
49 1154 0
49 1155 0
49 1156 0
49 1157 0
49 1158 0
49 1159 0
49 1160 0
49 1161 0
49 1162 0
49 1163 0
49 1164 0
49 1165 0
49 1166 0
49 1167 0
49 1168 0
49 1169 0
49 1170 0
49 1171 0
49 1172 0
49 1173 0
49 1174 0
49 1175 0
49 1176 0
49 1177 0
49 1178 0
49 1179 0
49 1180 0
49 -1 2 0
49 -3 4 0
49 -5 6 0
49 -7 8 0
49 -9 10 0
49 -11 12 0
49 -13 14 0
49 -15 26 0
49 -16 27 0
49 -17 28 0
49 -18 29 0
49 -19 30 0
49 -20 31 0
49 -21 32 0
49 -22 33 0
49 -23 34 0
49 -24 35 0
49 -25 36 0
49 -15 -358 0
49 -15 -359 0
49 -15 -360 0
49 -15 -361 0
49 -15 -362 0
49 -15 -363 0
49 -15 -364 0
49 -15 -365 0
49 -15 -366 0
49 -15 -367 0
49 -16 -368 0
49 -17 -368 0
49 -18 -368 0
49 -19 -368 0
49 -20 -368 0
49 -21 -368 0
49 -22 -368 0
49 -23 -368 0
49 -24 -368 0
49 -25 -368 0
49 -37 41 0
49 -38 42 0
49 -39 43 0
49 -40 44 0
49 -45 46 0
49 -47 48 0
49 -49 50 0
49 -51 52 0
49 -53 54 0
49 -55 56 0
49 -57 58 0
49 -59 82 0
49 -60 71 0
49 -61 72 0
49 -62 73 0
49 -63 74 0
49 -64 75 0
49 -65 76 0
49 -66 77 0
49 -67 78 0
49 -68 79 0
49 -69 80 0
49 -70 81 0
49 -83 84 0
49 -85 86 0
49 -87 88 0
49 -89 90 0
49 -91 92 0
49 -93 94 0
49 -95 96 0
49 -97 98 0
49 -99 100 0
49 -101 102 0
49 -103 104 0
49 -105 106 0
49 -107 108 0
49 -109 110 0
49 -111 112 0
49 -113 114 0
49 -115 116 0
49 -117 118 0
49 -119 120 0
49 -121 126 0
49 -122 127 0
49 -123 128 0
49 -124 129 0
49 -125 130 0
49 -131 132 0
49 -133 134 0
49 -135 139 0
49 -136 140 0
49 -137 141 0
49 -138 142 0
49 -143 144 0
49 -145 146 0
49 -147 148 0
49 -149 150 0
49 -151 152 0
49 -153 156 0
49 -154 157 0
49 -155 158 0
49 -159 160 0
49 -161 168 0
49 -162 169 0
49 -163 170 0
49 -164 171 0
49 -165 172 0
49 -166 173 0
49 -167 174 0
49 -175 176 0
49 -177 178 0
49 -179 180 0
49 -181 182 0
49 -183 184 0
49 -185 186 0
49 -187 188 0
49 -189 190 0
49 -191 192 0
49 -193 194 0
49 -195 196 0
49 -197 198 0
49 -199 200 0
49 -201 202 0
49 -203 204 0
49 -205 206 0
49 -207 209 0
49 -208 210 0
49 -211 212 0
49 -213 214 0
49 -215 216 0
49 -217 222 0
49 -218 223 0
49 -219 224 0
49 -220 225 0
49 -221 226 0
49 -227 228 0
49 -229 230 0
49 -231 232 0
49 -233 234 0
49 -235 236 0
49 -237 238 0
49 -239 240 0
49 -241 242 0
49 -243 244 0
49 -245 246 0
49 -247 248 0
49 -249 250 0
49 -251 252 0
49 -253 260 0
49 -254 261 0
49 -255 262 0
49 -256 263 0
49 -257 264 0
49 -258 265 0
49 -259 266 0
49 -267 268 0
49 -269 270 0
49 -271 272 0
49 -273 274 0
49 -275 276 0
49 -277 278 0
49 -279 280 0
49 -281 282 0
49 -283 284 0
49 -285 286 0
49 -287 288 0
49 -289 290 0
49 -291 292 0
49 -293 295 0
49 -294 296 0
49 -297 298 0
49 -299 300 0
49 -301 302 0
49 -303 304 0
49 -305 306 0
49 -307 308 0
49 -309 310 0
49 -311 312 0
49 -313 314 0
49 -315 316 0
49 -317 318 0
49 -319 320 0
49 -321 322 0
49 -323 324 0
49 -325 327 0
49 -326 328 0
49 -326 -455 0
49 -329 330 0
49 -331 332 0
49 -333 334 0
49 -335 336 0
49 -337 338 0
49 -339 340 0
49 -341 342 0
49 -343 344 0
49 -345 346 0
49 -347 358 0
49 -348 359 0
49 -349 360 0
49 -350 361 0
49 -351 362 0
49 -352 363 0
49 -353 364 0
49 -354 365 0
49 -355 366 0
49 -356 367 0
49 -357 368 0
49 -369 370 0
49 -371 372 0
49 -373 374 0
49 -375 376 0
49 -377 385 0
49 -378 386 0
49 -379 387 0
49 -380 388 0
49 -381 389 0
49 -382 390 0
49 -383 391 0
49 -384 392 0
49 -393 394 0
49 -395 396 0
49 -397 400 0
49 -398 401 0
49 -399 402 0
49 -398 -748 0
49 -399 -748 0
49 -399 -749 0
49 -400 -746 0
49 -400 -747 0
49 -401 -747 0
49 -403 404 0
49 -405 406 0
49 -407 408 0
49 -409 410 0
49 -411 412 0
49 -413 414 0
49 -415 416 0
49 -417 421 0
49 -418 422 0
49 -419 423 0
49 -420 424 0
49 -418 -721 0
49 -419 -721 0
49 -419 -722 0
49 -420 -722 0
49 -420 -723 0
49 -417 -725 0
49 -417 -726 0
49 -418 -726 0
49 -425 426 0
49 -427 428 0
49 -429 437 0
49 -430 438 0
49 -431 439 0
49 -432 440 0
49 -433 441 0
49 -434 442 0
49 -435 436 0
49 -443 444 0
49 -445 446 0
49 -447 450 0
49 -448 451 0
49 -449 452 0
49 -453 455 0
49 -454 456 0
49 -457 458 0
49 -459 460 0
49 -461 462 0
49 -463 464 0
49 -465 466 0
49 -467 468 0
49 -469 470 0
49 -471 472 0
49 -473 474 0
49 -475 476 0
49 -477 479 0
49 -478 480 0
49 -481 482 0
49 -483 484 0
49 -485 486 0
49 -487 488 0
49 -489 490 0
49 -491 492 0
49 -493 494 0
49 -495 501 0
49 -496 502 0
49 -497 503 0
49 -498 504 0
49 -499 505 0
49 -500 506 0
49 -507 508 0
49 -509 510 0
49 -511 512 0
49 -513 514 0
49 -515 516 0
49 -517 518 0
49 -519 520 0
49 -521 522 0
49 -523 530 0
49 -524 531 0
49 -525 532 0
49 -526 533 0
49 -527 534 0
49 -528 535 0
49 -529 536 0
49 -523 -873 0
49 -523 -874 0
49 -524 -873 0
49 -524 -874 0
49 -525 -873 0
49 -525 -874 0
49 -526 -873 0
49 -526 -874 0
49 -527 -873 0
49 -527 -874 0
49 -528 -874 0
49 -537 538 0
49 -539 540 0
49 -541 542 0
49 -543 544 0
49 -545 546 0
49 -547 548 0
49 -549 550 0
49 -551 554 0
49 -552 553 0
49 -555 556 0
49 -557 558 0
49 -559 560 0
49 -561 562 0
49 -563 564 0
49 -565 566 0
49 -567 568 0
49 -569 570 0
49 -571 572 0
49 -573 574 0
49 -575 576 0
49 -577 578 0
49 -579 580 0
49 -581 582 0
49 -583 584 0
49 -585 586 0
49 -587 588 0
49 -589 590 0
49 -591 592 0
49 -593 594 0
49 -595 596 0
49 -597 599 0
49 -598 600 0
49 -601 602 0
49 -603 604 0
49 -605 606 0
49 -607 608 0
49 -609 610 0
49 -611 617 0
49 -612 618 0
49 -613 619 0
49 -614 620 0
49 -615 621 0
49 -616 622 0
49 -618 -997 0
49 -619 -998 0
49 -620 -999 0
49 -621 -1000 0
49 -623 624 0
49 -625 626 0
49 -627 628 0
49 -629 630 0
49 -631 632 0
49 -633 634 0
49 -635 636 0
49 -637 638 0
49 -639 640 0
49 -641 643 0
49 -642 644 0
49 -645 646 0
49 -647 648 0
49 -649 650 0
49 -651 652 0
49 -653 654 0
49 -655 656 0
49 -657 658 0
49 -659 660 0
49 -661 662 0
49 -663 664 0
49 -665 666 0
49 -667 668 0
49 -669 671 0
49 -670 672 0
49 -673 674 0
49 -675 676 0
49 -677 678 0
49 -679 680 0
49 -681 682 0
49 -683 684 0
49 -685 686 0
49 -687 688 0
49 -689 690 0
49 -691 692 0
49 -693 694 0
49 -695 696 0
49 -697 698 0
49 -699 700 0
49 -701 702 0
49 -703 704 0
49 -705 706 0
49 -707 708 0
49 -709 710 0
49 -711 712 0
49 -713 714 0
49 -715 716 0
49 -717 718 0
49 -719 720 0
49 -721 724 0
49 -722 725 0
49 -723 726 0
49 -721 -994 0
49 -722 -995 0
49 -723 -996 0
49 -727 728 0
49 -729 730 0
49 -731 732 0
49 -733 734 0
49 -735 736 0
49 -737 738 0
49 -739 740 0
49 -741 742 0
49 -743 744 0
49 -745 748 0
49 -746 749 0
49 -747 750 0
49 -751 752 0
49 -753 754 0
49 -755 756 0
49 -757 758 0
49 -759 760 0
49 -761 762 0
49 -763 764 0
49 -765 766 0
49 -767 768 0
49 -769 770 0
49 -771 772 0
49 -773 774 0
49 -775 776 0
49 -777 778 0
49 -779 780 0
49 -781 782 0
49 -783 784 0
49 -785 786 0
49 -787 788 0
49 -789 790 0
49 -791 792 0
49 -793 794 0
49 -795 796 0
49 -797 798 0
49 -799 800 0
49 -801 802 0
49 -803 804 0
49 -805 806 0
49 -807 808 0
49 -809 810 0
49 -811 812 0
49 -813 814 0
49 -815 816 0
49 -817 818 0
49 -819 820 0
49 -821 822 0
49 -823 824 0
49 -825 826 0
49 -827 833 0
49 -828 834 0
49 -829 835 0
49 -830 836 0
49 -831 837 0
49 -832 838 0
49 -839 840 0
49 -841 842 0
49 -843 844 0
49 -845 846 0
49 -847 848 0
49 -849 850 0
49 -851 852 0
49 -853 854 0
49 -855 856 0
49 -857 858 0
49 -859 860 0
49 -861 862 0
49 -863 864 0
49 -865 866 0
49 -867 868 0
49 -869 872 0
49 -870 873 0
49 -871 874 0
49 -875 876 0
49 -877 878 0
49 -879 880 0
49 -881 882 0
49 -883 884 0
49 -885 886 0
49 -887 888 0
49 -889 890 0
49 -891 892 0
49 -893 894 0
49 -895 896 0
49 -897 898 0
49 -899 900 0
49 -901 903 0
49 -902 904 0
49 -905 906 0
49 -907 908 0
49 -909 910 0
49 -911 912 0
49 -913 914 0
49 -915 916 0
49 -917 918 0
49 -919 920 0
49 -921 922 0
49 -923 924 0
49 -925 928 0
49 -926 929 0
49 -927 930 0
49 -929 -1063 0
49 -930 -1063 0
49 -930 -1064 0
49 -931 932 0
49 -933 934 0
49 -935 936 0
49 -937 938 0
49 -939 940 0
49 -941 942 0
49 -943 944 0
49 -945 946 0
49 -947 948 0
49 -949 950 0
49 -951 952 0
49 -953 954 0
49 -955 956 0
49 -957 958 0
49 -959 960 0
49 -961 962 0
49 -963 964 0
49 -965 966 0
49 -967 968 0
49 -969 970 0
49 -971 972 0
49 -973 974 0
49 -975 976 0
49 -977 978 0
49 -979 980 0
49 -981 982 0
49 -983 984 0
49 -985 986 0
49 -987 988 0
49 -989 990 0
49 -991 992 0
49 -993 997 0
49 -994 998 0
49 -995 999 0
49 -996 1000 0
49 -1001 1002 0
49 -1003 1004 0
49 -1005 1006 0
49 -1007 1008 0
49 -1009 1010 0
49 -1011 1012 0
49 -1013 1014 0
49 -1015 1016 0
49 -1017 1018 0
49 -1019 1020 0
49 -1021 1022 0
49 -1023 1024 0
49 -1025 1026 0
49 -1027 1028 0
49 -1029 1030 0
49 -1031 1032 0
49 -1033 1034 0
49 -1035 1036 0
49 -1037 1039 0
49 -1038 1040 0
49 -1041 1042 0
49 -1043 1044 0
49 -1045 1046 0
49 -1047 1048 0
49 -1049 1050 0
49 -1051 1052 0
49 -1053 1054 0
49 -1055 1056 0
49 -1057 1058 0
49 -1059 1060 0
49 -1061 1062 0
49 -1063 1074 0
49 -1064 1075 0
49 -1065 1076 0
49 -1066 1077 0
49 -1067 1078 0
49 -1068 1079 0
49 -1069 1080 0
49 -1070 1081 0
49 -1071 1082 0
49 -1072 1083 0
49 -1073 1084 0
49 -1085 1086 0
49 -1087 1088 0
49 -1089 1090 0
49 -1091 1092 0
49 -1093 1094 0
49 -1095 1096 0
49 -1097 1098 0
49 -1099 1100 0
49 -1101 1102 0
49 -1103 1104 0
49 -1105 1106 0
49 -1107 1108 0
49 -1109 1110 0
49 -1111 1112 0
49 -1113 1114 0
49 -1115 1116 0
49 -1117 1118 0
49 -1119 1120 0
49 -1121 1122 0
49 -1123 1124 0
49 -1125 1126 0
49 -1127 1128 0
49 -1129 1130 0
49 -1131 1132 0
49 -1133 1134 0
49 -1135 1136 0
49 -1137 1138 0
49 -1139 1140 0
49 -1141 1142 0
49 -1143 1144 0
49 -1145 1146 0
49 -1147 1148 0
49 -1149 1150 0
49 -1151 1152 0
49 -1153 1154 0
49 -1155 1156 0
49 -1157 1158 0
49 -1159 1160 0
49 -1161 1162 0
49 -1163 1164 0
49 -1165 1166 0
49 -1167 1168 0
49 -1169 1170 0
49 -1171 1172 0
49 -1173 1174 0
49 -1175 1176 0
49 -1177 1178 0
49 -1179 1180 0
49 -1 1995 0
49 -2 2008 0
49 -3 2033 0
49 -4 2022 0
49 -5 1995 0
49 -6 2008 0
49 -7 2000 0
49 -8 2013 0
49 -9 2036 0
49 -10 2025 0
49 -11 1996 0
49 -12 2009 0
49 -13 1998 0
49 -14 2011 0
49 -15 1995 0
49 -16 2027 0
49 -17 2028 0
49 -18 2029 0
49 -19 2030 0
49 -20 2031 0
49 -21 2032 0
49 -22 2033 0
49 -23 2034 0
49 -24 2035 0
49 -25 2036 0
49 -26 2008 0
49 -27 2015 0
49 -28 2016 0
49 -29 2017 0
49 -30 2018 0
49 -31 2020 0
49 -32 2021 0
49 -33 2022 0
49 -34 2023 0
49 -35 2024 0
49 -36 2025 0
49 -37 2032 0
49 -38 2033 0
49 -39 2034 0
49 -40 2035 0
49 -41 2021 0
49 -42 2022 0
49 -43 2023 0
49 -44 2024 0
49 -45 2035 0
49 -46 2024 0
49 -47 2031 0
49 -48 2020 0
49 -49 2027 0
49 -50 2015 0
49 -51 2035 0
49 -52 2024 0
49 -53 2032 0
49 -54 2021 0
49 -55 2030 0
49 -56 2018 0
49 -57 1999 0
49 -58 2012 0
49 -59 1989 0
49 -60 2002 0
49 -61 2003 0
49 -62 2004 0
49 -63 2005 0
49 -64 2006 0
49 -65 2007 0
49 -66 2008 0
49 -67 2009 0
49 -68 2010 0
49 -69 2011 0
49 -70 2012 0
49 -71 1989 0
49 -72 1990 0
49 -73 1991 0
49 -74 1992 0
49 -75 1993 0
49 -76 1994 0
49 -77 1995 0
49 -78 1996 0
49 -79 1997 0
49 -80 1998 0
49 -81 1999 0
49 -82 2002 0
49 -83 2026 0
49 -84 2014 0
49 -85 2036 0
49 -86 2025 0
49 -87 2036 0
49 -88 2025 0
49 -89 2032 0
49 -90 2021 0
49 -91 2027 0
49 -92 2015 0
49 -93 2034 0
49 -94 2023 0
49 -95 1989 0
49 -96 2002 0
49 -97 1998 0
49 -98 2011 0
49 -99 1992 0
49 -100 2005 0
49 -101 1989 0
49 -102 2002 0
49 -103 2000 0
49 -104 2013 0
49 -105 2036 0
49 -106 2025 0
49 -107 1997 0
49 -108 2010 0
49 -109 2029 0
49 -110 2017 0
49 -111 2001 0
49 -112 2019 0
49 -113 1998 0
49 -114 2011 0
49 -115 1989 0
49 -116 2002 0
49 -117 2036 0
49 -118 2025 0
49 -119 1989 0
49 -120 2002 0
49 -121 1989 0
49 -122 1990 0
49 -123 1991 0
49 -124 1992 0
49 -125 1993 0
49 -126 2002 0
49 -127 2003 0
49 -128 2004 0
49 -129 2005 0
49 -130 2006 0
49 -131 2033 0
49 -132 2022 0
49 -133 1994 0
49 -134 2007 0
49 -135 1990 0
49 -136 1991 0
49 -137 1992 0
49 -138 1993 0
49 -139 2003 0
49 -140 2004 0
49 -141 2005 0
49 -142 2006 0
49 -143 2031 0
49 -144 2020 0
49 -145 1989 0
49 -146 2002 0
49 -147 2033 0
49 -148 2022 0
49 -149 1989 0
49 -150 2002 0
49 -151 2031 0
49 -152 2020 0
49 -153 1996 0
49 -154 1997 0
49 -155 1998 0
49 -156 2009 0
49 -157 2010 0
49 -158 2011 0
49 -159 1999 0
49 -160 2012 0
49 -161 2030 0
49 -162 2031 0
49 -163 2032 0
49 -164 2033 0
49 -165 2034 0
49 -166 2035 0
49 -167 2036 0
49 -168 2018 0
49 -169 2020 0
49 -170 2021 0
49 -171 2022 0
49 -172 2023 0
49 -173 2024 0
49 -174 2025 0
49 -175 1989 0
49 -176 2002 0
49 -177 2001 0
49 -178 2019 0
49 -179 2026 0
49 -180 2014 0
49 -181 1991 0
49 -182 2004 0
49 -183 2028 0
49 -184 2016 0
49 -185 1989 0
49 -186 2002 0
49 -187 1992 0
49 -188 2005 0
49 -189 1994 0
49 -190 2007 0
49 -191 1993 0
49 -192 2006 0
49 -193 2036 0
49 -194 2025 0
49 -195 1989 0
49 -196 2002 0
49 -197 1996 0
49 -198 2009 0
49 -199 1989 0
49 -200 2002 0
49 -201 1998 0
49 -202 2011 0
49 -203 2036 0
49 -204 2025 0
49 -205 2026 0
49 -206 2014 0
49 -207 1994 0
49 -208 1995 0
49 -209 2007 0
49 -210 2008 0
49 -211 2035 0
49 -212 2024 0
49 -213 2030 0
49 -214 2018 0
49 -215 1989 0
49 -216 2002 0
49 -217 1989 0
49 -218 1990 0
49 -219 1991 0
49 -220 1992 0
49 -221 1993 0
49 -222 2002 0
49 -223 2003 0
49 -224 2004 0
49 -225 2005 0
49 -226 2006 0
49 -227 2032 0
49 -228 2021 0
49 -229 1995 0
49 -230 2008 0
49 -231 2033 0
49 -232 2022 0
49 -233 2001 0
49 -234 2019 0
49 -235 2027 0
49 -236 2015 0
49 -237 1998 0
49 -238 2011 0
49 -239 2029 0
49 -240 2017 0
49 -241 1989 0
49 -242 2002 0
49 -243 2026 0
49 -244 2014 0
49 -245 1995 0
49 -246 2008 0
49 -247 2026 0
49 -248 2014 0
49 -249 2034 0
49 -250 2023 0
49 -251 1993 0
49 -252 2006 0
49 -253 1990 0
49 -254 1991 0
49 -255 1992 0
49 -256 1993 0
49 -257 1994 0
49 -258 1995 0
49 -259 1996 0
49 -260 2003 0
49 -261 2004 0
49 -262 2005 0
49 -263 2006 0
49 -264 2007 0
49 -265 2008 0
49 -266 2009 0
49 -267 2036 0
49 -268 2025 0
49 -269 2036 0
49 -270 2025 0
49 -271 2029 0
49 -272 2017 0
49 -273 2029 0
49 -274 2017 0
49 -275 1999 0
49 -276 2012 0
49 -277 1999 0
49 -278 2012 0
49 -279 2027 0
49 -280 2015 0
49 -281 2030 0
49 -282 2018 0
49 -283 2029 0
49 -284 2017 0
49 -285 2000 0
49 -286 2013 0
49 -287 2036 0
49 -288 2025 0
49 -289 2029 0
49 -290 2017 0
49 -291 1994 0
49 -292 2007 0
49 -293 1997 0
49 -294 1998 0
49 -295 2010 0
49 -296 2011 0
49 -297 2001 0
49 -298 2019 0
49 -299 1993 0
49 -300 2006 0
49 -301 1992 0
49 -302 2005 0
49 -303 1990 0
49 -304 2003 0
49 -305 2036 0
49 -306 2025 0
49 -307 2028 0
49 -308 2016 0
49 -309 2034 0
49 -310 2023 0
49 -311 2001 0
49 -312 2019 0
49 -313 1994 0
49 -314 2007 0
49 -315 1991 0
49 -316 2004 0
49 -317 2036 0
49 -318 2025 0
49 -319 2032 0
49 -320 2021 0
49 -321 1999 0
49 -322 2012 0
49 -323 1996 0
49 -324 2009 0
49 -325 1989 0
49 -326 1990 0
49 -327 2002 0
49 -328 2003 0
49 -329 2000 0
49 -330 2013 0
49 -331 1989 0
49 -332 2002 0
49 -333 2036 0
49 -334 2025 0
49 -335 1989 0
49 -336 2002 0
49 -337 2000 0
49 -338 2013 0
49 -339 2027 0
49 -340 2015 0
49 -341 2032 0
49 -342 2021 0
49 -343 1989 0
49 -344 2002 0
49 -345 1995 0
49 -346 2008 0
49 -347 2003 0
49 -348 2004 0
49 -349 2005 0
49 -350 2006 0
49 -351 2007 0
49 -352 2008 0
49 -353 2009 0
49 -354 2010 0
49 -355 2011 0
49 -356 2012 0
49 -357 2031 0
49 -358 1990 0
49 -359 1991 0
49 -360 1992 0
49 -361 1993 0
49 -362 1994 0
49 -363 1995 0
49 -364 1996 0
49 -365 1997 0
49 -366 1998 0
49 -367 1999 0
49 -368 2020 0
49 -369 2036 0
49 -370 2025 0
49 -371 1997 0
49 -372 2010 0
49 -373 2027 0
49 -374 2015 0
49 -375 2001 0
49 -376 2019 0
49 -377 2028 0
49 -378 2029 0
49 -379 2030 0
49 -380 2031 0
49 -381 2032 0
49 -382 2033 0
49 -383 2034 0
49 -384 2035 0
49 -385 2016 0
49 -386 2017 0
49 -387 2018 0
49 -388 2020 0
49 -389 2021 0
49 -390 2022 0
49 -391 2023 0
49 -392 2024 0
49 -393 2030 0
49 -394 2018 0
49 -395 1989 0
49 -396 2002 0
49 -397 1996 0
49 -398 1997 0
49 -399 1998 0
49 -400 2009 0
49 -401 2010 0
49 -402 2011 0
49 -403 1996 0
49 -404 2009 0
49 -405 2028 0
49 -406 2016 0
49 -407 1990 0
49 -408 2003 0
49 -409 1998 0
49 -410 2011 0
49 -411 2036 0
49 -412 2025 0
49 -413 1994 0
49 -414 2007 0
49 -415 2000 0
49 -416 2013 0
49 -417 2030 0
49 -418 2031 0
49 -419 2032 0
49 -420 2036 0
49 -421 2018 0
49 -422 2020 0
49 -423 2021 0
49 -424 2025 0
49 -425 2036 0
49 -426 2025 0
49 -427 1990 0
49 -428 2003 0
49 -429 2020 0
49 -430 2021 0
49 -431 2022 0
49 -432 2023 0
49 -433 2024 0
49 -434 2025 0
49 -435 2036 0
49 -436 2025 0
49 -437 2031 0
49 -438 2032 0
49 -439 2033 0
49 -440 2034 0
49 -441 2035 0
49 -442 2036 0
49 -443 1995 0
49 -444 2008 0
49 -445 2036 0
49 -446 2025 0
49 -447 2034 0
49 -448 2035 0
49 -449 2036 0
49 -450 2023 0
49 -451 2024 0
49 -452 2025 0
49 -453 2029 0
49 -454 2030 0
49 -455 2017 0
49 -456 2018 0
49 -457 2000 0
49 -458 2013 0
49 -459 2027 0
49 -460 2015 0
49 -461 1989 0
49 -462 2002 0
49 -463 1992 0
49 -464 2005 0
49 -465 1999 0
49 -466 2012 0
49 -467 2036 0
49 -468 2025 0
49 -469 1991 0
49 -470 2004 0
49 -471 2035 0
49 -472 2024 0
49 -473 1992 0
49 -474 2005 0
49 -475 1995 0
49 -476 2008 0
49 -477 1989 0
49 -478 1990 0
49 -479 2002 0
49 -480 2003 0
49 -481 1992 0
49 -482 2005 0
49 -483 1991 0
49 -484 2004 0
49 -485 1999 0
49 -486 2012 0
49 -487 2030 0
49 -488 2018 0
49 -489 2036 0
49 -490 2025 0
49 -491 1989 0
49 -492 2002 0
49 -493 2001 0
49 -494 2019 0
49 -495 1990 0
49 -496 1991 0
49 -497 1992 0
49 -498 1993 0
49 -499 1994 0
49 -500 2027 0
49 -501 2003 0
49 -502 2004 0
49 -503 2005 0
49 -504 2006 0
49 -505 2007 0
49 -506 2015 0
49 -507 2026 0
49 -508 2014 0
49 -509 1996 0
49 -510 2009 0
49 -511 2029 0
49 -512 2017 0
49 -513 2000 0
49 -514 2013 0
49 -515 1991 0
49 -516 2004 0
49 -517 2036 0
49 -518 2025 0
49 -519 2000 0
49 -520 2013 0
49 -521 1995 0
49 -522 2008 0
49 -523 2030 0
49 -524 2031 0
49 -525 2032 0
49 -526 2033 0
49 -527 2034 0
49 -528 2035 0
49 -529 2036 0
49 -530 2018 0
49 -531 2020 0
49 -532 2021 0
49 -533 2022 0
49 -534 2023 0
49 -535 2024 0
49 -536 2025 0
49 -537 2000 0
49 -538 2013 0
49 -539 2029 0
49 -540 2017 0
49 -541 2030 0
49 -542 2018 0
49 -543 2036 0
49 -544 2025 0
49 -545 1992 0
49 -546 2005 0
49 -547 2036 0
49 -548 2025 0
49 -549 2032 0
49 -550 2021 0
49 -551 1997 0
49 -552 2011 0
49 -553 1998 0
49 -554 2010 0
49 -555 1991 0
49 -556 2004 0
49 -557 1994 0
49 -558 2007 0
49 -559 2036 0
49 -560 2025 0
49 -561 1999 0
49 -562 2012 0
49 -563 1989 0
49 -564 2002 0
49 -565 2036 0
49 -566 2025 0
49 -567 2027 0
49 -568 2015 0
49 -569 1996 0
49 -570 2009 0
49 -571 1989 0
49 -572 2002 0
49 -573 1997 0
49 -574 2010 0
49 -575 1991 0
49 -576 2004 0
49 -577 2000 0
49 -578 2013 0
49 -579 2031 0
49 -580 2020 0
49 -581 2036 0
49 -582 2025 0
49 -583 1997 0
49 -584 2010 0
49 -585 2036 0
49 -586 2025 0
49 -587 2033 0
49 -588 2022 0
49 -589 1989 0
49 -590 2002 0
49 -591 2036 0
49 -592 2025 0
49 -593 1990 0
49 -594 2003 0
49 -595 2027 0
49 -596 2015 0
49 -597 1998 0
49 -598 2000 0
49 -599 2011 0
49 -600 2013 0
49 -601 1999 0
49 -602 2012 0
49 -603 1998 0
49 -604 2011 0
49 -605 2000 0
49 -606 2013 0
49 -607 1989 0
49 -608 2002 0
49 -609 2036 0
49 -610 2025 0
49 -611 2031 0
49 -612 2032 0
49 -613 2033 0
49 -614 2034 0
49 -615 2035 0
49 -616 2036 0
49 -617 2020 0
49 -618 2021 0
49 -619 2022 0
49 -620 2023 0
49 -621 2024 0
49 -622 2025 0
49 -623 1991 0
49 -624 2004 0
49 -625 1995 0
49 -626 2008 0
49 -627 1989 0
49 -628 2002 0
49 -629 2036 0
49 -630 2025 0
49 -631 2001 0
49 -632 2019 0
49 -633 2030 0
49 -634 2018 0
49 -635 1989 0
49 -636 2002 0
49 -637 2001 0
49 -638 2019 0
49 -639 1991 0
49 -640 2004 0
49 -641 2030 0
49 -642 2031 0
49 -643 2018 0
49 -644 2020 0
49 -645 2028 0
49 -646 2016 0
49 -647 2035 0
49 -648 2024 0
49 -649 1997 0
49 -650 2010 0
49 -651 2036 0
49 -652 2025 0
49 -653 2027 0
49 -654 2015 0
49 -655 2036 0
49 -656 2025 0
49 -657 1989 0
49 -658 2002 0
49 -659 2036 0
49 -660 2025 0
49 -661 2036 0
49 -662 2025 0
49 -663 2031 0
49 -664 2020 0
49 -665 2034 0
49 -666 2023 0
49 -667 1997 0
49 -668 2010 0
49 -669 1989 0
49 -670 1990 0
49 -671 2002 0
49 -672 2003 0
49 -673 1999 0
49 -674 2012 0
49 -675 1997 0
49 -676 2010 0
49 -677 2036 0
49 -678 2025 0
49 -679 2026 0
49 -680 2014 0
49 -681 1989 0
49 -682 2002 0
49 -683 2001 0
49 -684 2019 0
49 -685 1989 0
49 -686 2002 0
49 -687 1992 0
49 -688 2005 0
49 -689 1996 0
49 -690 2009 0
49 -691 2034 0
49 -692 2023 0
49 -693 2036 0
49 -694 2025 0
49 -695 2030 0
49 -696 2018 0
49 -697 2001 0
49 -698 2019 0
49 -699 2027 0
49 -700 2015 0
49 -701 1989 0
49 -702 2002 0
49 -703 1991 0
49 -704 2004 0
49 -705 1989 0
49 -706 2002 0
49 -707 2031 0
49 -708 2020 0
49 -709 1999 0
49 -710 2012 0
49 -711 1990 0
49 -712 2003 0
49 -713 1990 0
49 -714 2003 0
49 -715 1998 0
49 -716 2011 0
49 -717 2034 0
49 -718 2023 0
49 -719 2029 0
49 -720 2017 0
49 -721 2033 0
49 -722 2034 0
49 -723 2035 0
49 -724 2022 0
49 -725 2023 0
49 -726 2024 0
49 -727 2028 0
49 -728 2016 0
49 -729 1994 0
49 -730 2007 0
49 -731 1992 0
49 -732 2005 0
49 -733 2030 0
49 -734 2018 0
49 -735 2028 0
49 -736 2016 0
49 -737 2028 0
49 -738 2016 0
49 -739 2029 0
49 -740 2017 0
49 -741 1996 0
49 -742 2009 0
49 -743 2001 0
49 -744 2019 0
49 -745 1990 0
49 -746 1991 0
49 -747 1992 0
49 -748 2003 0
49 -749 2004 0
49 -750 2005 0
49 -751 1989 0
49 -752 2002 0
49 -753 1990 0
49 -754 2003 0
49 -755 2001 0
49 -756 2019 0
49 -757 1991 0
49 -758 2004 0
49 -759 1990 0
49 -760 2003 0
49 -761 1989 0
49 -762 2002 0
49 -763 1993 0
49 -764 2006 0
49 -765 2036 0
49 -766 2025 0
49 -767 2029 0
49 -768 2017 0
49 -769 1989 0
49 -770 2002 0
49 -771 1995 0
49 -772 2008 0
49 -773 1993 0
49 -774 2006 0
49 -775 1989 0
49 -776 2002 0
49 -777 1999 0
49 -778 2012 0
49 -779 1995 0
49 -780 2008 0
49 -781 1989 0
49 -782 2002 0
49 -783 1992 0
49 -784 2005 0
49 -785 1994 0
49 -786 2007 0
49 -787 2036 0
49 -788 2025 0
49 -789 2033 0
49 -790 2022 0
49 -791 1993 0
49 -792 2006 0
49 -793 2035 0
49 -794 2024 0
49 -795 1989 0
49 -796 2002 0
49 -797 2031 0
49 -798 2020 0
49 -799 1999 0
49 -800 2012 0
49 -801 1999 0
49 -802 2012 0
49 -803 2035 0
49 -804 2024 0
49 -805 2027 0
49 -806 2015 0
49 -807 2028 0
49 -808 2016 0
49 -809 1998 0
49 -810 2011 0
49 -811 1993 0
49 -812 2006 0
49 -813 2030 0
49 -814 2018 0
49 -815 2032 0
49 -816 2021 0
49 -817 1989 0
49 -818 2002 0
49 -819 1997 0
49 -820 2010 0
49 -821 2031 0
49 -822 2020 0
49 -823 1989 0
49 -824 2002 0
49 -825 2033 0
49 -826 2022 0
49 -827 2031 0
49 -828 2032 0
49 -829 2033 0
49 -830 2034 0
49 -831 2035 0
49 -832 2036 0
49 -833 2020 0
49 -834 2021 0
49 -835 2022 0
49 -836 2023 0
49 -837 2024 0
49 -838 2025 0
49 -839 1990 0
49 -840 2003 0
49 -841 2029 0
49 -842 2017 0
49 -843 2035 0
49 -844 2024 0
49 -845 2027 0
49 -846 2015 0
49 -847 1996 0
49 -848 2009 0
49 -849 2035 0
49 -850 2024 0
49 -851 1995 0
49 -852 2008 0
49 -853 1995 0
49 -854 2008 0
49 -855 1989 0
49 -856 2002 0
49 -857 2001 0
49 -858 2019 0
49 -859 1989 0
49 -860 2002 0
49 -861 2031 0
49 -862 2020 0
49 -863 1990 0
49 -864 2003 0
49 -865 1989 0
49 -866 2002 0
49 -867 1991 0
49 -868 2004 0
49 -869 1998 0
49 -870 2028 0
49 -871 2029 0
49 -872 2011 0
49 -873 2016 0
49 -874 2017 0
49 -875 1994 0
49 -876 2007 0
49 -877 2000 0
49 -878 2013 0
49 -879 1996 0
49 -880 2009 0
49 -881 1997 0
49 -882 2010 0
49 -883 1995 0
49 -884 2008 0
49 -885 2031 0
49 -886 2020 0
49 -887 1996 0
49 -888 2009 0
49 -889 1997 0
49 -890 2010 0
49 -891 2000 0
49 -892 2013 0
49 -893 1994 0
49 -894 2007 0
49 -895 1998 0
49 -896 2011 0
49 -897 1995 0
49 -898 2008 0
49 -899 2028 0
49 -900 2016 0
49 -901 2026 0
49 -902 2036 0
49 -903 2014 0
49 -904 2025 0
49 -905 2035 0
49 -906 2024 0
49 -907 2001 0
49 -908 2019 0
49 -909 2028 0
49 -910 2016 0
49 -911 2027 0
49 -912 2015 0
49 -913 1990 0
49 -914 2003 0
49 -915 2027 0
49 -916 2015 0
49 -917 2031 0
49 -918 2020 0
49 -919 2036 0
49 -920 2025 0
49 -921 2030 0
49 -922 2018 0
49 -923 2036 0
49 -924 2025 0
49 -925 2034 0
49 -926 2035 0
49 -927 2036 0
49 -928 2023 0
49 -929 2024 0
49 -930 2025 0
49 -931 1989 0
49 -932 2002 0
49 -933 1991 0
49 -934 2004 0
49 -935 2026 0
49 -936 2014 0
49 -937 2036 0
49 -938 2025 0
49 -939 2027 0
49 -940 2015 0
49 -941 2001 0
49 -942 2019 0
49 -943 2036 0
49 -944 2025 0
49 -945 1995 0
49 -946 2008 0
49 -947 2036 0
49 -948 2025 0
49 -949 2028 0
49 -950 2016 0
49 -951 1999 0
49 -952 2012 0
49 -953 1997 0
49 -954 2010 0
49 -955 2001 0
49 -956 2019 0
49 -957 2026 0
49 -958 2014 0
49 -959 2000 0
49 -960 2013 0
49 -961 1993 0
49 -962 2006 0
49 -963 2027 0
49 -964 2015 0
49 -965 2036 0
49 -966 2025 0
49 -967 1999 0
49 -968 2012 0
49 -969 2030 0
49 -970 2018 0
49 -971 1994 0
49 -972 2007 0
49 -973 1989 0
49 -974 2002 0
49 -975 2029 0
49 -976 2017 0
49 -977 2034 0
49 -978 2023 0
49 -979 2032 0
49 -980 2021 0
49 -981 2026 0
49 -982 2014 0
49 -983 1990 0
49 -984 2003 0
49 -985 2034 0
49 -986 2023 0
49 -987 2032 0
49 -988 2021 0
49 -989 1998 0
49 -990 2011 0
49 -991 2027 0
49 -992 2015 0
49 -993 2032 0
49 -994 2033 0
49 -995 2034 0
49 -996 2035 0
49 -997 2021 0
49 -998 2022 0
49 -999 2023 0
49 -1000 2024 0
49 -1001 2026 0
49 -1002 2014 0
49 -1003 1997 0
49 -1004 2010 0
49 -1005 1992 0
49 -1006 2005 0
49 -1007 1997 0
49 -1008 2010 0
49 -1009 1989 0
49 -1010 2002 0
49 -1011 1989 0
49 -1012 2002 0
49 -1013 1998 0
49 -1014 2011 0
49 -1015 2035 0
49 -1016 2024 0
49 -1017 2030 0
49 -1018 2018 0
49 -1019 1993 0
49 -1020 2006 0
49 -1021 2028 0
49 -1022 2016 0
49 -1023 2034 0
49 -1024 2023 0
49 -1025 2028 0
49 -1026 2016 0
49 -1027 2035 0
49 -1028 2024 0
49 -1029 2033 0
49 -1030 2022 0
49 -1031 1992 0
49 -1032 2005 0
49 -1033 2033 0
49 -1034 2022 0
49 -1035 2036 0
49 -1036 2025 0
49 -1037 2003 0
49 -1038 2028 0
49 -1039 1990 0
49 -1040 2016 0
49 -1041 2028 0
49 -1042 2016 0
49 -1043 2026 0
49 -1044 2014 0
49 -1045 2036 0
49 -1046 2025 0
49 -1047 1998 0
49 -1048 2011 0
49 -1049 1992 0
49 -1050 2005 0
49 -1051 2001 0
49 -1052 2019 0
49 -1053 2034 0
49 -1054 2023 0
49 -1055 2036 0
49 -1056 2025 0
49 -1057 2027 0
49 -1058 2015 0
49 -1059 1991 0
49 -1060 2004 0
49 -1061 2031 0
49 -1062 2020 0
49 -1063 2026 0
49 -1064 2027 0
49 -1065 2028 0
49 -1066 2029 0
49 -1067 2030 0
49 -1068 2031 0
49 -1069 2032 0
49 -1070 2033 0
49 -1071 2034 0
49 -1072 2035 0
49 -1073 2036 0
49 -1074 2014 0
49 -1075 2015 0
49 -1076 2016 0
49 -1077 2017 0
49 -1078 2018 0
49 -1079 2020 0
49 -1080 2021 0
49 -1081 2022 0
49 -1082 2023 0
49 -1083 2024 0
49 -1084 2025 0
49 -1085 2036 0
49 -1086 2025 0
49 -1087 2034 0
49 -1088 2023 0
49 -1089 1991 0
49 -1090 2004 0
49 -1091 1991 0
49 -1092 2004 0
49 -1093 1993 0
49 -1094 2006 0
49 -1095 2000 0
49 -1096 2013 0
49 -1097 1994 0
49 -1098 2007 0
49 -1099 2028 0
49 -1100 2016 0
49 -1101 2000 0
49 -1102 2013 0
49 -1103 1990 0
49 -1104 2003 0
49 -1105 2029 0
49 -1106 2017 0
49 -1107 2035 0
49 -1108 2024 0
49 -1109 1998 0
49 -1110 2011 0
49 -1111 2036 0
49 -1112 2025 0
49 -1113 1994 0
49 -1114 2007 0
49 -1115 2028 0
49 -1116 2016 0
49 -1117 1998 0
49 -1118 2011 0
49 -1119 2035 0
49 -1120 2024 0
49 -1121 1989 0
49 -1122 2002 0
49 -1123 1989 0
49 -1124 2002 0
49 -1125 1990 0
49 -1126 2003 0
49 -1127 2032 0
49 -1128 2021 0
49 -1129 2033 0
49 -1130 2022 0
49 -1131 1990 0
49 -1132 2003 0
49 -1133 1992 0
49 -1134 2005 0
49 -1135 2033 0
49 -1136 2022 0
49 -1137 1998 0
49 -1138 2011 0
49 -1139 1989 0
49 -1140 2002 0
49 -1141 1993 0
49 -1142 2006 0
49 -1143 2000 0
49 -1144 2013 0
49 -1145 2000 0
49 -1146 2013 0
49 -1147 2033 0
49 -1148 2022 0
49 -1149 1996 0
49 -1150 2009 0
49 -1151 2034 0
49 -1152 2023 0
49 -1153 2036 0
49 -1154 2025 0
49 -1155 1989 0
49 -1156 2002 0
49 -1157 2036 0
49 -1158 2025 0
49 -1159 2035 0
49 -1160 2024 0
49 -1161 2029 0
49 -1162 2017 0
49 -1163 1998 0
49 -1164 2011 0
49 -1165 2028 0
49 -1166 2016 0
49 -1167 2033 0
49 -1168 2022 0
49 -1169 2028 0
49 -1170 2016 0
49 -1171 2035 0
49 -1172 2024 0
49 -1173 1989 0
49 -1174 2002 0
49 -1175 2001 0
49 -1176 2019 0
49 -1177 1991 0
49 -1178 2004 0
49 -1179 2030 0
49 -1180 2018 0
