c Dataset: TUD916.4
c Encoding: DSE
c DecisionVars: 2886
c OrderVars: 0
c CardinalityAuxVars: 6814
c LabelVars: 48
c TotalVars: 9748
c OrderClauses: 0
c CardinalityClauses: 16698
c DistanceClauses: 6312
c LabelLinkClauses: 2886
c SoftClauses: 48
c HardClauses: 25896
c TotalClauses: 25944
p wcnf 9748 25944 49
1 -9701 0
1 -9702 0
1 -9703 0
1 -9704 0
1 -9705 0
1 -9706 0
1 -9707 0
1 -9708 0
1 -9709 0
1 -9710 0
1 -9711 0
1 -9712 0
1 -9713 0
1 -9714 0
1 -9715 0
1 -9716 0
1 -9717 0
1 -9718 0
1 -9719 0
1 -9720 0
1 -9721 0
1 -9722 0
1 -9723 0
1 -9724 0
1 -9725 0
1 -9726 0
1 -9727 0
1 -9728 0
1 -9729 0
1 -9730 0
1 -9731 0
1 -9732 0
1 -9733 0
1 -9734 0
1 -9735 0
1 -9736 0
1 -9737 0
1 -9738 0
1 -9739 0
1 -9740 0
1 -9741 0
1 -9742 0
1 -9743 0
1 -9744 0
1 -9745 0
1 -9746 0
1 -9747 0
1 -9748 0
49 1 0
49 2 0
49 3 0
49 4 0
49 5 6 7 8 9 10 11 0
49 -2898 2887 0
49 -2899 2888 0
49 -2900 2889 0
49 -2894 2887 0
49 -2895 2888 0
49 -2896 2889 0
49 -2897 2890 0
49 -2894 -2898 2888 0
49 -2894 -2899 2889 0
49 -2894 -2900 2890 0
49 -2895 -2898 2889 0
49 -2895 -2899 2890 0
49 -2895 -2900 2891 0
49 -2896 -2898 2890 0
49 -2896 -2899 2891 0
49 -2896 -2900 2892 0
49 -2897 -2898 2891 0
49 -2897 -2899 2892 0
49 -2897 -2900 2893 0
49 -11 2898 0
49 -2901 2898 0
49 -2902 2899 0
49 -2901 -11 2899 0
49 -2902 -11 2900 0
49 -10 2901 0
49 -9 2901 0
49 -9 -10 2902 0
49 -2905 2894 0
49 -2906 2895 0
49 -2903 2894 0
49 -2904 2895 0
49 -2903 -2905 2895 0
49 -2903 -2906 2896 0
49 -2904 -2905 2896 0
49 -2904 -2906 2897 0
49 -8 2905 0
49 -7 2905 0
49 -7 -8 2906 0
49 -6 2903 0
49 -5 2903 0
49 -5 -6 2904 0
49 -2888 0
49 12 13 14 15 16 17 18 0
49 -2918 2907 0
49 -2919 2908 0
49 -2920 2909 0
49 -2914 2907 0
49 -2915 2908 0
49 -2916 2909 0
49 -2917 2910 0
49 -2914 -2918 2908 0
49 -2914 -2919 2909 0
49 -2914 -2920 2910 0
49 -2915 -2918 2909 0
49 -2915 -2919 2910 0
49 -2915 -2920 2911 0
49 -2916 -2918 2910 0
49 -2916 -2919 2911 0
49 -2916 -2920 2912 0
49 -2917 -2918 2911 0
49 -2917 -2919 2912 0
49 -2917 -2920 2913 0
49 -18 2918 0
49 -2921 2918 0
49 -2922 2919 0
49 -2921 -18 2919 0
49 -2922 -18 2920 0
49 -17 2921 0
49 -16 2921 0
49 -16 -17 2922 0
49 -2925 2914 0
49 -2926 2915 0
49 -2923 2914 0
49 -2924 2915 0
49 -2923 -2925 2915 0
49 -2923 -2926 2916 0
49 -2924 -2925 2916 0
49 -2924 -2926 2917 0
49 -15 2925 0
49 -14 2925 0
49 -14 -15 2926 0
49 -13 2923 0
49 -12 2923 0
49 -12 -13 2924 0
49 -2908 0
49 19 0
49 20 0
49 21 0
49 22 0
49 23 0
49 24 0
49 25 0
49 26 0
49 27 0
49 28 0
49 29 0
49 30 0
49 31 32 33 34 35 0
49 -2935 2927 0
49 -2936 2928 0
49 -2932 2927 0
49 -2933 2928 0
49 -2934 2929 0
49 -2932 -2935 2928 0
49 -2932 -2936 2929 0
49 -2933 -2935 2929 0
49 -2933 -2936 2930 0
49 -2934 -2935 2930 0
49 -2934 -2936 2931 0
49 -35 2935 0
49 -34 2935 0
49 -34 -35 2936 0
49 -33 2932 0
49 -2937 2932 0
49 -2938 2933 0
49 -2937 -33 2933 0
49 -2938 -33 2934 0
49 -32 2937 0
49 -31 2937 0
49 -31 -32 2938 0
49 -2928 0
49 36 37 38 39 40 0
49 -2947 2939 0
49 -2948 2940 0
49 -2944 2939 0
49 -2945 2940 0
49 -2946 2941 0
49 -2944 -2947 2940 0
49 -2944 -2948 2941 0
49 -2945 -2947 2941 0
49 -2945 -2948 2942 0
49 -2946 -2947 2942 0
49 -2946 -2948 2943 0
49 -40 2947 0
49 -39 2947 0
49 -39 -40 2948 0
49 -38 2944 0
49 -2949 2944 0
49 -2950 2945 0
49 -2949 -38 2945 0
49 -2950 -38 2946 0
49 -37 2949 0
49 -36 2949 0
49 -36 -37 2950 0
49 -2940 0
49 41 0
49 42 0
49 43 44 45 46 47 48 49 50 51 52 53 0
49 -2968 2951 0
49 -2969 2952 0
49 -2970 2953 0
49 -2971 2954 0
49 -2972 2955 0
49 -2962 2951 0
49 -2963 2952 0
49 -2964 2953 0
49 -2965 2954 0
49 -2966 2955 0
49 -2967 2956 0
49 -2962 -2968 2952 0
49 -2962 -2969 2953 0
49 -2962 -2970 2954 0
49 -2962 -2971 2955 0
49 -2962 -2972 2956 0
49 -2963 -2968 2953 0
49 -2963 -2969 2954 0
49 -2963 -2970 2955 0
49 -2963 -2971 2956 0
49 -2963 -2972 2957 0
49 -2964 -2968 2954 0
49 -2964 -2969 2955 0
49 -2964 -2970 2956 0
49 -2964 -2971 2957 0
49 -2964 -2972 2958 0
49 -2965 -2968 2955 0
49 -2965 -2969 2956 0
49 -2965 -2970 2957 0
49 -2965 -2971 2958 0
49 -2965 -2972 2959 0
49 -2966 -2968 2956 0
49 -2966 -2969 2957 0
49 -2966 -2970 2958 0
49 -2966 -2971 2959 0
49 -2966 -2972 2960 0
49 -2967 -2968 2957 0
49 -2967 -2969 2958 0
49 -2967 -2970 2959 0
49 -2967 -2971 2960 0
49 -2967 -2972 2961 0
49 -2976 2968 0
49 -2977 2969 0
49 -2973 2968 0
49 -2974 2969 0
49 -2975 2970 0
49 -2973 -2976 2969 0
49 -2973 -2977 2970 0
49 -2974 -2976 2970 0
49 -2974 -2977 2971 0
49 -2975 -2976 2971 0
49 -2975 -2977 2972 0
49 -53 2976 0
49 -52 2976 0
49 -52 -53 2977 0
49 -51 2973 0
49 -2978 2973 0
49 -2979 2974 0
49 -2978 -51 2974 0
49 -2979 -51 2975 0
49 -50 2978 0
49 -49 2978 0
49 -49 -50 2979 0
49 -2983 2962 0
49 -2984 2963 0
49 -2985 2964 0
49 -2980 2962 0
49 -2981 2963 0
49 -2982 2964 0
49 -2980 -2983 2963 0
49 -2980 -2984 2964 0
49 -2980 -2985 2965 0
49 -2981 -2983 2964 0
49 -2981 -2984 2965 0
49 -2981 -2985 2966 0
49 -2982 -2983 2965 0
49 -2982 -2984 2966 0
49 -2982 -2985 2967 0
49 -48 2983 0
49 -2986 2983 0
49 -2987 2984 0
49 -2986 -48 2984 0
49 -2987 -48 2985 0
49 -47 2986 0
49 -46 2986 0
49 -46 -47 2987 0
49 -45 2980 0
49 -2988 2980 0
49 -2989 2981 0
49 -2988 -45 2981 0
49 -2989 -45 2982 0
49 -44 2988 0
49 -43 2988 0
49 -43 -44 2989 0
49 -2952 0
49 54 55 56 57 58 59 60 61 62 63 64 0
49 -3007 2990 0
49 -3008 2991 0
49 -3009 2992 0
49 -3010 2993 0
49 -3011 2994 0
49 -3001 2990 0
49 -3002 2991 0
49 -3003 2992 0
49 -3004 2993 0
49 -3005 2994 0
49 -3006 2995 0
49 -3001 -3007 2991 0
49 -3001 -3008 2992 0
49 -3001 -3009 2993 0
49 -3001 -3010 2994 0
49 -3001 -3011 2995 0
49 -3002 -3007 2992 0
49 -3002 -3008 2993 0
49 -3002 -3009 2994 0
49 -3002 -3010 2995 0
49 -3002 -3011 2996 0
49 -3003 -3007 2993 0
49 -3003 -3008 2994 0
49 -3003 -3009 2995 0
49 -3003 -3010 2996 0
49 -3003 -3011 2997 0
49 -3004 -3007 2994 0
49 -3004 -3008 2995 0
49 -3004 -3009 2996 0
49 -3004 -3010 2997 0
49 -3004 -3011 2998 0
49 -3005 -3007 2995 0
49 -3005 -3008 2996 0
49 -3005 -3009 2997 0
49 -3005 -3010 2998 0
49 -3005 -3011 2999 0
49 -3006 -3007 2996 0
49 -3006 -3008 2997 0
49 -3006 -3009 2998 0
49 -3006 -3010 2999 0
49 -3006 -3011 3000 0
49 -3015 3007 0
49 -3016 3008 0
49 -3012 3007 0
49 -3013 3008 0
49 -3014 3009 0
49 -3012 -3015 3008 0
49 -3012 -3016 3009 0
49 -3013 -3015 3009 0
49 -3013 -3016 3010 0
49 -3014 -3015 3010 0
49 -3014 -3016 3011 0
49 -64 3015 0
49 -63 3015 0
49 -63 -64 3016 0
49 -62 3012 0
49 -3017 3012 0
49 -3018 3013 0
49 -3017 -62 3013 0
49 -3018 -62 3014 0
49 -61 3017 0
49 -60 3017 0
49 -60 -61 3018 0
49 -3022 3001 0
49 -3023 3002 0
49 -3024 3003 0
49 -3019 3001 0
49 -3020 3002 0
49 -3021 3003 0
49 -3019 -3022 3002 0
49 -3019 -3023 3003 0
49 -3019 -3024 3004 0
49 -3020 -3022 3003 0
49 -3020 -3023 3004 0
49 -3020 -3024 3005 0
49 -3021 -3022 3004 0
49 -3021 -3023 3005 0
49 -3021 -3024 3006 0
49 -59 3022 0
49 -3025 3022 0
49 -3026 3023 0
49 -3025 -59 3023 0
49 -3026 -59 3024 0
49 -58 3025 0
49 -57 3025 0
49 -57 -58 3026 0
49 -56 3019 0
49 -3027 3019 0
49 -3028 3020 0
49 -3027 -56 3020 0
49 -3028 -56 3021 0
49 -55 3027 0
49 -54 3027 0
49 -54 -55 3028 0
49 -2991 0
49 65 66 67 68 69 70 71 72 0
49 -3041 3029 0
49 -3042 3030 0
49 -3043 3031 0
49 -3044 3032 0
49 -3037 3029 0
49 -3038 3030 0
49 -3039 3031 0
49 -3040 3032 0
49 -3037 -3041 3030 0
49 -3037 -3042 3031 0
49 -3037 -3043 3032 0
49 -3037 -3044 3033 0
49 -3038 -3041 3031 0
49 -3038 -3042 3032 0
49 -3038 -3043 3033 0
49 -3038 -3044 3034 0
49 -3039 -3041 3032 0
49 -3039 -3042 3033 0
49 -3039 -3043 3034 0
49 -3039 -3044 3035 0
49 -3040 -3041 3033 0
49 -3040 -3042 3034 0
49 -3040 -3043 3035 0
49 -3040 -3044 3036 0
49 -3047 3041 0
49 -3048 3042 0
49 -3045 3041 0
49 -3046 3042 0
49 -3045 -3047 3042 0
49 -3045 -3048 3043 0
49 -3046 -3047 3043 0
49 -3046 -3048 3044 0
49 -72 3047 0
49 -71 3047 0
49 -71 -72 3048 0
49 -70 3045 0
49 -69 3045 0
49 -69 -70 3046 0
49 -3051 3037 0
49 -3052 3038 0
49 -3049 3037 0
49 -3050 3038 0
49 -3049 -3051 3038 0
49 -3049 -3052 3039 0
49 -3050 -3051 3039 0
49 -3050 -3052 3040 0
49 -68 3051 0
49 -67 3051 0
49 -67 -68 3052 0
49 -66 3049 0
49 -65 3049 0
49 -65 -66 3050 0
49 -3030 0
49 73 74 75 76 77 78 79 80 0
49 -3065 3053 0
49 -3066 3054 0
49 -3067 3055 0
49 -3068 3056 0
49 -3061 3053 0
49 -3062 3054 0
49 -3063 3055 0
49 -3064 3056 0
49 -3061 -3065 3054 0
49 -3061 -3066 3055 0
49 -3061 -3067 3056 0
49 -3061 -3068 3057 0
49 -3062 -3065 3055 0
49 -3062 -3066 3056 0
49 -3062 -3067 3057 0
49 -3062 -3068 3058 0
49 -3063 -3065 3056 0
49 -3063 -3066 3057 0
49 -3063 -3067 3058 0
49 -3063 -3068 3059 0
49 -3064 -3065 3057 0
49 -3064 -3066 3058 0
49 -3064 -3067 3059 0
49 -3064 -3068 3060 0
49 -3071 3065 0
49 -3072 3066 0
49 -3069 3065 0
49 -3070 3066 0
49 -3069 -3071 3066 0
49 -3069 -3072 3067 0
49 -3070 -3071 3067 0
49 -3070 -3072 3068 0
49 -80 3071 0
49 -79 3071 0
49 -79 -80 3072 0
49 -78 3069 0
49 -77 3069 0
49 -77 -78 3070 0
49 -3075 3061 0
49 -3076 3062 0
49 -3073 3061 0
49 -3074 3062 0
49 -3073 -3075 3062 0
49 -3073 -3076 3063 0
49 -3074 -3075 3063 0
49 -3074 -3076 3064 0
49 -76 3075 0
49 -75 3075 0
49 -75 -76 3076 0
49 -74 3073 0
49 -73 3073 0
49 -73 -74 3074 0
49 -3054 0
49 81 82 83 84 0
49 -3083 3077 0
49 -3084 3078 0
49 -3081 3077 0
49 -3082 3078 0
49 -3081 -3083 3078 0
49 -3081 -3084 3079 0
49 -3082 -3083 3079 0
49 -3082 -3084 3080 0
49 -84 3083 0
49 -83 3083 0
49 -83 -84 3084 0
49 -82 3081 0
49 -81 3081 0
49 -81 -82 3082 0
49 -3078 0
49 85 86 87 88 0
49 -3091 3085 0
49 -3092 3086 0
49 -3089 3085 0
49 -3090 3086 0
49 -3089 -3091 3086 0
49 -3089 -3092 3087 0
49 -3090 -3091 3087 0
49 -3090 -3092 3088 0
49 -88 3091 0
49 -87 3091 0
49 -87 -88 3092 0
49 -86 3089 0
49 -85 3089 0
49 -85 -86 3090 0
49 -3086 0
49 89 0
49 90 0
49 91 0
49 92 0
49 93 94 95 96 97 98 99 100 0
49 -3105 3093 0
49 -3106 3094 0
49 -3107 3095 0
49 -3108 3096 0
49 -3101 3093 0
49 -3102 3094 0
49 -3103 3095 0
49 -3104 3096 0
49 -3101 -3105 3094 0
49 -3101 -3106 3095 0
49 -3101 -3107 3096 0
49 -3101 -3108 3097 0
49 -3102 -3105 3095 0
49 -3102 -3106 3096 0
49 -3102 -3107 3097 0
49 -3102 -3108 3098 0
49 -3103 -3105 3096 0
49 -3103 -3106 3097 0
49 -3103 -3107 3098 0
49 -3103 -3108 3099 0
49 -3104 -3105 3097 0
49 -3104 -3106 3098 0
49 -3104 -3107 3099 0
49 -3104 -3108 3100 0
49 -3111 3105 0
49 -3112 3106 0
49 -3109 3105 0
49 -3110 3106 0
49 -3109 -3111 3106 0
49 -3109 -3112 3107 0
49 -3110 -3111 3107 0
49 -3110 -3112 3108 0
49 -100 3111 0
49 -99 3111 0
49 -99 -100 3112 0
49 -98 3109 0
49 -97 3109 0
49 -97 -98 3110 0
49 -3115 3101 0
49 -3116 3102 0
49 -3113 3101 0
49 -3114 3102 0
49 -3113 -3115 3102 0
49 -3113 -3116 3103 0
49 -3114 -3115 3103 0
49 -3114 -3116 3104 0
49 -96 3115 0
49 -95 3115 0
49 -95 -96 3116 0
49 -94 3113 0
49 -93 3113 0
49 -93 -94 3114 0
49 -3094 0
49 101 102 103 104 105 106 107 108 0
49 -3129 3117 0
49 -3130 3118 0
49 -3131 3119 0
49 -3132 3120 0
49 -3125 3117 0
49 -3126 3118 0
49 -3127 3119 0
49 -3128 3120 0
49 -3125 -3129 3118 0
49 -3125 -3130 3119 0
49 -3125 -3131 3120 0
49 -3125 -3132 3121 0
49 -3126 -3129 3119 0
49 -3126 -3130 3120 0
49 -3126 -3131 3121 0
49 -3126 -3132 3122 0
49 -3127 -3129 3120 0
49 -3127 -3130 3121 0
49 -3127 -3131 3122 0
49 -3127 -3132 3123 0
49 -3128 -3129 3121 0
49 -3128 -3130 3122 0
49 -3128 -3131 3123 0
49 -3128 -3132 3124 0
49 -3135 3129 0
49 -3136 3130 0
49 -3133 3129 0
49 -3134 3130 0
49 -3133 -3135 3130 0
49 -3133 -3136 3131 0
49 -3134 -3135 3131 0
49 -3134 -3136 3132 0
49 -108 3135 0
49 -107 3135 0
49 -107 -108 3136 0
49 -106 3133 0
49 -105 3133 0
49 -105 -106 3134 0
49 -3139 3125 0
49 -3140 3126 0
49 -3137 3125 0
49 -3138 3126 0
49 -3137 -3139 3126 0
49 -3137 -3140 3127 0
49 -3138 -3139 3127 0
49 -3138 -3140 3128 0
49 -104 3139 0
49 -103 3139 0
49 -103 -104 3140 0
49 -102 3137 0
49 -101 3137 0
49 -101 -102 3138 0
49 -3118 0
49 109 110 0
49 -109 -110 0
49 111 112 0
49 -111 -112 0
49 113 0
49 114 0
49 115 0
49 116 0
49 117 0
49 118 0
49 119 120 121 122 123 0
49 -3149 3141 0
49 -3150 3142 0
49 -3146 3141 0
49 -3147 3142 0
49 -3148 3143 0
49 -3146 -3149 3142 0
49 -3146 -3150 3143 0
49 -3147 -3149 3143 0
49 -3147 -3150 3144 0
49 -3148 -3149 3144 0
49 -3148 -3150 3145 0
49 -123 3149 0
49 -122 3149 0
49 -122 -123 3150 0
49 -121 3146 0
49 -3151 3146 0
49 -3152 3147 0
49 -3151 -121 3147 0
49 -3152 -121 3148 0
49 -120 3151 0
49 -119 3151 0
49 -119 -120 3152 0
49 -3142 0
49 124 125 126 127 128 0
49 -3161 3153 0
49 -3162 3154 0
49 -3158 3153 0
49 -3159 3154 0
49 -3160 3155 0
49 -3158 -3161 3154 0
49 -3158 -3162 3155 0
49 -3159 -3161 3155 0
49 -3159 -3162 3156 0
49 -3160 -3161 3156 0
49 -3160 -3162 3157 0
49 -128 3161 0
49 -127 3161 0
49 -127 -128 3162 0
49 -126 3158 0
49 -3163 3158 0
49 -3164 3159 0
49 -3163 -126 3159 0
49 -3164 -126 3160 0
49 -125 3163 0
49 -124 3163 0
49 -124 -125 3164 0
49 -3154 0
49 129 0
49 130 0
49 131 0
49 132 0
49 133 134 135 136 137 138 139 140 0
49 -3177 3165 0
49 -3178 3166 0
49 -3179 3167 0
49 -3180 3168 0
49 -3173 3165 0
49 -3174 3166 0
49 -3175 3167 0
49 -3176 3168 0
49 -3173 -3177 3166 0
49 -3173 -3178 3167 0
49 -3173 -3179 3168 0
49 -3173 -3180 3169 0
49 -3174 -3177 3167 0
49 -3174 -3178 3168 0
49 -3174 -3179 3169 0
49 -3174 -3180 3170 0
49 -3175 -3177 3168 0
49 -3175 -3178 3169 0
49 -3175 -3179 3170 0
49 -3175 -3180 3171 0
49 -3176 -3177 3169 0
49 -3176 -3178 3170 0
49 -3176 -3179 3171 0
49 -3176 -3180 3172 0
49 -3183 3177 0
49 -3184 3178 0
49 -3181 3177 0
49 -3182 3178 0
49 -3181 -3183 3178 0
49 -3181 -3184 3179 0
49 -3182 -3183 3179 0
49 -3182 -3184 3180 0
49 -140 3183 0
49 -139 3183 0
49 -139 -140 3184 0
49 -138 3181 0
49 -137 3181 0
49 -137 -138 3182 0
49 -3187 3173 0
49 -3188 3174 0
49 -3185 3173 0
49 -3186 3174 0
49 -3185 -3187 3174 0
49 -3185 -3188 3175 0
49 -3186 -3187 3175 0
49 -3186 -3188 3176 0
49 -136 3187 0
49 -135 3187 0
49 -135 -136 3188 0
49 -134 3185 0
49 -133 3185 0
49 -133 -134 3186 0
49 -3166 0
49 141 142 143 144 145 146 147 148 0
49 -3201 3189 0
49 -3202 3190 0
49 -3203 3191 0
49 -3204 3192 0
49 -3197 3189 0
49 -3198 3190 0
49 -3199 3191 0
49 -3200 3192 0
49 -3197 -3201 3190 0
49 -3197 -3202 3191 0
49 -3197 -3203 3192 0
49 -3197 -3204 3193 0
49 -3198 -3201 3191 0
49 -3198 -3202 3192 0
49 -3198 -3203 3193 0
49 -3198 -3204 3194 0
49 -3199 -3201 3192 0
49 -3199 -3202 3193 0
49 -3199 -3203 3194 0
49 -3199 -3204 3195 0
49 -3200 -3201 3193 0
49 -3200 -3202 3194 0
49 -3200 -3203 3195 0
49 -3200 -3204 3196 0
49 -3207 3201 0
49 -3208 3202 0
49 -3205 3201 0
49 -3206 3202 0
49 -3205 -3207 3202 0
49 -3205 -3208 3203 0
49 -3206 -3207 3203 0
49 -3206 -3208 3204 0
49 -148 3207 0
49 -147 3207 0
49 -147 -148 3208 0
49 -146 3205 0
49 -145 3205 0
49 -145 -146 3206 0
49 -3211 3197 0
49 -3212 3198 0
49 -3209 3197 0
49 -3210 3198 0
49 -3209 -3211 3198 0
49 -3209 -3212 3199 0
49 -3210 -3211 3199 0
49 -3210 -3212 3200 0
49 -144 3211 0
49 -143 3211 0
49 -143 -144 3212 0
49 -142 3209 0
49 -141 3209 0
49 -141 -142 3210 0
49 -3190 0
49 149 150 151 152 0
49 -3219 3213 0
49 -3220 3214 0
49 -3217 3213 0
49 -3218 3214 0
49 -3217 -3219 3214 0
49 -3217 -3220 3215 0
49 -3218 -3219 3215 0
49 -3218 -3220 3216 0
49 -152 3219 0
49 -151 3219 0
49 -151 -152 3220 0
49 -150 3217 0
49 -149 3217 0
49 -149 -150 3218 0
49 -3214 0
49 153 154 155 156 0
49 -3227 3221 0
49 -3228 3222 0
49 -3225 3221 0
49 -3226 3222 0
49 -3225 -3227 3222 0
49 -3225 -3228 3223 0
49 -3226 -3227 3223 0
49 -3226 -3228 3224 0
49 -156 3227 0
49 -155 3227 0
49 -155 -156 3228 0
49 -154 3225 0
49 -153 3225 0
49 -153 -154 3226 0
49 -3222 0
49 157 158 159 160 161 162 163 0
49 -3240 3229 0
49 -3241 3230 0
49 -3242 3231 0
49 -3236 3229 0
49 -3237 3230 0
49 -3238 3231 0
49 -3239 3232 0
49 -3236 -3240 3230 0
49 -3236 -3241 3231 0
49 -3236 -3242 3232 0
49 -3237 -3240 3231 0
49 -3237 -3241 3232 0
49 -3237 -3242 3233 0
49 -3238 -3240 3232 0
49 -3238 -3241 3233 0
49 -3238 -3242 3234 0
49 -3239 -3240 3233 0
49 -3239 -3241 3234 0
49 -3239 -3242 3235 0
49 -163 3240 0
49 -3243 3240 0
49 -3244 3241 0
49 -3243 -163 3241 0
49 -3244 -163 3242 0
49 -162 3243 0
49 -161 3243 0
49 -161 -162 3244 0
49 -3247 3236 0
49 -3248 3237 0
49 -3245 3236 0
49 -3246 3237 0
49 -3245 -3247 3237 0
49 -3245 -3248 3238 0
49 -3246 -3247 3238 0
49 -3246 -3248 3239 0
49 -160 3247 0
49 -159 3247 0
49 -159 -160 3248 0
49 -158 3245 0
49 -157 3245 0
49 -157 -158 3246 0
49 -3230 0
49 164 165 166 167 168 169 170 0
49 -3260 3249 0
49 -3261 3250 0
49 -3262 3251 0
49 -3256 3249 0
49 -3257 3250 0
49 -3258 3251 0
49 -3259 3252 0
49 -3256 -3260 3250 0
49 -3256 -3261 3251 0
49 -3256 -3262 3252 0
49 -3257 -3260 3251 0
49 -3257 -3261 3252 0
49 -3257 -3262 3253 0
49 -3258 -3260 3252 0
49 -3258 -3261 3253 0
49 -3258 -3262 3254 0
49 -3259 -3260 3253 0
49 -3259 -3261 3254 0
49 -3259 -3262 3255 0
49 -170 3260 0
49 -3263 3260 0
49 -3264 3261 0
49 -3263 -170 3261 0
49 -3264 -170 3262 0
49 -169 3263 0
49 -168 3263 0
49 -168 -169 3264 0
49 -3267 3256 0
49 -3268 3257 0
49 -3265 3256 0
49 -3266 3257 0
49 -3265 -3267 3257 0
49 -3265 -3268 3258 0
49 -3266 -3267 3258 0
49 -3266 -3268 3259 0
49 -167 3267 0
49 -166 3267 0
49 -166 -167 3268 0
49 -165 3265 0
49 -164 3265 0
49 -164 -165 3266 0
49 -3250 0
49 171 172 173 174 175 176 0
49 -3278 3269 0
49 -3279 3270 0
49 -3280 3271 0
49 -3275 3269 0
49 -3276 3270 0
49 -3277 3271 0
49 -3275 -3278 3270 0
49 -3275 -3279 3271 0
49 -3275 -3280 3272 0
49 -3276 -3278 3271 0
49 -3276 -3279 3272 0
49 -3276 -3280 3273 0
49 -3277 -3278 3272 0
49 -3277 -3279 3273 0
49 -3277 -3280 3274 0
49 -176 3278 0
49 -3281 3278 0
49 -3282 3279 0
49 -3281 -176 3279 0
49 -3282 -176 3280 0
49 -175 3281 0
49 -174 3281 0
49 -174 -175 3282 0
49 -173 3275 0
49 -3283 3275 0
49 -3284 3276 0
49 -3283 -173 3276 0
49 -3284 -173 3277 0
49 -172 3283 0
49 -171 3283 0
49 -171 -172 3284 0
49 -3270 0
49 177 178 179 180 181 182 0
49 -3294 3285 0
49 -3295 3286 0
49 -3296 3287 0
49 -3291 3285 0
49 -3292 3286 0
49 -3293 3287 0
49 -3291 -3294 3286 0
49 -3291 -3295 3287 0
49 -3291 -3296 3288 0
49 -3292 -3294 3287 0
49 -3292 -3295 3288 0
49 -3292 -3296 3289 0
49 -3293 -3294 3288 0
49 -3293 -3295 3289 0
49 -3293 -3296 3290 0
49 -182 3294 0
49 -3297 3294 0
49 -3298 3295 0
49 -3297 -182 3295 0
49 -3298 -182 3296 0
49 -181 3297 0
49 -180 3297 0
49 -180 -181 3298 0
49 -179 3291 0
49 -3299 3291 0
49 -3300 3292 0
49 -3299 -179 3292 0
49 -3300 -179 3293 0
49 -178 3299 0
49 -177 3299 0
49 -177 -178 3300 0
49 -3286 0
49 183 184 185 186 187 188 189 190 191 192 193 0
49 -3318 3301 0
49 -3319 3302 0
49 -3320 3303 0
49 -3321 3304 0
49 -3322 3305 0
49 -3312 3301 0
49 -3313 3302 0
49 -3314 3303 0
49 -3315 3304 0
49 -3316 3305 0
49 -3317 3306 0
49 -3312 -3318 3302 0
49 -3312 -3319 3303 0
49 -3312 -3320 3304 0
49 -3312 -3321 3305 0
49 -3312 -3322 3306 0
49 -3313 -3318 3303 0
49 -3313 -3319 3304 0
49 -3313 -3320 3305 0
49 -3313 -3321 3306 0
49 -3313 -3322 3307 0
49 -3314 -3318 3304 0
49 -3314 -3319 3305 0
49 -3314 -3320 3306 0
49 -3314 -3321 3307 0
49 -3314 -3322 3308 0
49 -3315 -3318 3305 0
49 -3315 -3319 3306 0
49 -3315 -3320 3307 0
49 -3315 -3321 3308 0
49 -3315 -3322 3309 0
49 -3316 -3318 3306 0
49 -3316 -3319 3307 0
49 -3316 -3320 3308 0
49 -3316 -3321 3309 0
49 -3316 -3322 3310 0
49 -3317 -3318 3307 0
49 -3317 -3319 3308 0
49 -3317 -3320 3309 0
49 -3317 -3321 3310 0
49 -3317 -3322 3311 0
49 -3326 3318 0
49 -3327 3319 0
49 -3323 3318 0
49 -3324 3319 0
49 -3325 3320 0
49 -3323 -3326 3319 0
49 -3323 -3327 3320 0
49 -3324 -3326 3320 0
49 -3324 -3327 3321 0
49 -3325 -3326 3321 0
49 -3325 -3327 3322 0
49 -193 3326 0
49 -192 3326 0
49 -192 -193 3327 0
49 -191 3323 0
49 -3328 3323 0
49 -3329 3324 0
49 -3328 -191 3324 0
49 -3329 -191 3325 0
49 -190 3328 0
49 -189 3328 0
49 -189 -190 3329 0
49 -3333 3312 0
49 -3334 3313 0
49 -3335 3314 0
49 -3330 3312 0
49 -3331 3313 0
49 -3332 3314 0
49 -3330 -3333 3313 0
49 -3330 -3334 3314 0
49 -3330 -3335 3315 0
49 -3331 -3333 3314 0
49 -3331 -3334 3315 0
49 -3331 -3335 3316 0
49 -3332 -3333 3315 0
49 -3332 -3334 3316 0
49 -3332 -3335 3317 0
49 -188 3333 0
49 -3336 3333 0
49 -3337 3334 0
49 -3336 -188 3334 0
49 -3337 -188 3335 0
49 -187 3336 0
49 -186 3336 0
49 -186 -187 3337 0
49 -185 3330 0
49 -3338 3330 0
49 -3339 3331 0
49 -3338 -185 3331 0
49 -3339 -185 3332 0
49 -184 3338 0
49 -183 3338 0
49 -183 -184 3339 0
49 -3302 0
49 194 195 196 197 198 199 200 201 202 203 204 0
49 -3357 3340 0
49 -3358 3341 0
49 -3359 3342 0
49 -3360 3343 0
49 -3361 3344 0
49 -3351 3340 0
49 -3352 3341 0
49 -3353 3342 0
49 -3354 3343 0
49 -3355 3344 0
49 -3356 3345 0
49 -3351 -3357 3341 0
49 -3351 -3358 3342 0
49 -3351 -3359 3343 0
49 -3351 -3360 3344 0
49 -3351 -3361 3345 0
49 -3352 -3357 3342 0
49 -3352 -3358 3343 0
49 -3352 -3359 3344 0
49 -3352 -3360 3345 0
49 -3352 -3361 3346 0
49 -3353 -3357 3343 0
49 -3353 -3358 3344 0
49 -3353 -3359 3345 0
49 -3353 -3360 3346 0
49 -3353 -3361 3347 0
49 -3354 -3357 3344 0
49 -3354 -3358 3345 0
49 -3354 -3359 3346 0
49 -3354 -3360 3347 0
49 -3354 -3361 3348 0
49 -3355 -3357 3345 0
49 -3355 -3358 3346 0
49 -3355 -3359 3347 0
49 -3355 -3360 3348 0
49 -3355 -3361 3349 0
49 -3356 -3357 3346 0
49 -3356 -3358 3347 0
49 -3356 -3359 3348 0
49 -3356 -3360 3349 0
49 -3356 -3361 3350 0
49 -3365 3357 0
49 -3366 3358 0
49 -3362 3357 0
49 -3363 3358 0
49 -3364 3359 0
49 -3362 -3365 3358 0
49 -3362 -3366 3359 0
49 -3363 -3365 3359 0
49 -3363 -3366 3360 0
49 -3364 -3365 3360 0
49 -3364 -3366 3361 0
49 -204 3365 0
49 -203 3365 0
49 -203 -204 3366 0
49 -202 3362 0
49 -3367 3362 0
49 -3368 3363 0
49 -3367 -202 3363 0
49 -3368 -202 3364 0
49 -201 3367 0
49 -200 3367 0
49 -200 -201 3368 0
49 -3372 3351 0
49 -3373 3352 0
49 -3374 3353 0
49 -3369 3351 0
49 -3370 3352 0
49 -3371 3353 0
49 -3369 -3372 3352 0
49 -3369 -3373 3353 0
49 -3369 -3374 3354 0
49 -3370 -3372 3353 0
49 -3370 -3373 3354 0
49 -3370 -3374 3355 0
49 -3371 -3372 3354 0
49 -3371 -3373 3355 0
49 -3371 -3374 3356 0
49 -199 3372 0
49 -3375 3372 0
49 -3376 3373 0
49 -3375 -199 3373 0
49 -3376 -199 3374 0
49 -198 3375 0
49 -197 3375 0
49 -197 -198 3376 0
49 -196 3369 0
49 -3377 3369 0
49 -3378 3370 0
49 -3377 -196 3370 0
49 -3378 -196 3371 0
49 -195 3377 0
49 -194 3377 0
49 -194 -195 3378 0
49 -3341 0
49 205 0
49 206 0
49 207 0
49 208 0
49 209 210 211 212 213 214 215 216 217 218 219 0
49 -3396 3379 0
49 -3397 3380 0
49 -3398 3381 0
49 -3399 3382 0
49 -3400 3383 0
49 -3390 3379 0
49 -3391 3380 0
49 -3392 3381 0
49 -3393 3382 0
49 -3394 3383 0
49 -3395 3384 0
49 -3390 -3396 3380 0
49 -3390 -3397 3381 0
49 -3390 -3398 3382 0
49 -3390 -3399 3383 0
49 -3390 -3400 3384 0
49 -3391 -3396 3381 0
49 -3391 -3397 3382 0
49 -3391 -3398 3383 0
49 -3391 -3399 3384 0
49 -3391 -3400 3385 0
49 -3392 -3396 3382 0
49 -3392 -3397 3383 0
49 -3392 -3398 3384 0
49 -3392 -3399 3385 0
49 -3392 -3400 3386 0
49 -3393 -3396 3383 0
49 -3393 -3397 3384 0
49 -3393 -3398 3385 0
49 -3393 -3399 3386 0
49 -3393 -3400 3387 0
49 -3394 -3396 3384 0
49 -3394 -3397 3385 0
49 -3394 -3398 3386 0
49 -3394 -3399 3387 0
49 -3394 -3400 3388 0
49 -3395 -3396 3385 0
49 -3395 -3397 3386 0
49 -3395 -3398 3387 0
49 -3395 -3399 3388 0
49 -3395 -3400 3389 0
49 -3404 3396 0
49 -3405 3397 0
49 -3401 3396 0
49 -3402 3397 0
49 -3403 3398 0
49 -3401 -3404 3397 0
49 -3401 -3405 3398 0
49 -3402 -3404 3398 0
49 -3402 -3405 3399 0
49 -3403 -3404 3399 0
49 -3403 -3405 3400 0
49 -219 3404 0
49 -218 3404 0
49 -218 -219 3405 0
49 -217 3401 0
49 -3406 3401 0
49 -3407 3402 0
49 -3406 -217 3402 0
49 -3407 -217 3403 0
49 -216 3406 0
49 -215 3406 0
49 -215 -216 3407 0
49 -3411 3390 0
49 -3412 3391 0
49 -3413 3392 0
49 -3408 3390 0
49 -3409 3391 0
49 -3410 3392 0
49 -3408 -3411 3391 0
49 -3408 -3412 3392 0
49 -3408 -3413 3393 0
49 -3409 -3411 3392 0
49 -3409 -3412 3393 0
49 -3409 -3413 3394 0
49 -3410 -3411 3393 0
49 -3410 -3412 3394 0
49 -3410 -3413 3395 0
49 -214 3411 0
49 -3414 3411 0
49 -3415 3412 0
49 -3414 -214 3412 0
49 -3415 -214 3413 0
49 -213 3414 0
49 -212 3414 0
49 -212 -213 3415 0
49 -211 3408 0
49 -3416 3408 0
49 -3417 3409 0
49 -3416 -211 3409 0
49 -3417 -211 3410 0
49 -210 3416 0
49 -209 3416 0
49 -209 -210 3417 0
49 -3380 0
49 220 221 222 223 224 225 226 227 228 229 230 0
49 -3435 3418 0
49 -3436 3419 0
49 -3437 3420 0
49 -3438 3421 0
49 -3439 3422 0
49 -3429 3418 0
49 -3430 3419 0
49 -3431 3420 0
49 -3432 3421 0
49 -3433 3422 0
49 -3434 3423 0
49 -3429 -3435 3419 0
49 -3429 -3436 3420 0
49 -3429 -3437 3421 0
49 -3429 -3438 3422 0
49 -3429 -3439 3423 0
49 -3430 -3435 3420 0
49 -3430 -3436 3421 0
49 -3430 -3437 3422 0
49 -3430 -3438 3423 0
49 -3430 -3439 3424 0
49 -3431 -3435 3421 0
49 -3431 -3436 3422 0
49 -3431 -3437 3423 0
49 -3431 -3438 3424 0
49 -3431 -3439 3425 0
49 -3432 -3435 3422 0
49 -3432 -3436 3423 0
49 -3432 -3437 3424 0
49 -3432 -3438 3425 0
49 -3432 -3439 3426 0
49 -3433 -3435 3423 0
49 -3433 -3436 3424 0
49 -3433 -3437 3425 0
49 -3433 -3438 3426 0
49 -3433 -3439 3427 0
49 -3434 -3435 3424 0
49 -3434 -3436 3425 0
49 -3434 -3437 3426 0
49 -3434 -3438 3427 0
49 -3434 -3439 3428 0
49 -3443 3435 0
49 -3444 3436 0
49 -3440 3435 0
49 -3441 3436 0
49 -3442 3437 0
49 -3440 -3443 3436 0
49 -3440 -3444 3437 0
49 -3441 -3443 3437 0
49 -3441 -3444 3438 0
49 -3442 -3443 3438 0
49 -3442 -3444 3439 0
49 -230 3443 0
49 -229 3443 0
49 -229 -230 3444 0
49 -228 3440 0
49 -3445 3440 0
49 -3446 3441 0
49 -3445 -228 3441 0
49 -3446 -228 3442 0
49 -227 3445 0
49 -226 3445 0
49 -226 -227 3446 0
49 -3450 3429 0
49 -3451 3430 0
49 -3452 3431 0
49 -3447 3429 0
49 -3448 3430 0
49 -3449 3431 0
49 -3447 -3450 3430 0
49 -3447 -3451 3431 0
49 -3447 -3452 3432 0
49 -3448 -3450 3431 0
49 -3448 -3451 3432 0
49 -3448 -3452 3433 0
49 -3449 -3450 3432 0
49 -3449 -3451 3433 0
49 -3449 -3452 3434 0
49 -225 3450 0
49 -3453 3450 0
49 -3454 3451 0
49 -3453 -225 3451 0
49 -3454 -225 3452 0
49 -224 3453 0
49 -223 3453 0
49 -223 -224 3454 0
49 -222 3447 0
49 -3455 3447 0
49 -3456 3448 0
49 -3455 -222 3448 0
49 -3456 -222 3449 0
49 -221 3455 0
49 -220 3455 0
49 -220 -221 3456 0
49 -3419 0
49 231 232 233 234 235 236 237 238 0
49 -3469 3457 0
49 -3470 3458 0
49 -3471 3459 0
49 -3472 3460 0
49 -3465 3457 0
49 -3466 3458 0
49 -3467 3459 0
49 -3468 3460 0
49 -3465 -3469 3458 0
49 -3465 -3470 3459 0
49 -3465 -3471 3460 0
49 -3465 -3472 3461 0
49 -3466 -3469 3459 0
49 -3466 -3470 3460 0
49 -3466 -3471 3461 0
49 -3466 -3472 3462 0
49 -3467 -3469 3460 0
49 -3467 -3470 3461 0
49 -3467 -3471 3462 0
49 -3467 -3472 3463 0
49 -3468 -3469 3461 0
49 -3468 -3470 3462 0
49 -3468 -3471 3463 0
49 -3468 -3472 3464 0
49 -3475 3469 0
49 -3476 3470 0
49 -3473 3469 0
49 -3474 3470 0
49 -3473 -3475 3470 0
49 -3473 -3476 3471 0
49 -3474 -3475 3471 0
49 -3474 -3476 3472 0
49 -238 3475 0
49 -237 3475 0
49 -237 -238 3476 0
49 -236 3473 0
49 -235 3473 0
49 -235 -236 3474 0
49 -3479 3465 0
49 -3480 3466 0
49 -3477 3465 0
49 -3478 3466 0
49 -3477 -3479 3466 0
49 -3477 -3480 3467 0
49 -3478 -3479 3467 0
49 -3478 -3480 3468 0
49 -234 3479 0
49 -233 3479 0
49 -233 -234 3480 0
49 -232 3477 0
49 -231 3477 0
49 -231 -232 3478 0
49 -3458 0
49 239 240 241 242 243 244 245 246 0
49 -3493 3481 0
49 -3494 3482 0
49 -3495 3483 0
49 -3496 3484 0
49 -3489 3481 0
49 -3490 3482 0
49 -3491 3483 0
49 -3492 3484 0
49 -3489 -3493 3482 0
49 -3489 -3494 3483 0
49 -3489 -3495 3484 0
49 -3489 -3496 3485 0
49 -3490 -3493 3483 0
49 -3490 -3494 3484 0
49 -3490 -3495 3485 0
49 -3490 -3496 3486 0
49 -3491 -3493 3484 0
49 -3491 -3494 3485 0
49 -3491 -3495 3486 0
49 -3491 -3496 3487 0
49 -3492 -3493 3485 0
49 -3492 -3494 3486 0
49 -3492 -3495 3487 0
49 -3492 -3496 3488 0
49 -3499 3493 0
49 -3500 3494 0
49 -3497 3493 0
49 -3498 3494 0
49 -3497 -3499 3494 0
49 -3497 -3500 3495 0
49 -3498 -3499 3495 0
49 -3498 -3500 3496 0
49 -246 3499 0
49 -245 3499 0
49 -245 -246 3500 0
49 -244 3497 0
49 -243 3497 0
49 -243 -244 3498 0
49 -3503 3489 0
49 -3504 3490 0
49 -3501 3489 0
49 -3502 3490 0
49 -3501 -3503 3490 0
49 -3501 -3504 3491 0
49 -3502 -3503 3491 0
49 -3502 -3504 3492 0
49 -242 3503 0
49 -241 3503 0
49 -241 -242 3504 0
49 -240 3501 0
49 -239 3501 0
49 -239 -240 3502 0
49 -3482 0
49 247 0
49 248 0
49 249 0
49 250 0
49 251 0
49 252 0
49 253 0
49 254 0
49 255 0
49 256 0
49 257 0
49 258 0
49 259 260 261 262 263 264 265 266 0
49 -3517 3505 0
49 -3518 3506 0
49 -3519 3507 0
49 -3520 3508 0
49 -3513 3505 0
49 -3514 3506 0
49 -3515 3507 0
49 -3516 3508 0
49 -3513 -3517 3506 0
49 -3513 -3518 3507 0
49 -3513 -3519 3508 0
49 -3513 -3520 3509 0
49 -3514 -3517 3507 0
49 -3514 -3518 3508 0
49 -3514 -3519 3509 0
49 -3514 -3520 3510 0
49 -3515 -3517 3508 0
49 -3515 -3518 3509 0
49 -3515 -3519 3510 0
49 -3515 -3520 3511 0
49 -3516 -3517 3509 0
49 -3516 -3518 3510 0
49 -3516 -3519 3511 0
49 -3516 -3520 3512 0
49 -3523 3517 0
49 -3524 3518 0
49 -3521 3517 0
49 -3522 3518 0
49 -3521 -3523 3518 0
49 -3521 -3524 3519 0
49 -3522 -3523 3519 0
49 -3522 -3524 3520 0
49 -266 3523 0
49 -265 3523 0
49 -265 -266 3524 0
49 -264 3521 0
49 -263 3521 0
49 -263 -264 3522 0
49 -3527 3513 0
49 -3528 3514 0
49 -3525 3513 0
49 -3526 3514 0
49 -3525 -3527 3514 0
49 -3525 -3528 3515 0
49 -3526 -3527 3515 0
49 -3526 -3528 3516 0
49 -262 3527 0
49 -261 3527 0
49 -261 -262 3528 0
49 -260 3525 0
49 -259 3525 0
49 -259 -260 3526 0
49 -3506 0
49 267 268 269 270 271 272 273 274 0
49 -3541 3529 0
49 -3542 3530 0
49 -3543 3531 0
49 -3544 3532 0
49 -3537 3529 0
49 -3538 3530 0
49 -3539 3531 0
49 -3540 3532 0
49 -3537 -3541 3530 0
49 -3537 -3542 3531 0
49 -3537 -3543 3532 0
49 -3537 -3544 3533 0
49 -3538 -3541 3531 0
49 -3538 -3542 3532 0
49 -3538 -3543 3533 0
49 -3538 -3544 3534 0
49 -3539 -3541 3532 0
49 -3539 -3542 3533 0
49 -3539 -3543 3534 0
49 -3539 -3544 3535 0
49 -3540 -3541 3533 0
49 -3540 -3542 3534 0
49 -3540 -3543 3535 0
49 -3540 -3544 3536 0
49 -3547 3541 0
49 -3548 3542 0
49 -3545 3541 0
49 -3546 3542 0
49 -3545 -3547 3542 0
49 -3545 -3548 3543 0
49 -3546 -3547 3543 0
49 -3546 -3548 3544 0
49 -274 3547 0
49 -273 3547 0
49 -273 -274 3548 0
49 -272 3545 0
49 -271 3545 0
49 -271 -272 3546 0
49 -3551 3537 0
49 -3552 3538 0
49 -3549 3537 0
49 -3550 3538 0
49 -3549 -3551 3538 0
49 -3549 -3552 3539 0
49 -3550 -3551 3539 0
49 -3550 -3552 3540 0
49 -270 3551 0
49 -269 3551 0
49 -269 -270 3552 0
49 -268 3549 0
49 -267 3549 0
49 -267 -268 3550 0
49 -3530 0
49 275 0
49 276 0
49 277 0
49 278 0
49 279 280 281 282 283 284 285 0
49 -3564 3553 0
49 -3565 3554 0
49 -3566 3555 0
49 -3560 3553 0
49 -3561 3554 0
49 -3562 3555 0
49 -3563 3556 0
49 -3560 -3564 3554 0
49 -3560 -3565 3555 0
49 -3560 -3566 3556 0
49 -3561 -3564 3555 0
49 -3561 -3565 3556 0
49 -3561 -3566 3557 0
49 -3562 -3564 3556 0
49 -3562 -3565 3557 0
49 -3562 -3566 3558 0
49 -3563 -3564 3557 0
49 -3563 -3565 3558 0
49 -3563 -3566 3559 0
49 -285 3564 0
49 -3567 3564 0
49 -3568 3565 0
49 -3567 -285 3565 0
49 -3568 -285 3566 0
49 -284 3567 0
49 -283 3567 0
49 -283 -284 3568 0
49 -3571 3560 0
49 -3572 3561 0
49 -3569 3560 0
49 -3570 3561 0
49 -3569 -3571 3561 0
49 -3569 -3572 3562 0
49 -3570 -3571 3562 0
49 -3570 -3572 3563 0
49 -282 3571 0
49 -281 3571 0
49 -281 -282 3572 0
49 -280 3569 0
49 -279 3569 0
49 -279 -280 3570 0
49 -3554 0
49 286 287 288 289 290 291 292 0
49 -3584 3573 0
49 -3585 3574 0
49 -3586 3575 0
49 -3580 3573 0
49 -3581 3574 0
49 -3582 3575 0
49 -3583 3576 0
49 -3580 -3584 3574 0
49 -3580 -3585 3575 0
49 -3580 -3586 3576 0
49 -3581 -3584 3575 0
49 -3581 -3585 3576 0
49 -3581 -3586 3577 0
49 -3582 -3584 3576 0
49 -3582 -3585 3577 0
49 -3582 -3586 3578 0
49 -3583 -3584 3577 0
49 -3583 -3585 3578 0
49 -3583 -3586 3579 0
49 -292 3584 0
49 -3587 3584 0
49 -3588 3585 0
49 -3587 -292 3585 0
49 -3588 -292 3586 0
49 -291 3587 0
49 -290 3587 0
49 -290 -291 3588 0
49 -3591 3580 0
49 -3592 3581 0
49 -3589 3580 0
49 -3590 3581 0
49 -3589 -3591 3581 0
49 -3589 -3592 3582 0
49 -3590 -3591 3582 0
49 -3590 -3592 3583 0
49 -289 3591 0
49 -288 3591 0
49 -288 -289 3592 0
49 -287 3589 0
49 -286 3589 0
49 -286 -287 3590 0
49 -3574 0
49 293 0
49 294 0
49 295 0
49 296 0
49 297 298 299 300 301 302 303 0
49 -3604 3593 0
49 -3605 3594 0
49 -3606 3595 0
49 -3600 3593 0
49 -3601 3594 0
49 -3602 3595 0
49 -3603 3596 0
49 -3600 -3604 3594 0
49 -3600 -3605 3595 0
49 -3600 -3606 3596 0
49 -3601 -3604 3595 0
49 -3601 -3605 3596 0
49 -3601 -3606 3597 0
49 -3602 -3604 3596 0
49 -3602 -3605 3597 0
49 -3602 -3606 3598 0
49 -3603 -3604 3597 0
49 -3603 -3605 3598 0
49 -3603 -3606 3599 0
49 -303 3604 0
49 -3607 3604 0
49 -3608 3605 0
49 -3607 -303 3605 0
49 -3608 -303 3606 0
49 -302 3607 0
49 -301 3607 0
49 -301 -302 3608 0
49 -3611 3600 0
49 -3612 3601 0
49 -3609 3600 0
49 -3610 3601 0
49 -3609 -3611 3601 0
49 -3609 -3612 3602 0
49 -3610 -3611 3602 0
49 -3610 -3612 3603 0
49 -300 3611 0
49 -299 3611 0
49 -299 -300 3612 0
49 -298 3609 0
49 -297 3609 0
49 -297 -298 3610 0
49 -3594 0
49 304 305 306 307 308 309 310 0
49 -3624 3613 0
49 -3625 3614 0
49 -3626 3615 0
49 -3620 3613 0
49 -3621 3614 0
49 -3622 3615 0
49 -3623 3616 0
49 -3620 -3624 3614 0
49 -3620 -3625 3615 0
49 -3620 -3626 3616 0
49 -3621 -3624 3615 0
49 -3621 -3625 3616 0
49 -3621 -3626 3617 0
49 -3622 -3624 3616 0
49 -3622 -3625 3617 0
49 -3622 -3626 3618 0
49 -3623 -3624 3617 0
49 -3623 -3625 3618 0
49 -3623 -3626 3619 0
49 -310 3624 0
49 -3627 3624 0
49 -3628 3625 0
49 -3627 -310 3625 0
49 -3628 -310 3626 0
49 -309 3627 0
49 -308 3627 0
49 -308 -309 3628 0
49 -3631 3620 0
49 -3632 3621 0
49 -3629 3620 0
49 -3630 3621 0
49 -3629 -3631 3621 0
49 -3629 -3632 3622 0
49 -3630 -3631 3622 0
49 -3630 -3632 3623 0
49 -307 3631 0
49 -306 3631 0
49 -306 -307 3632 0
49 -305 3629 0
49 -304 3629 0
49 -304 -305 3630 0
49 -3614 0
49 311 0
49 312 0
49 313 0
49 314 0
49 315 0
49 316 0
49 317 0
49 318 0
49 319 0
49 320 0
49 321 322 323 324 325 326 327 328 0
49 -3645 3633 0
49 -3646 3634 0
49 -3647 3635 0
49 -3648 3636 0
49 -3641 3633 0
49 -3642 3634 0
49 -3643 3635 0
49 -3644 3636 0
49 -3641 -3645 3634 0
49 -3641 -3646 3635 0
49 -3641 -3647 3636 0
49 -3641 -3648 3637 0
49 -3642 -3645 3635 0
49 -3642 -3646 3636 0
49 -3642 -3647 3637 0
49 -3642 -3648 3638 0
49 -3643 -3645 3636 0
49 -3643 -3646 3637 0
49 -3643 -3647 3638 0
49 -3643 -3648 3639 0
49 -3644 -3645 3637 0
49 -3644 -3646 3638 0
49 -3644 -3647 3639 0
49 -3644 -3648 3640 0
49 -3651 3645 0
49 -3652 3646 0
49 -3649 3645 0
49 -3650 3646 0
49 -3649 -3651 3646 0
49 -3649 -3652 3647 0
49 -3650 -3651 3647 0
49 -3650 -3652 3648 0
49 -328 3651 0
49 -327 3651 0
49 -327 -328 3652 0
49 -326 3649 0
49 -325 3649 0
49 -325 -326 3650 0
49 -3655 3641 0
49 -3656 3642 0
49 -3653 3641 0
49 -3654 3642 0
49 -3653 -3655 3642 0
49 -3653 -3656 3643 0
49 -3654 -3655 3643 0
49 -3654 -3656 3644 0
49 -324 3655 0
49 -323 3655 0
49 -323 -324 3656 0
49 -322 3653 0
49 -321 3653 0
49 -321 -322 3654 0
49 -3634 0
49 329 330 331 332 333 334 335 336 0
49 -3669 3657 0
49 -3670 3658 0
49 -3671 3659 0
49 -3672 3660 0
49 -3665 3657 0
49 -3666 3658 0
49 -3667 3659 0
49 -3668 3660 0
49 -3665 -3669 3658 0
49 -3665 -3670 3659 0
49 -3665 -3671 3660 0
49 -3665 -3672 3661 0
49 -3666 -3669 3659 0
49 -3666 -3670 3660 0
49 -3666 -3671 3661 0
49 -3666 -3672 3662 0
49 -3667 -3669 3660 0
49 -3667 -3670 3661 0
49 -3667 -3671 3662 0
49 -3667 -3672 3663 0
49 -3668 -3669 3661 0
49 -3668 -3670 3662 0
49 -3668 -3671 3663 0
49 -3668 -3672 3664 0
49 -3675 3669 0
49 -3676 3670 0
49 -3673 3669 0
49 -3674 3670 0
49 -3673 -3675 3670 0
49 -3673 -3676 3671 0
49 -3674 -3675 3671 0
49 -3674 -3676 3672 0
49 -336 3675 0
49 -335 3675 0
49 -335 -336 3676 0
49 -334 3673 0
49 -333 3673 0
49 -333 -334 3674 0
49 -3679 3665 0
49 -3680 3666 0
49 -3677 3665 0
49 -3678 3666 0
49 -3677 -3679 3666 0
49 -3677 -3680 3667 0
49 -3678 -3679 3667 0
49 -3678 -3680 3668 0
49 -332 3679 0
49 -331 3679 0
49 -331 -332 3680 0
49 -330 3677 0
49 -329 3677 0
49 -329 -330 3678 0
49 -3658 0
49 337 0
49 338 0
49 339 340 341 342 343 344 345 346 0
49 -3693 3681 0
49 -3694 3682 0
49 -3695 3683 0
49 -3696 3684 0
49 -3689 3681 0
49 -3690 3682 0
49 -3691 3683 0
49 -3692 3684 0
49 -3689 -3693 3682 0
49 -3689 -3694 3683 0
49 -3689 -3695 3684 0
49 -3689 -3696 3685 0
49 -3690 -3693 3683 0
49 -3690 -3694 3684 0
49 -3690 -3695 3685 0
49 -3690 -3696 3686 0
49 -3691 -3693 3684 0
49 -3691 -3694 3685 0
49 -3691 -3695 3686 0
49 -3691 -3696 3687 0
49 -3692 -3693 3685 0
49 -3692 -3694 3686 0
49 -3692 -3695 3687 0
49 -3692 -3696 3688 0
49 -3699 3693 0
49 -3700 3694 0
49 -3697 3693 0
49 -3698 3694 0
49 -3697 -3699 3694 0
49 -3697 -3700 3695 0
49 -3698 -3699 3695 0
49 -3698 -3700 3696 0
49 -346 3699 0
49 -345 3699 0
49 -345 -346 3700 0
49 -344 3697 0
49 -343 3697 0
49 -343 -344 3698 0
49 -3703 3689 0
49 -3704 3690 0
49 -3701 3689 0
49 -3702 3690 0
49 -3701 -3703 3690 0
49 -3701 -3704 3691 0
49 -3702 -3703 3691 0
49 -3702 -3704 3692 0
49 -342 3703 0
49 -341 3703 0
49 -341 -342 3704 0
49 -340 3701 0
49 -339 3701 0
49 -339 -340 3702 0
49 -3682 0
49 347 348 349 350 351 352 353 354 0
49 -3717 3705 0
49 -3718 3706 0
49 -3719 3707 0
49 -3720 3708 0
49 -3713 3705 0
49 -3714 3706 0
49 -3715 3707 0
49 -3716 3708 0
49 -3713 -3717 3706 0
49 -3713 -3718 3707 0
49 -3713 -3719 3708 0
49 -3713 -3720 3709 0
49 -3714 -3717 3707 0
49 -3714 -3718 3708 0
49 -3714 -3719 3709 0
49 -3714 -3720 3710 0
49 -3715 -3717 3708 0
49 -3715 -3718 3709 0
49 -3715 -3719 3710 0
49 -3715 -3720 3711 0
49 -3716 -3717 3709 0
49 -3716 -3718 3710 0
49 -3716 -3719 3711 0
49 -3716 -3720 3712 0
49 -3723 3717 0
49 -3724 3718 0
49 -3721 3717 0
49 -3722 3718 0
49 -3721 -3723 3718 0
49 -3721 -3724 3719 0
49 -3722 -3723 3719 0
49 -3722 -3724 3720 0
49 -354 3723 0
49 -353 3723 0
49 -353 -354 3724 0
49 -352 3721 0
49 -351 3721 0
49 -351 -352 3722 0
49 -3727 3713 0
49 -3728 3714 0
49 -3725 3713 0
49 -3726 3714 0
49 -3725 -3727 3714 0
49 -3725 -3728 3715 0
49 -3726 -3727 3715 0
49 -3726 -3728 3716 0
49 -350 3727 0
49 -349 3727 0
49 -349 -350 3728 0
49 -348 3725 0
49 -347 3725 0
49 -347 -348 3726 0
49 -3706 0
49 355 0
49 356 0
49 357 358 359 360 361 362 363 364 0
49 -3741 3729 0
49 -3742 3730 0
49 -3743 3731 0
49 -3744 3732 0
49 -3737 3729 0
49 -3738 3730 0
49 -3739 3731 0
49 -3740 3732 0
49 -3737 -3741 3730 0
49 -3737 -3742 3731 0
49 -3737 -3743 3732 0
49 -3737 -3744 3733 0
49 -3738 -3741 3731 0
49 -3738 -3742 3732 0
49 -3738 -3743 3733 0
49 -3738 -3744 3734 0
49 -3739 -3741 3732 0
49 -3739 -3742 3733 0
49 -3739 -3743 3734 0
49 -3739 -3744 3735 0
49 -3740 -3741 3733 0
49 -3740 -3742 3734 0
49 -3740 -3743 3735 0
49 -3740 -3744 3736 0
49 -3747 3741 0
49 -3748 3742 0
49 -3745 3741 0
49 -3746 3742 0
49 -3745 -3747 3742 0
49 -3745 -3748 3743 0
49 -3746 -3747 3743 0
49 -3746 -3748 3744 0
49 -364 3747 0
49 -363 3747 0
49 -363 -364 3748 0
49 -362 3745 0
49 -361 3745 0
49 -361 -362 3746 0
49 -3751 3737 0
49 -3752 3738 0
49 -3749 3737 0
49 -3750 3738 0
49 -3749 -3751 3738 0
49 -3749 -3752 3739 0
49 -3750 -3751 3739 0
49 -3750 -3752 3740 0
49 -360 3751 0
49 -359 3751 0
49 -359 -360 3752 0
49 -358 3749 0
49 -357 3749 0
49 -357 -358 3750 0
49 -3730 0
49 365 366 367 368 369 370 371 372 0
49 -3765 3753 0
49 -3766 3754 0
49 -3767 3755 0
49 -3768 3756 0
49 -3761 3753 0
49 -3762 3754 0
49 -3763 3755 0
49 -3764 3756 0
49 -3761 -3765 3754 0
49 -3761 -3766 3755 0
49 -3761 -3767 3756 0
49 -3761 -3768 3757 0
49 -3762 -3765 3755 0
49 -3762 -3766 3756 0
49 -3762 -3767 3757 0
49 -3762 -3768 3758 0
49 -3763 -3765 3756 0
49 -3763 -3766 3757 0
49 -3763 -3767 3758 0
49 -3763 -3768 3759 0
49 -3764 -3765 3757 0
49 -3764 -3766 3758 0
49 -3764 -3767 3759 0
49 -3764 -3768 3760 0
49 -3771 3765 0
49 -3772 3766 0
49 -3769 3765 0
49 -3770 3766 0
49 -3769 -3771 3766 0
49 -3769 -3772 3767 0
49 -3770 -3771 3767 0
49 -3770 -3772 3768 0
49 -372 3771 0
49 -371 3771 0
49 -371 -372 3772 0
49 -370 3769 0
49 -369 3769 0
49 -369 -370 3770 0
49 -3775 3761 0
49 -3776 3762 0
49 -3773 3761 0
49 -3774 3762 0
49 -3773 -3775 3762 0
49 -3773 -3776 3763 0
49 -3774 -3775 3763 0
49 -3774 -3776 3764 0
49 -368 3775 0
49 -367 3775 0
49 -367 -368 3776 0
49 -366 3773 0
49 -365 3773 0
49 -365 -366 3774 0
49 -3754 0
49 373 0
49 374 0
49 375 0
49 376 0
49 377 378 379 0
49 -379 3777 0
49 -3780 3777 0
49 -3781 3778 0
49 -3780 -379 3778 0
49 -3781 -379 3779 0
49 -378 3780 0
49 -377 3780 0
49 -377 -378 3781 0
49 -3778 0
49 380 381 382 0
49 -382 3782 0
49 -3785 3782 0
49 -3786 3783 0
49 -3785 -382 3783 0
49 -3786 -382 3784 0
49 -381 3785 0
49 -380 3785 0
49 -380 -381 3786 0
49 -3783 0
49 383 384 0
49 -383 -384 0
49 385 386 0
49 -385 -386 0
49 387 0
49 388 0
49 389 0
49 390 0
49 391 0
49 392 0
49 393 394 395 396 0
49 -3793 3787 0
49 -3794 3788 0
49 -3791 3787 0
49 -3792 3788 0
49 -3791 -3793 3788 0
49 -3791 -3794 3789 0
49 -3792 -3793 3789 0
49 -3792 -3794 3790 0
49 -396 3793 0
49 -395 3793 0
49 -395 -396 3794 0
49 -394 3791 0
49 -393 3791 0
49 -393 -394 3792 0
49 -3788 0
49 397 398 399 400 0
49 -3801 3795 0
49 -3802 3796 0
49 -3799 3795 0
49 -3800 3796 0
49 -3799 -3801 3796 0
49 -3799 -3802 3797 0
49 -3800 -3801 3797 0
49 -3800 -3802 3798 0
49 -400 3801 0
49 -399 3801 0
49 -399 -400 3802 0
49 -398 3799 0
49 -397 3799 0
49 -397 -398 3800 0
49 -3796 0
49 401 0
49 402 0
49 403 404 405 406 407 408 409 410 0
49 -3815 3803 0
49 -3816 3804 0
49 -3817 3805 0
49 -3818 3806 0
49 -3811 3803 0
49 -3812 3804 0
49 -3813 3805 0
49 -3814 3806 0
49 -3811 -3815 3804 0
49 -3811 -3816 3805 0
49 -3811 -3817 3806 0
49 -3811 -3818 3807 0
49 -3812 -3815 3805 0
49 -3812 -3816 3806 0
49 -3812 -3817 3807 0
49 -3812 -3818 3808 0
49 -3813 -3815 3806 0
49 -3813 -3816 3807 0
49 -3813 -3817 3808 0
49 -3813 -3818 3809 0
49 -3814 -3815 3807 0
49 -3814 -3816 3808 0
49 -3814 -3817 3809 0
49 -3814 -3818 3810 0
49 -3821 3815 0
49 -3822 3816 0
49 -3819 3815 0
49 -3820 3816 0
49 -3819 -3821 3816 0
49 -3819 -3822 3817 0
49 -3820 -3821 3817 0
49 -3820 -3822 3818 0
49 -410 3821 0
49 -409 3821 0
49 -409 -410 3822 0
49 -408 3819 0
49 -407 3819 0
49 -407 -408 3820 0
49 -3825 3811 0
49 -3826 3812 0
49 -3823 3811 0
49 -3824 3812 0
49 -3823 -3825 3812 0
49 -3823 -3826 3813 0
49 -3824 -3825 3813 0
49 -3824 -3826 3814 0
49 -406 3825 0
49 -405 3825 0
49 -405 -406 3826 0
49 -404 3823 0
49 -403 3823 0
49 -403 -404 3824 0
49 -3804 0
49 411 412 413 414 415 416 417 418 0
49 -3839 3827 0
49 -3840 3828 0
49 -3841 3829 0
49 -3842 3830 0
49 -3835 3827 0
49 -3836 3828 0
49 -3837 3829 0
49 -3838 3830 0
49 -3835 -3839 3828 0
49 -3835 -3840 3829 0
49 -3835 -3841 3830 0
49 -3835 -3842 3831 0
49 -3836 -3839 3829 0
49 -3836 -3840 3830 0
49 -3836 -3841 3831 0
49 -3836 -3842 3832 0
49 -3837 -3839 3830 0
49 -3837 -3840 3831 0
49 -3837 -3841 3832 0
49 -3837 -3842 3833 0
49 -3838 -3839 3831 0
49 -3838 -3840 3832 0
49 -3838 -3841 3833 0
49 -3838 -3842 3834 0
49 -3845 3839 0
49 -3846 3840 0
49 -3843 3839 0
49 -3844 3840 0
49 -3843 -3845 3840 0
49 -3843 -3846 3841 0
49 -3844 -3845 3841 0
49 -3844 -3846 3842 0
49 -418 3845 0
49 -417 3845 0
49 -417 -418 3846 0
49 -416 3843 0
49 -415 3843 0
49 -415 -416 3844 0
49 -3849 3835 0
49 -3850 3836 0
49 -3847 3835 0
49 -3848 3836 0
49 -3847 -3849 3836 0
49 -3847 -3850 3837 0
49 -3848 -3849 3837 0
49 -3848 -3850 3838 0
49 -414 3849 0
49 -413 3849 0
49 -413 -414 3850 0
49 -412 3847 0
49 -411 3847 0
49 -411 -412 3848 0
49 -3828 0
49 419 0
49 420 0
49 421 422 423 424 425 426 427 428 0
49 -3863 3851 0
49 -3864 3852 0
49 -3865 3853 0
49 -3866 3854 0
49 -3859 3851 0
49 -3860 3852 0
49 -3861 3853 0
49 -3862 3854 0
49 -3859 -3863 3852 0
49 -3859 -3864 3853 0
49 -3859 -3865 3854 0
49 -3859 -3866 3855 0
49 -3860 -3863 3853 0
49 -3860 -3864 3854 0
49 -3860 -3865 3855 0
49 -3860 -3866 3856 0
49 -3861 -3863 3854 0
49 -3861 -3864 3855 0
49 -3861 -3865 3856 0
49 -3861 -3866 3857 0
49 -3862 -3863 3855 0
49 -3862 -3864 3856 0
49 -3862 -3865 3857 0
49 -3862 -3866 3858 0
49 -3869 3863 0
49 -3870 3864 0
49 -3867 3863 0
49 -3868 3864 0
49 -3867 -3869 3864 0
49 -3867 -3870 3865 0
49 -3868 -3869 3865 0
49 -3868 -3870 3866 0
49 -428 3869 0
49 -427 3869 0
49 -427 -428 3870 0
49 -426 3867 0
49 -425 3867 0
49 -425 -426 3868 0
49 -3873 3859 0
49 -3874 3860 0
49 -3871 3859 0
49 -3872 3860 0
49 -3871 -3873 3860 0
49 -3871 -3874 3861 0
49 -3872 -3873 3861 0
49 -3872 -3874 3862 0
49 -424 3873 0
49 -423 3873 0
49 -423 -424 3874 0
49 -422 3871 0
49 -421 3871 0
49 -421 -422 3872 0
49 -3852 0
49 429 430 431 432 433 434 435 436 0
49 -3887 3875 0
49 -3888 3876 0
49 -3889 3877 0
49 -3890 3878 0
49 -3883 3875 0
49 -3884 3876 0
49 -3885 3877 0
49 -3886 3878 0
49 -3883 -3887 3876 0
49 -3883 -3888 3877 0
49 -3883 -3889 3878 0
49 -3883 -3890 3879 0
49 -3884 -3887 3877 0
49 -3884 -3888 3878 0
49 -3884 -3889 3879 0
49 -3884 -3890 3880 0
49 -3885 -3887 3878 0
49 -3885 -3888 3879 0
49 -3885 -3889 3880 0
49 -3885 -3890 3881 0
49 -3886 -3887 3879 0
49 -3886 -3888 3880 0
49 -3886 -3889 3881 0
49 -3886 -3890 3882 0
49 -3893 3887 0
49 -3894 3888 0
49 -3891 3887 0
49 -3892 3888 0
49 -3891 -3893 3888 0
49 -3891 -3894 3889 0
49 -3892 -3893 3889 0
49 -3892 -3894 3890 0
49 -436 3893 0
49 -435 3893 0
49 -435 -436 3894 0
49 -434 3891 0
49 -433 3891 0
49 -433 -434 3892 0
49 -3897 3883 0
49 -3898 3884 0
49 -3895 3883 0
49 -3896 3884 0
49 -3895 -3897 3884 0
49 -3895 -3898 3885 0
49 -3896 -3897 3885 0
49 -3896 -3898 3886 0
49 -432 3897 0
49 -431 3897 0
49 -431 -432 3898 0
49 -430 3895 0
49 -429 3895 0
49 -429 -430 3896 0
49 -3876 0
49 437 0
49 438 0
49 439 0
49 440 0
49 441 442 443 0
49 -443 3899 0
49 -3902 3899 0
49 -3903 3900 0
49 -3902 -443 3900 0
49 -3903 -443 3901 0
49 -442 3902 0
49 -441 3902 0
49 -441 -442 3903 0
49 -3900 0
49 444 445 446 0
49 -446 3904 0
49 -3907 3904 0
49 -3908 3905 0
49 -3907 -446 3905 0
49 -3908 -446 3906 0
49 -445 3907 0
49 -444 3907 0
49 -444 -445 3908 0
49 -3905 0
49 447 0
49 448 0
49 449 450 451 0
49 -451 3909 0
49 -3912 3909 0
49 -3913 3910 0
49 -3912 -451 3910 0
49 -3913 -451 3911 0
49 -450 3912 0
49 -449 3912 0
49 -449 -450 3913 0
49 -3910 0
49 452 453 454 0
49 -454 3914 0
49 -3917 3914 0
49 -3918 3915 0
49 -3917 -454 3915 0
49 -3918 -454 3916 0
49 -453 3917 0
49 -452 3917 0
49 -452 -453 3918 0
49 -3915 0
49 455 456 0
49 -455 -456 0
49 457 458 0
49 -457 -458 0
49 459 460 461 462 463 464 465 466 0
49 -3931 3919 0
49 -3932 3920 0
49 -3933 3921 0
49 -3934 3922 0
49 -3927 3919 0
49 -3928 3920 0
49 -3929 3921 0
49 -3930 3922 0
49 -3927 -3931 3920 0
49 -3927 -3932 3921 0
49 -3927 -3933 3922 0
49 -3927 -3934 3923 0
49 -3928 -3931 3921 0
49 -3928 -3932 3922 0
49 -3928 -3933 3923 0
49 -3928 -3934 3924 0
49 -3929 -3931 3922 0
49 -3929 -3932 3923 0
49 -3929 -3933 3924 0
49 -3929 -3934 3925 0
49 -3930 -3931 3923 0
49 -3930 -3932 3924 0
49 -3930 -3933 3925 0
49 -3930 -3934 3926 0
49 -3937 3931 0
49 -3938 3932 0
49 -3935 3931 0
49 -3936 3932 0
49 -3935 -3937 3932 0
49 -3935 -3938 3933 0
49 -3936 -3937 3933 0
49 -3936 -3938 3934 0
49 -466 3937 0
49 -465 3937 0
49 -465 -466 3938 0
49 -464 3935 0
49 -463 3935 0
49 -463 -464 3936 0
49 -3941 3927 0
49 -3942 3928 0
49 -3939 3927 0
49 -3940 3928 0
49 -3939 -3941 3928 0
49 -3939 -3942 3929 0
49 -3940 -3941 3929 0
49 -3940 -3942 3930 0
49 -462 3941 0
49 -461 3941 0
49 -461 -462 3942 0
49 -460 3939 0
49 -459 3939 0
49 -459 -460 3940 0
49 -3920 0
49 467 468 469 470 471 472 473 474 0
49 -3955 3943 0
49 -3956 3944 0
49 -3957 3945 0
49 -3958 3946 0
49 -3951 3943 0
49 -3952 3944 0
49 -3953 3945 0
49 -3954 3946 0
49 -3951 -3955 3944 0
49 -3951 -3956 3945 0
49 -3951 -3957 3946 0
49 -3951 -3958 3947 0
49 -3952 -3955 3945 0
49 -3952 -3956 3946 0
49 -3952 -3957 3947 0
49 -3952 -3958 3948 0
49 -3953 -3955 3946 0
49 -3953 -3956 3947 0
49 -3953 -3957 3948 0
49 -3953 -3958 3949 0
49 -3954 -3955 3947 0
49 -3954 -3956 3948 0
49 -3954 -3957 3949 0
49 -3954 -3958 3950 0
49 -3961 3955 0
49 -3962 3956 0
49 -3959 3955 0
49 -3960 3956 0
49 -3959 -3961 3956 0
49 -3959 -3962 3957 0
49 -3960 -3961 3957 0
49 -3960 -3962 3958 0
49 -474 3961 0
49 -473 3961 0
49 -473 -474 3962 0
49 -472 3959 0
49 -471 3959 0
49 -471 -472 3960 0
49 -3965 3951 0
49 -3966 3952 0
49 -3963 3951 0
49 -3964 3952 0
49 -3963 -3965 3952 0
49 -3963 -3966 3953 0
49 -3964 -3965 3953 0
49 -3964 -3966 3954 0
49 -470 3965 0
49 -469 3965 0
49 -469 -470 3966 0
49 -468 3963 0
49 -467 3963 0
49 -467 -468 3964 0
49 -3944 0
49 475 0
49 476 0
49 477 478 479 480 0
49 -3973 3967 0
49 -3974 3968 0
49 -3971 3967 0
49 -3972 3968 0
49 -3971 -3973 3968 0
49 -3971 -3974 3969 0
49 -3972 -3973 3969 0
49 -3972 -3974 3970 0
49 -480 3973 0
49 -479 3973 0
49 -479 -480 3974 0
49 -478 3971 0
49 -477 3971 0
49 -477 -478 3972 0
49 -3968 0
49 481 482 483 484 0
49 -3981 3975 0
49 -3982 3976 0
49 -3979 3975 0
49 -3980 3976 0
49 -3979 -3981 3976 0
49 -3979 -3982 3977 0
49 -3980 -3981 3977 0
49 -3980 -3982 3978 0
49 -484 3981 0
49 -483 3981 0
49 -483 -484 3982 0
49 -482 3979 0
49 -481 3979 0
49 -481 -482 3980 0
49 -3976 0
49 485 486 487 488 489 490 491 492 0
49 -3995 3983 0
49 -3996 3984 0
49 -3997 3985 0
49 -3998 3986 0
49 -3991 3983 0
49 -3992 3984 0
49 -3993 3985 0
49 -3994 3986 0
49 -3991 -3995 3984 0
49 -3991 -3996 3985 0
49 -3991 -3997 3986 0
49 -3991 -3998 3987 0
49 -3992 -3995 3985 0
49 -3992 -3996 3986 0
49 -3992 -3997 3987 0
49 -3992 -3998 3988 0
49 -3993 -3995 3986 0
49 -3993 -3996 3987 0
49 -3993 -3997 3988 0
49 -3993 -3998 3989 0
49 -3994 -3995 3987 0
49 -3994 -3996 3988 0
49 -3994 -3997 3989 0
49 -3994 -3998 3990 0
49 -4001 3995 0
49 -4002 3996 0
49 -3999 3995 0
49 -4000 3996 0
49 -3999 -4001 3996 0
49 -3999 -4002 3997 0
49 -4000 -4001 3997 0
49 -4000 -4002 3998 0
49 -492 4001 0
49 -491 4001 0
49 -491 -492 4002 0
49 -490 3999 0
49 -489 3999 0
49 -489 -490 4000 0
49 -4005 3991 0
49 -4006 3992 0
49 -4003 3991 0
49 -4004 3992 0
49 -4003 -4005 3992 0
49 -4003 -4006 3993 0
49 -4004 -4005 3993 0
49 -4004 -4006 3994 0
49 -488 4005 0
49 -487 4005 0
49 -487 -488 4006 0
49 -486 4003 0
49 -485 4003 0
49 -485 -486 4004 0
49 -3984 0
49 493 494 495 496 497 498 499 500 0
49 -4019 4007 0
49 -4020 4008 0
49 -4021 4009 0
49 -4022 4010 0
49 -4015 4007 0
49 -4016 4008 0
49 -4017 4009 0
49 -4018 4010 0
49 -4015 -4019 4008 0
49 -4015 -4020 4009 0
49 -4015 -4021 4010 0
49 -4015 -4022 4011 0
49 -4016 -4019 4009 0
49 -4016 -4020 4010 0
49 -4016 -4021 4011 0
49 -4016 -4022 4012 0
49 -4017 -4019 4010 0
49 -4017 -4020 4011 0
49 -4017 -4021 4012 0
49 -4017 -4022 4013 0
49 -4018 -4019 4011 0
49 -4018 -4020 4012 0
49 -4018 -4021 4013 0
49 -4018 -4022 4014 0
49 -4025 4019 0
49 -4026 4020 0
49 -4023 4019 0
49 -4024 4020 0
49 -4023 -4025 4020 0
49 -4023 -4026 4021 0
49 -4024 -4025 4021 0
49 -4024 -4026 4022 0
49 -500 4025 0
49 -499 4025 0
49 -499 -500 4026 0
49 -498 4023 0
49 -497 4023 0
49 -497 -498 4024 0
49 -4029 4015 0
49 -4030 4016 0
49 -4027 4015 0
49 -4028 4016 0
49 -4027 -4029 4016 0
49 -4027 -4030 4017 0
49 -4028 -4029 4017 0
49 -4028 -4030 4018 0
49 -496 4029 0
49 -495 4029 0
49 -495 -496 4030 0
49 -494 4027 0
49 -493 4027 0
49 -493 -494 4028 0
49 -4008 0
49 501 502 503 504 505 506 507 508 509 510 511 0
49 -4048 4031 0
49 -4049 4032 0
49 -4050 4033 0
49 -4051 4034 0
49 -4052 4035 0
49 -4042 4031 0
49 -4043 4032 0
49 -4044 4033 0
49 -4045 4034 0
49 -4046 4035 0
49 -4047 4036 0
49 -4042 -4048 4032 0
49 -4042 -4049 4033 0
49 -4042 -4050 4034 0
49 -4042 -4051 4035 0
49 -4042 -4052 4036 0
49 -4043 -4048 4033 0
49 -4043 -4049 4034 0
49 -4043 -4050 4035 0
49 -4043 -4051 4036 0
49 -4043 -4052 4037 0
49 -4044 -4048 4034 0
49 -4044 -4049 4035 0
49 -4044 -4050 4036 0
49 -4044 -4051 4037 0
49 -4044 -4052 4038 0
49 -4045 -4048 4035 0
49 -4045 -4049 4036 0
49 -4045 -4050 4037 0
49 -4045 -4051 4038 0
49 -4045 -4052 4039 0
49 -4046 -4048 4036 0
49 -4046 -4049 4037 0
49 -4046 -4050 4038 0
49 -4046 -4051 4039 0
49 -4046 -4052 4040 0
49 -4047 -4048 4037 0
49 -4047 -4049 4038 0
49 -4047 -4050 4039 0
49 -4047 -4051 4040 0
49 -4047 -4052 4041 0
49 -4056 4048 0
49 -4057 4049 0
49 -4053 4048 0
49 -4054 4049 0
49 -4055 4050 0
49 -4053 -4056 4049 0
49 -4053 -4057 4050 0
49 -4054 -4056 4050 0
49 -4054 -4057 4051 0
49 -4055 -4056 4051 0
49 -4055 -4057 4052 0
49 -511 4056 0
49 -510 4056 0
49 -510 -511 4057 0
49 -509 4053 0
49 -4058 4053 0
49 -4059 4054 0
49 -4058 -509 4054 0
49 -4059 -509 4055 0
49 -508 4058 0
49 -507 4058 0
49 -507 -508 4059 0
49 -4063 4042 0
49 -4064 4043 0
49 -4065 4044 0
49 -4060 4042 0
49 -4061 4043 0
49 -4062 4044 0
49 -4060 -4063 4043 0
49 -4060 -4064 4044 0
49 -4060 -4065 4045 0
49 -4061 -4063 4044 0
49 -4061 -4064 4045 0
49 -4061 -4065 4046 0
49 -4062 -4063 4045 0
49 -4062 -4064 4046 0
49 -4062 -4065 4047 0
49 -506 4063 0
49 -4066 4063 0
49 -4067 4064 0
49 -4066 -506 4064 0
49 -4067 -506 4065 0
49 -505 4066 0
49 -504 4066 0
49 -504 -505 4067 0
49 -503 4060 0
49 -4068 4060 0
49 -4069 4061 0
49 -4068 -503 4061 0
49 -4069 -503 4062 0
49 -502 4068 0
49 -501 4068 0
49 -501 -502 4069 0
49 -4032 0
49 512 513 514 515 516 517 518 519 520 521 522 0
49 -4087 4070 0
49 -4088 4071 0
49 -4089 4072 0
49 -4090 4073 0
49 -4091 4074 0
49 -4081 4070 0
49 -4082 4071 0
49 -4083 4072 0
49 -4084 4073 0
49 -4085 4074 0
49 -4086 4075 0
49 -4081 -4087 4071 0
49 -4081 -4088 4072 0
49 -4081 -4089 4073 0
49 -4081 -4090 4074 0
49 -4081 -4091 4075 0
49 -4082 -4087 4072 0
49 -4082 -4088 4073 0
49 -4082 -4089 4074 0
49 -4082 -4090 4075 0
49 -4082 -4091 4076 0
49 -4083 -4087 4073 0
49 -4083 -4088 4074 0
49 -4083 -4089 4075 0
49 -4083 -4090 4076 0
49 -4083 -4091 4077 0
49 -4084 -4087 4074 0
49 -4084 -4088 4075 0
49 -4084 -4089 4076 0
49 -4084 -4090 4077 0
49 -4084 -4091 4078 0
49 -4085 -4087 4075 0
49 -4085 -4088 4076 0
49 -4085 -4089 4077 0
49 -4085 -4090 4078 0
49 -4085 -4091 4079 0
49 -4086 -4087 4076 0
49 -4086 -4088 4077 0
49 -4086 -4089 4078 0
49 -4086 -4090 4079 0
49 -4086 -4091 4080 0
49 -4095 4087 0
49 -4096 4088 0
49 -4092 4087 0
49 -4093 4088 0
49 -4094 4089 0
49 -4092 -4095 4088 0
49 -4092 -4096 4089 0
49 -4093 -4095 4089 0
49 -4093 -4096 4090 0
49 -4094 -4095 4090 0
49 -4094 -4096 4091 0
49 -522 4095 0
49 -521 4095 0
49 -521 -522 4096 0
49 -520 4092 0
49 -4097 4092 0
49 -4098 4093 0
49 -4097 -520 4093 0
49 -4098 -520 4094 0
49 -519 4097 0
49 -518 4097 0
49 -518 -519 4098 0
49 -4102 4081 0
49 -4103 4082 0
49 -4104 4083 0
49 -4099 4081 0
49 -4100 4082 0
49 -4101 4083 0
49 -4099 -4102 4082 0
49 -4099 -4103 4083 0
49 -4099 -4104 4084 0
49 -4100 -4102 4083 0
49 -4100 -4103 4084 0
49 -4100 -4104 4085 0
49 -4101 -4102 4084 0
49 -4101 -4103 4085 0
49 -4101 -4104 4086 0
49 -517 4102 0
49 -4105 4102 0
49 -4106 4103 0
49 -4105 -517 4103 0
49 -4106 -517 4104 0
49 -516 4105 0
49 -515 4105 0
49 -515 -516 4106 0
49 -514 4099 0
49 -4107 4099 0
49 -4108 4100 0
49 -4107 -514 4100 0
49 -4108 -514 4101 0
49 -513 4107 0
49 -512 4107 0
49 -512 -513 4108 0
49 -4071 0
49 523 524 525 526 527 528 529 0
49 -4120 4109 0
49 -4121 4110 0
49 -4122 4111 0
49 -4116 4109 0
49 -4117 4110 0
49 -4118 4111 0
49 -4119 4112 0
49 -4116 -4120 4110 0
49 -4116 -4121 4111 0
49 -4116 -4122 4112 0
49 -4117 -4120 4111 0
49 -4117 -4121 4112 0
49 -4117 -4122 4113 0
49 -4118 -4120 4112 0
49 -4118 -4121 4113 0
49 -4118 -4122 4114 0
49 -4119 -4120 4113 0
49 -4119 -4121 4114 0
49 -4119 -4122 4115 0
49 -529 4120 0
49 -4123 4120 0
49 -4124 4121 0
49 -4123 -529 4121 0
49 -4124 -529 4122 0
49 -528 4123 0
49 -527 4123 0
49 -527 -528 4124 0
49 -4127 4116 0
49 -4128 4117 0
49 -4125 4116 0
49 -4126 4117 0
49 -4125 -4127 4117 0
49 -4125 -4128 4118 0
49 -4126 -4127 4118 0
49 -4126 -4128 4119 0
49 -526 4127 0
49 -525 4127 0
49 -525 -526 4128 0
49 -524 4125 0
49 -523 4125 0
49 -523 -524 4126 0
49 -4110 0
49 530 531 532 533 534 535 536 0
49 -4140 4129 0
49 -4141 4130 0
49 -4142 4131 0
49 -4136 4129 0
49 -4137 4130 0
49 -4138 4131 0
49 -4139 4132 0
49 -4136 -4140 4130 0
49 -4136 -4141 4131 0
49 -4136 -4142 4132 0
49 -4137 -4140 4131 0
49 -4137 -4141 4132 0
49 -4137 -4142 4133 0
49 -4138 -4140 4132 0
49 -4138 -4141 4133 0
49 -4138 -4142 4134 0
49 -4139 -4140 4133 0
49 -4139 -4141 4134 0
49 -4139 -4142 4135 0
49 -536 4140 0
49 -4143 4140 0
49 -4144 4141 0
49 -4143 -536 4141 0
49 -4144 -536 4142 0
49 -535 4143 0
49 -534 4143 0
49 -534 -535 4144 0
49 -4147 4136 0
49 -4148 4137 0
49 -4145 4136 0
49 -4146 4137 0
49 -4145 -4147 4137 0
49 -4145 -4148 4138 0
49 -4146 -4147 4138 0
49 -4146 -4148 4139 0
49 -533 4147 0
49 -532 4147 0
49 -532 -533 4148 0
49 -531 4145 0
49 -530 4145 0
49 -530 -531 4146 0
49 -4130 0
49 537 0
49 538 0
49 539 540 541 542 543 0
49 -4157 4149 0
49 -4158 4150 0
49 -4154 4149 0
49 -4155 4150 0
49 -4156 4151 0
49 -4154 -4157 4150 0
49 -4154 -4158 4151 0
49 -4155 -4157 4151 0
49 -4155 -4158 4152 0
49 -4156 -4157 4152 0
49 -4156 -4158 4153 0
49 -543 4157 0
49 -542 4157 0
49 -542 -543 4158 0
49 -541 4154 0
49 -4159 4154 0
49 -4160 4155 0
49 -4159 -541 4155 0
49 -4160 -541 4156 0
49 -540 4159 0
49 -539 4159 0
49 -539 -540 4160 0
49 -4150 0
49 544 545 546 547 548 0
49 -4169 4161 0
49 -4170 4162 0
49 -4166 4161 0
49 -4167 4162 0
49 -4168 4163 0
49 -4166 -4169 4162 0
49 -4166 -4170 4163 0
49 -4167 -4169 4163 0
49 -4167 -4170 4164 0
49 -4168 -4169 4164 0
49 -4168 -4170 4165 0
49 -548 4169 0
49 -547 4169 0
49 -547 -548 4170 0
49 -546 4166 0
49 -4171 4166 0
49 -4172 4167 0
49 -4171 -546 4167 0
49 -4172 -546 4168 0
49 -545 4171 0
49 -544 4171 0
49 -544 -545 4172 0
49 -4162 0
49 549 550 551 552 553 554 555 556 0
49 -4185 4173 0
49 -4186 4174 0
49 -4187 4175 0
49 -4188 4176 0
49 -4181 4173 0
49 -4182 4174 0
49 -4183 4175 0
49 -4184 4176 0
49 -4181 -4185 4174 0
49 -4181 -4186 4175 0
49 -4181 -4187 4176 0
49 -4181 -4188 4177 0
49 -4182 -4185 4175 0
49 -4182 -4186 4176 0
49 -4182 -4187 4177 0
49 -4182 -4188 4178 0
49 -4183 -4185 4176 0
49 -4183 -4186 4177 0
49 -4183 -4187 4178 0
49 -4183 -4188 4179 0
49 -4184 -4185 4177 0
49 -4184 -4186 4178 0
49 -4184 -4187 4179 0
49 -4184 -4188 4180 0
49 -4191 4185 0
49 -4192 4186 0
49 -4189 4185 0
49 -4190 4186 0
49 -4189 -4191 4186 0
49 -4189 -4192 4187 0
49 -4190 -4191 4187 0
49 -4190 -4192 4188 0
49 -556 4191 0
49 -555 4191 0
49 -555 -556 4192 0
49 -554 4189 0
49 -553 4189 0
49 -553 -554 4190 0
49 -4195 4181 0
49 -4196 4182 0
49 -4193 4181 0
49 -4194 4182 0
49 -4193 -4195 4182 0
49 -4193 -4196 4183 0
49 -4194 -4195 4183 0
49 -4194 -4196 4184 0
49 -552 4195 0
49 -551 4195 0
49 -551 -552 4196 0
49 -550 4193 0
49 -549 4193 0
49 -549 -550 4194 0
49 -4174 0
49 557 558 559 560 561 562 563 564 0
49 -4209 4197 0
49 -4210 4198 0
49 -4211 4199 0
49 -4212 4200 0
49 -4205 4197 0
49 -4206 4198 0
49 -4207 4199 0
49 -4208 4200 0
49 -4205 -4209 4198 0
49 -4205 -4210 4199 0
49 -4205 -4211 4200 0
49 -4205 -4212 4201 0
49 -4206 -4209 4199 0
49 -4206 -4210 4200 0
49 -4206 -4211 4201 0
49 -4206 -4212 4202 0
49 -4207 -4209 4200 0
49 -4207 -4210 4201 0
49 -4207 -4211 4202 0
49 -4207 -4212 4203 0
49 -4208 -4209 4201 0
49 -4208 -4210 4202 0
49 -4208 -4211 4203 0
49 -4208 -4212 4204 0
49 -4215 4209 0
49 -4216 4210 0
49 -4213 4209 0
49 -4214 4210 0
49 -4213 -4215 4210 0
49 -4213 -4216 4211 0
49 -4214 -4215 4211 0
49 -4214 -4216 4212 0
49 -564 4215 0
49 -563 4215 0
49 -563 -564 4216 0
49 -562 4213 0
49 -561 4213 0
49 -561 -562 4214 0
49 -4219 4205 0
49 -4220 4206 0
49 -4217 4205 0
49 -4218 4206 0
49 -4217 -4219 4206 0
49 -4217 -4220 4207 0
49 -4218 -4219 4207 0
49 -4218 -4220 4208 0
49 -560 4219 0
49 -559 4219 0
49 -559 -560 4220 0
49 -558 4217 0
49 -557 4217 0
49 -557 -558 4218 0
49 -4198 0
49 565 566 567 568 569 570 571 572 0
49 -4233 4221 0
49 -4234 4222 0
49 -4235 4223 0
49 -4236 4224 0
49 -4229 4221 0
49 -4230 4222 0
49 -4231 4223 0
49 -4232 4224 0
49 -4229 -4233 4222 0
49 -4229 -4234 4223 0
49 -4229 -4235 4224 0
49 -4229 -4236 4225 0
49 -4230 -4233 4223 0
49 -4230 -4234 4224 0
49 -4230 -4235 4225 0
49 -4230 -4236 4226 0
49 -4231 -4233 4224 0
49 -4231 -4234 4225 0
49 -4231 -4235 4226 0
49 -4231 -4236 4227 0
49 -4232 -4233 4225 0
49 -4232 -4234 4226 0
49 -4232 -4235 4227 0
49 -4232 -4236 4228 0
49 -4239 4233 0
49 -4240 4234 0
49 -4237 4233 0
49 -4238 4234 0
49 -4237 -4239 4234 0
49 -4237 -4240 4235 0
49 -4238 -4239 4235 0
49 -4238 -4240 4236 0
49 -572 4239 0
49 -571 4239 0
49 -571 -572 4240 0
49 -570 4237 0
49 -569 4237 0
49 -569 -570 4238 0
49 -4243 4229 0
49 -4244 4230 0
49 -4241 4229 0
49 -4242 4230 0
49 -4241 -4243 4230 0
49 -4241 -4244 4231 0
49 -4242 -4243 4231 0
49 -4242 -4244 4232 0
49 -568 4243 0
49 -567 4243 0
49 -567 -568 4244 0
49 -566 4241 0
49 -565 4241 0
49 -565 -566 4242 0
49 -4222 0
49 573 574 575 576 577 578 579 580 0
49 -4257 4245 0
49 -4258 4246 0
49 -4259 4247 0
49 -4260 4248 0
49 -4253 4245 0
49 -4254 4246 0
49 -4255 4247 0
49 -4256 4248 0
49 -4253 -4257 4246 0
49 -4253 -4258 4247 0
49 -4253 -4259 4248 0
49 -4253 -4260 4249 0
49 -4254 -4257 4247 0
49 -4254 -4258 4248 0
49 -4254 -4259 4249 0
49 -4254 -4260 4250 0
49 -4255 -4257 4248 0
49 -4255 -4258 4249 0
49 -4255 -4259 4250 0
49 -4255 -4260 4251 0
49 -4256 -4257 4249 0
49 -4256 -4258 4250 0
49 -4256 -4259 4251 0
49 -4256 -4260 4252 0
49 -4263 4257 0
49 -4264 4258 0
49 -4261 4257 0
49 -4262 4258 0
49 -4261 -4263 4258 0
49 -4261 -4264 4259 0
49 -4262 -4263 4259 0
49 -4262 -4264 4260 0
49 -580 4263 0
49 -579 4263 0
49 -579 -580 4264 0
49 -578 4261 0
49 -577 4261 0
49 -577 -578 4262 0
49 -4267 4253 0
49 -4268 4254 0
49 -4265 4253 0
49 -4266 4254 0
49 -4265 -4267 4254 0
49 -4265 -4268 4255 0
49 -4266 -4267 4255 0
49 -4266 -4268 4256 0
49 -576 4267 0
49 -575 4267 0
49 -575 -576 4268 0
49 -574 4265 0
49 -573 4265 0
49 -573 -574 4266 0
49 -4246 0
49 581 582 583 584 0
49 -4275 4269 0
49 -4276 4270 0
49 -4273 4269 0
49 -4274 4270 0
49 -4273 -4275 4270 0
49 -4273 -4276 4271 0
49 -4274 -4275 4271 0
49 -4274 -4276 4272 0
49 -584 4275 0
49 -583 4275 0
49 -583 -584 4276 0
49 -582 4273 0
49 -581 4273 0
49 -581 -582 4274 0
49 -4270 0
49 585 586 587 588 0
49 -4283 4277 0
49 -4284 4278 0
49 -4281 4277 0
49 -4282 4278 0
49 -4281 -4283 4278 0
49 -4281 -4284 4279 0
49 -4282 -4283 4279 0
49 -4282 -4284 4280 0
49 -588 4283 0
49 -587 4283 0
49 -587 -588 4284 0
49 -586 4281 0
49 -585 4281 0
49 -585 -586 4282 0
49 -4278 0
49 589 0
49 590 0
49 591 0
49 592 0
49 593 0
49 594 0
49 595 596 597 598 599 600 601 602 603 604 0
49 -4300 4285 0
49 -4301 4286 0
49 -4302 4287 0
49 -4303 4288 0
49 -4304 4289 0
49 -4295 4285 0
49 -4296 4286 0
49 -4297 4287 0
49 -4298 4288 0
49 -4299 4289 0
49 -4295 -4300 4286 0
49 -4295 -4301 4287 0
49 -4295 -4302 4288 0
49 -4295 -4303 4289 0
49 -4295 -4304 4290 0
49 -4296 -4300 4287 0
49 -4296 -4301 4288 0
49 -4296 -4302 4289 0
49 -4296 -4303 4290 0
49 -4296 -4304 4291 0
49 -4297 -4300 4288 0
49 -4297 -4301 4289 0
49 -4297 -4302 4290 0
49 -4297 -4303 4291 0
49 -4297 -4304 4292 0
49 -4298 -4300 4289 0
49 -4298 -4301 4290 0
49 -4298 -4302 4291 0
49 -4298 -4303 4292 0
49 -4298 -4304 4293 0
49 -4299 -4300 4290 0
49 -4299 -4301 4291 0
49 -4299 -4302 4292 0
49 -4299 -4303 4293 0
49 -4299 -4304 4294 0
49 -4308 4300 0
49 -4309 4301 0
49 -4305 4300 0
49 -4306 4301 0
49 -4307 4302 0
49 -4305 -4308 4301 0
49 -4305 -4309 4302 0
49 -4306 -4308 4302 0
49 -4306 -4309 4303 0
49 -4307 -4308 4303 0
49 -4307 -4309 4304 0
49 -604 4308 0
49 -603 4308 0
49 -603 -604 4309 0
49 -602 4305 0
49 -4310 4305 0
49 -4311 4306 0
49 -4310 -602 4306 0
49 -4311 -602 4307 0
49 -601 4310 0
49 -600 4310 0
49 -600 -601 4311 0
49 -4315 4295 0
49 -4316 4296 0
49 -4312 4295 0
49 -4313 4296 0
49 -4314 4297 0
49 -4312 -4315 4296 0
49 -4312 -4316 4297 0
49 -4313 -4315 4297 0
49 -4313 -4316 4298 0
49 -4314 -4315 4298 0
49 -4314 -4316 4299 0
49 -599 4315 0
49 -598 4315 0
49 -598 -599 4316 0
49 -597 4312 0
49 -4317 4312 0
49 -4318 4313 0
49 -4317 -597 4313 0
49 -4318 -597 4314 0
49 -596 4317 0
49 -595 4317 0
49 -595 -596 4318 0
49 -4286 0
49 605 606 607 608 609 610 611 612 613 614 0
49 -4334 4319 0
49 -4335 4320 0
49 -4336 4321 0
49 -4337 4322 0
49 -4338 4323 0
49 -4329 4319 0
49 -4330 4320 0
49 -4331 4321 0
49 -4332 4322 0
49 -4333 4323 0
49 -4329 -4334 4320 0
49 -4329 -4335 4321 0
49 -4329 -4336 4322 0
49 -4329 -4337 4323 0
49 -4329 -4338 4324 0
49 -4330 -4334 4321 0
49 -4330 -4335 4322 0
49 -4330 -4336 4323 0
49 -4330 -4337 4324 0
49 -4330 -4338 4325 0
49 -4331 -4334 4322 0
49 -4331 -4335 4323 0
49 -4331 -4336 4324 0
49 -4331 -4337 4325 0
49 -4331 -4338 4326 0
49 -4332 -4334 4323 0
49 -4332 -4335 4324 0
49 -4332 -4336 4325 0
49 -4332 -4337 4326 0
49 -4332 -4338 4327 0
49 -4333 -4334 4324 0
49 -4333 -4335 4325 0
49 -4333 -4336 4326 0
49 -4333 -4337 4327 0
49 -4333 -4338 4328 0
49 -4342 4334 0
49 -4343 4335 0
49 -4339 4334 0
49 -4340 4335 0
49 -4341 4336 0
49 -4339 -4342 4335 0
49 -4339 -4343 4336 0
49 -4340 -4342 4336 0
49 -4340 -4343 4337 0
49 -4341 -4342 4337 0
49 -4341 -4343 4338 0
49 -614 4342 0
49 -613 4342 0
49 -613 -614 4343 0
49 -612 4339 0
49 -4344 4339 0
49 -4345 4340 0
49 -4344 -612 4340 0
49 -4345 -612 4341 0
49 -611 4344 0
49 -610 4344 0
49 -610 -611 4345 0
49 -4349 4329 0
49 -4350 4330 0
49 -4346 4329 0
49 -4347 4330 0
49 -4348 4331 0
49 -4346 -4349 4330 0
49 -4346 -4350 4331 0
49 -4347 -4349 4331 0
49 -4347 -4350 4332 0
49 -4348 -4349 4332 0
49 -4348 -4350 4333 0
49 -609 4349 0
49 -608 4349 0
49 -608 -609 4350 0
49 -607 4346 0
49 -4351 4346 0
49 -4352 4347 0
49 -4351 -607 4347 0
49 -4352 -607 4348 0
49 -606 4351 0
49 -605 4351 0
49 -605 -606 4352 0
49 -4320 0
49 615 616 0
49 -615 -616 0
49 617 618 0
49 -617 -618 0
49 619 620 621 0
49 -621 4353 0
49 -4356 4353 0
49 -4357 4354 0
49 -4356 -621 4354 0
49 -4357 -621 4355 0
49 -620 4356 0
49 -619 4356 0
49 -619 -620 4357 0
49 -4354 0
49 622 623 624 0
49 -624 4358 0
49 -4361 4358 0
49 -4362 4359 0
49 -4361 -624 4359 0
49 -4362 -624 4360 0
49 -623 4361 0
49 -622 4361 0
49 -622 -623 4362 0
49 -4359 0
49 625 0
49 626 0
49 627 0
49 628 0
49 629 0
49 630 0
49 631 0
49 632 0
49 633 0
49 634 0
49 635 0
49 636 0
49 637 0
49 638 0
49 639 0
49 640 0
49 641 0
49 642 0
49 643 0
49 644 0
49 645 646 647 648 649 650 651 652 0
49 -4375 4363 0
49 -4376 4364 0
49 -4377 4365 0
49 -4378 4366 0
49 -4371 4363 0
49 -4372 4364 0
49 -4373 4365 0
49 -4374 4366 0
49 -4371 -4375 4364 0
49 -4371 -4376 4365 0
49 -4371 -4377 4366 0
49 -4371 -4378 4367 0
49 -4372 -4375 4365 0
49 -4372 -4376 4366 0
49 -4372 -4377 4367 0
49 -4372 -4378 4368 0
49 -4373 -4375 4366 0
49 -4373 -4376 4367 0
49 -4373 -4377 4368 0
49 -4373 -4378 4369 0
49 -4374 -4375 4367 0
49 -4374 -4376 4368 0
49 -4374 -4377 4369 0
49 -4374 -4378 4370 0
49 -4381 4375 0
49 -4382 4376 0
49 -4379 4375 0
49 -4380 4376 0
49 -4379 -4381 4376 0
49 -4379 -4382 4377 0
49 -4380 -4381 4377 0
49 -4380 -4382 4378 0
49 -652 4381 0
49 -651 4381 0
49 -651 -652 4382 0
49 -650 4379 0
49 -649 4379 0
49 -649 -650 4380 0
49 -4385 4371 0
49 -4386 4372 0
49 -4383 4371 0
49 -4384 4372 0
49 -4383 -4385 4372 0
49 -4383 -4386 4373 0
49 -4384 -4385 4373 0
49 -4384 -4386 4374 0
49 -648 4385 0
49 -647 4385 0
49 -647 -648 4386 0
49 -646 4383 0
49 -645 4383 0
49 -645 -646 4384 0
49 -4364 0
49 653 654 655 656 657 658 659 660 0
49 -4399 4387 0
49 -4400 4388 0
49 -4401 4389 0
49 -4402 4390 0
49 -4395 4387 0
49 -4396 4388 0
49 -4397 4389 0
49 -4398 4390 0
49 -4395 -4399 4388 0
49 -4395 -4400 4389 0
49 -4395 -4401 4390 0
49 -4395 -4402 4391 0
49 -4396 -4399 4389 0
49 -4396 -4400 4390 0
49 -4396 -4401 4391 0
49 -4396 -4402 4392 0
49 -4397 -4399 4390 0
49 -4397 -4400 4391 0
49 -4397 -4401 4392 0
49 -4397 -4402 4393 0
49 -4398 -4399 4391 0
49 -4398 -4400 4392 0
49 -4398 -4401 4393 0
49 -4398 -4402 4394 0
49 -4405 4399 0
49 -4406 4400 0
49 -4403 4399 0
49 -4404 4400 0
49 -4403 -4405 4400 0
49 -4403 -4406 4401 0
49 -4404 -4405 4401 0
49 -4404 -4406 4402 0
49 -660 4405 0
49 -659 4405 0
49 -659 -660 4406 0
49 -658 4403 0
49 -657 4403 0
49 -657 -658 4404 0
49 -4409 4395 0
49 -4410 4396 0
49 -4407 4395 0
49 -4408 4396 0
49 -4407 -4409 4396 0
49 -4407 -4410 4397 0
49 -4408 -4409 4397 0
49 -4408 -4410 4398 0
49 -656 4409 0
49 -655 4409 0
49 -655 -656 4410 0
49 -654 4407 0
49 -653 4407 0
49 -653 -654 4408 0
49 -4388 0
49 661 662 663 664 0
49 -4417 4411 0
49 -4418 4412 0
49 -4415 4411 0
49 -4416 4412 0
49 -4415 -4417 4412 0
49 -4415 -4418 4413 0
49 -4416 -4417 4413 0
49 -4416 -4418 4414 0
49 -664 4417 0
49 -663 4417 0
49 -663 -664 4418 0
49 -662 4415 0
49 -661 4415 0
49 -661 -662 4416 0
49 -4412 0
49 665 666 667 668 0
49 -4425 4419 0
49 -4426 4420 0
49 -4423 4419 0
49 -4424 4420 0
49 -4423 -4425 4420 0
49 -4423 -4426 4421 0
49 -4424 -4425 4421 0
49 -4424 -4426 4422 0
49 -668 4425 0
49 -667 4425 0
49 -667 -668 4426 0
49 -666 4423 0
49 -665 4423 0
49 -665 -666 4424 0
49 -4420 0
49 669 0
49 670 0
49 671 672 673 0
49 -673 4427 0
49 -4430 4427 0
49 -4431 4428 0
49 -4430 -673 4428 0
49 -4431 -673 4429 0
49 -672 4430 0
49 -671 4430 0
49 -671 -672 4431 0
49 -4428 0
49 674 675 676 0
49 -676 4432 0
49 -4435 4432 0
49 -4436 4433 0
49 -4435 -676 4433 0
49 -4436 -676 4434 0
49 -675 4435 0
49 -674 4435 0
49 -674 -675 4436 0
49 -4433 0
49 677 0
49 678 0
49 679 0
49 680 0
49 681 682 683 684 0
49 -4443 4437 0
49 -4444 4438 0
49 -4441 4437 0
49 -4442 4438 0
49 -4441 -4443 4438 0
49 -4441 -4444 4439 0
49 -4442 -4443 4439 0
49 -4442 -4444 4440 0
49 -684 4443 0
49 -683 4443 0
49 -683 -684 4444 0
49 -682 4441 0
49 -681 4441 0
49 -681 -682 4442 0
49 -4438 0
49 685 686 687 688 0
49 -4451 4445 0
49 -4452 4446 0
49 -4449 4445 0
49 -4450 4446 0
49 -4449 -4451 4446 0
49 -4449 -4452 4447 0
49 -4450 -4451 4447 0
49 -4450 -4452 4448 0
49 -688 4451 0
49 -687 4451 0
49 -687 -688 4452 0
49 -686 4449 0
49 -685 4449 0
49 -685 -686 4450 0
49 -4446 0
49 689 690 691 692 693 694 695 696 0
49 -4465 4453 0
49 -4466 4454 0
49 -4467 4455 0
49 -4468 4456 0
49 -4461 4453 0
49 -4462 4454 0
49 -4463 4455 0
49 -4464 4456 0
49 -4461 -4465 4454 0
49 -4461 -4466 4455 0
49 -4461 -4467 4456 0
49 -4461 -4468 4457 0
49 -4462 -4465 4455 0
49 -4462 -4466 4456 0
49 -4462 -4467 4457 0
49 -4462 -4468 4458 0
49 -4463 -4465 4456 0
49 -4463 -4466 4457 0
49 -4463 -4467 4458 0
49 -4463 -4468 4459 0
49 -4464 -4465 4457 0
49 -4464 -4466 4458 0
49 -4464 -4467 4459 0
49 -4464 -4468 4460 0
49 -4471 4465 0
49 -4472 4466 0
49 -4469 4465 0
49 -4470 4466 0
49 -4469 -4471 4466 0
49 -4469 -4472 4467 0
49 -4470 -4471 4467 0
49 -4470 -4472 4468 0
49 -696 4471 0
49 -695 4471 0
49 -695 -696 4472 0
49 -694 4469 0
49 -693 4469 0
49 -693 -694 4470 0
49 -4475 4461 0
49 -4476 4462 0
49 -4473 4461 0
49 -4474 4462 0
49 -4473 -4475 4462 0
49 -4473 -4476 4463 0
49 -4474 -4475 4463 0
49 -4474 -4476 4464 0
49 -692 4475 0
49 -691 4475 0
49 -691 -692 4476 0
49 -690 4473 0
49 -689 4473 0
49 -689 -690 4474 0
49 -4454 0
49 697 698 699 700 701 702 703 704 0
49 -4489 4477 0
49 -4490 4478 0
49 -4491 4479 0
49 -4492 4480 0
49 -4485 4477 0
49 -4486 4478 0
49 -4487 4479 0
49 -4488 4480 0
49 -4485 -4489 4478 0
49 -4485 -4490 4479 0
49 -4485 -4491 4480 0
49 -4485 -4492 4481 0
49 -4486 -4489 4479 0
49 -4486 -4490 4480 0
49 -4486 -4491 4481 0
49 -4486 -4492 4482 0
49 -4487 -4489 4480 0
49 -4487 -4490 4481 0
49 -4487 -4491 4482 0
49 -4487 -4492 4483 0
49 -4488 -4489 4481 0
49 -4488 -4490 4482 0
49 -4488 -4491 4483 0
49 -4488 -4492 4484 0
49 -4495 4489 0
49 -4496 4490 0
49 -4493 4489 0
49 -4494 4490 0
49 -4493 -4495 4490 0
49 -4493 -4496 4491 0
49 -4494 -4495 4491 0
49 -4494 -4496 4492 0
49 -704 4495 0
49 -703 4495 0
49 -703 -704 4496 0
49 -702 4493 0
49 -701 4493 0
49 -701 -702 4494 0
49 -4499 4485 0
49 -4500 4486 0
49 -4497 4485 0
49 -4498 4486 0
49 -4497 -4499 4486 0
49 -4497 -4500 4487 0
49 -4498 -4499 4487 0
49 -4498 -4500 4488 0
49 -700 4499 0
49 -699 4499 0
49 -699 -700 4500 0
49 -698 4497 0
49 -697 4497 0
49 -697 -698 4498 0
49 -4478 0
49 705 0
49 706 0
49 707 0
49 708 0
49 709 0
49 710 0
49 711 0
49 712 0
49 713 0
49 714 0
49 715 0
49 716 0
49 717 0
49 718 0
49 719 0
49 720 0
49 721 0
49 722 0
49 723 724 725 726 0
49 -4507 4501 0
49 -4508 4502 0
49 -4505 4501 0
49 -4506 4502 0
49 -4505 -4507 4502 0
49 -4505 -4508 4503 0
49 -4506 -4507 4503 0
49 -4506 -4508 4504 0
49 -726 4507 0
49 -725 4507 0
49 -725 -726 4508 0
49 -724 4505 0
49 -723 4505 0
49 -723 -724 4506 0
49 -4502 0
49 727 728 729 730 0
49 -4515 4509 0
49 -4516 4510 0
49 -4513 4509 0
49 -4514 4510 0
49 -4513 -4515 4510 0
49 -4513 -4516 4511 0
49 -4514 -4515 4511 0
49 -4514 -4516 4512 0
49 -730 4515 0
49 -729 4515 0
49 -729 -730 4516 0
49 -728 4513 0
49 -727 4513 0
49 -727 -728 4514 0
49 -4510 0
49 731 732 733 734 735 736 0
49 -4526 4517 0
49 -4527 4518 0
49 -4528 4519 0
49 -4523 4517 0
49 -4524 4518 0
49 -4525 4519 0
49 -4523 -4526 4518 0
49 -4523 -4527 4519 0
49 -4523 -4528 4520 0
49 -4524 -4526 4519 0
49 -4524 -4527 4520 0
49 -4524 -4528 4521 0
49 -4525 -4526 4520 0
49 -4525 -4527 4521 0
49 -4525 -4528 4522 0
49 -736 4526 0
49 -4529 4526 0
49 -4530 4527 0
49 -4529 -736 4527 0
49 -4530 -736 4528 0
49 -735 4529 0
49 -734 4529 0
49 -734 -735 4530 0
49 -733 4523 0
49 -4531 4523 0
49 -4532 4524 0
49 -4531 -733 4524 0
49 -4532 -733 4525 0
49 -732 4531 0
49 -731 4531 0
49 -731 -732 4532 0
49 -4518 0
49 737 738 739 740 741 742 0
49 -4542 4533 0
49 -4543 4534 0
49 -4544 4535 0
49 -4539 4533 0
49 -4540 4534 0
49 -4541 4535 0
49 -4539 -4542 4534 0
49 -4539 -4543 4535 0
49 -4539 -4544 4536 0
49 -4540 -4542 4535 0
49 -4540 -4543 4536 0
49 -4540 -4544 4537 0
49 -4541 -4542 4536 0
49 -4541 -4543 4537 0
49 -4541 -4544 4538 0
49 -742 4542 0
49 -4545 4542 0
49 -4546 4543 0
49 -4545 -742 4543 0
49 -4546 -742 4544 0
49 -741 4545 0
49 -740 4545 0
49 -740 -741 4546 0
49 -739 4539 0
49 -4547 4539 0
49 -4548 4540 0
49 -4547 -739 4540 0
49 -4548 -739 4541 0
49 -738 4547 0
49 -737 4547 0
49 -737 -738 4548 0
49 -4534 0
49 743 744 745 746 747 748 749 750 751 752 0
49 -4564 4549 0
49 -4565 4550 0
49 -4566 4551 0
49 -4567 4552 0
49 -4568 4553 0
49 -4559 4549 0
49 -4560 4550 0
49 -4561 4551 0
49 -4562 4552 0
49 -4563 4553 0
49 -4559 -4564 4550 0
49 -4559 -4565 4551 0
49 -4559 -4566 4552 0
49 -4559 -4567 4553 0
49 -4559 -4568 4554 0
49 -4560 -4564 4551 0
49 -4560 -4565 4552 0
49 -4560 -4566 4553 0
49 -4560 -4567 4554 0
49 -4560 -4568 4555 0
49 -4561 -4564 4552 0
49 -4561 -4565 4553 0
49 -4561 -4566 4554 0
49 -4561 -4567 4555 0
49 -4561 -4568 4556 0
49 -4562 -4564 4553 0
49 -4562 -4565 4554 0
49 -4562 -4566 4555 0
49 -4562 -4567 4556 0
49 -4562 -4568 4557 0
49 -4563 -4564 4554 0
49 -4563 -4565 4555 0
49 -4563 -4566 4556 0
49 -4563 -4567 4557 0
49 -4563 -4568 4558 0
49 -4572 4564 0
49 -4573 4565 0
49 -4569 4564 0
49 -4570 4565 0
49 -4571 4566 0
49 -4569 -4572 4565 0
49 -4569 -4573 4566 0
49 -4570 -4572 4566 0
49 -4570 -4573 4567 0
49 -4571 -4572 4567 0
49 -4571 -4573 4568 0
49 -752 4572 0
49 -751 4572 0
49 -751 -752 4573 0
49 -750 4569 0
49 -4574 4569 0
49 -4575 4570 0
49 -4574 -750 4570 0
49 -4575 -750 4571 0
49 -749 4574 0
49 -748 4574 0
49 -748 -749 4575 0
49 -4579 4559 0
49 -4580 4560 0
49 -4576 4559 0
49 -4577 4560 0
49 -4578 4561 0
49 -4576 -4579 4560 0
49 -4576 -4580 4561 0
49 -4577 -4579 4561 0
49 -4577 -4580 4562 0
49 -4578 -4579 4562 0
49 -4578 -4580 4563 0
49 -747 4579 0
49 -746 4579 0
49 -746 -747 4580 0
49 -745 4576 0
49 -4581 4576 0
49 -4582 4577 0
49 -4581 -745 4577 0
49 -4582 -745 4578 0
49 -744 4581 0
49 -743 4581 0
49 -743 -744 4582 0
49 -4550 0
49 753 754 755 756 757 758 759 760 761 762 0
49 -4598 4583 0
49 -4599 4584 0
49 -4600 4585 0
49 -4601 4586 0
49 -4602 4587 0
49 -4593 4583 0
49 -4594 4584 0
49 -4595 4585 0
49 -4596 4586 0
49 -4597 4587 0
49 -4593 -4598 4584 0
49 -4593 -4599 4585 0
49 -4593 -4600 4586 0
49 -4593 -4601 4587 0
49 -4593 -4602 4588 0
49 -4594 -4598 4585 0
49 -4594 -4599 4586 0
49 -4594 -4600 4587 0
49 -4594 -4601 4588 0
49 -4594 -4602 4589 0
49 -4595 -4598 4586 0
49 -4595 -4599 4587 0
49 -4595 -4600 4588 0
49 -4595 -4601 4589 0
49 -4595 -4602 4590 0
49 -4596 -4598 4587 0
49 -4596 -4599 4588 0
49 -4596 -4600 4589 0
49 -4596 -4601 4590 0
49 -4596 -4602 4591 0
49 -4597 -4598 4588 0
49 -4597 -4599 4589 0
49 -4597 -4600 4590 0
49 -4597 -4601 4591 0
49 -4597 -4602 4592 0
49 -4606 4598 0
49 -4607 4599 0
49 -4603 4598 0
49 -4604 4599 0
49 -4605 4600 0
49 -4603 -4606 4599 0
49 -4603 -4607 4600 0
49 -4604 -4606 4600 0
49 -4604 -4607 4601 0
49 -4605 -4606 4601 0
49 -4605 -4607 4602 0
49 -762 4606 0
49 -761 4606 0
49 -761 -762 4607 0
49 -760 4603 0
49 -4608 4603 0
49 -4609 4604 0
49 -4608 -760 4604 0
49 -4609 -760 4605 0
49 -759 4608 0
49 -758 4608 0
49 -758 -759 4609 0
49 -4613 4593 0
49 -4614 4594 0
49 -4610 4593 0
49 -4611 4594 0
49 -4612 4595 0
49 -4610 -4613 4594 0
49 -4610 -4614 4595 0
49 -4611 -4613 4595 0
49 -4611 -4614 4596 0
49 -4612 -4613 4596 0
49 -4612 -4614 4597 0
49 -757 4613 0
49 -756 4613 0
49 -756 -757 4614 0
49 -755 4610 0
49 -4615 4610 0
49 -4616 4611 0
49 -4615 -755 4611 0
49 -4616 -755 4612 0
49 -754 4615 0
49 -753 4615 0
49 -753 -754 4616 0
49 -4584 0
49 763 764 765 766 0
49 -4623 4617 0
49 -4624 4618 0
49 -4621 4617 0
49 -4622 4618 0
49 -4621 -4623 4618 0
49 -4621 -4624 4619 0
49 -4622 -4623 4619 0
49 -4622 -4624 4620 0
49 -766 4623 0
49 -765 4623 0
49 -765 -766 4624 0
49 -764 4621 0
49 -763 4621 0
49 -763 -764 4622 0
49 -4618 0
49 767 768 769 770 0
49 -4631 4625 0
49 -4632 4626 0
49 -4629 4625 0
49 -4630 4626 0
49 -4629 -4631 4626 0
49 -4629 -4632 4627 0
49 -4630 -4631 4627 0
49 -4630 -4632 4628 0
49 -770 4631 0
49 -769 4631 0
49 -769 -770 4632 0
49 -768 4629 0
49 -767 4629 0
49 -767 -768 4630 0
49 -4626 0
49 771 772 773 774 775 776 777 778 0
49 -4645 4633 0
49 -4646 4634 0
49 -4647 4635 0
49 -4648 4636 0
49 -4641 4633 0
49 -4642 4634 0
49 -4643 4635 0
49 -4644 4636 0
49 -4641 -4645 4634 0
49 -4641 -4646 4635 0
49 -4641 -4647 4636 0
49 -4641 -4648 4637 0
49 -4642 -4645 4635 0
49 -4642 -4646 4636 0
49 -4642 -4647 4637 0
49 -4642 -4648 4638 0
49 -4643 -4645 4636 0
49 -4643 -4646 4637 0
49 -4643 -4647 4638 0
49 -4643 -4648 4639 0
49 -4644 -4645 4637 0
49 -4644 -4646 4638 0
49 -4644 -4647 4639 0
49 -4644 -4648 4640 0
49 -4651 4645 0
49 -4652 4646 0
49 -4649 4645 0
49 -4650 4646 0
49 -4649 -4651 4646 0
49 -4649 -4652 4647 0
49 -4650 -4651 4647 0
49 -4650 -4652 4648 0
49 -778 4651 0
49 -777 4651 0
49 -777 -778 4652 0
49 -776 4649 0
49 -775 4649 0
49 -775 -776 4650 0
49 -4655 4641 0
49 -4656 4642 0
49 -4653 4641 0
49 -4654 4642 0
49 -4653 -4655 4642 0
49 -4653 -4656 4643 0
49 -4654 -4655 4643 0
49 -4654 -4656 4644 0
49 -774 4655 0
49 -773 4655 0
49 -773 -774 4656 0
49 -772 4653 0
49 -771 4653 0
49 -771 -772 4654 0
49 -4634 0
49 779 780 781 782 783 784 785 786 0
49 -4669 4657 0
49 -4670 4658 0
49 -4671 4659 0
49 -4672 4660 0
49 -4665 4657 0
49 -4666 4658 0
49 -4667 4659 0
49 -4668 4660 0
49 -4665 -4669 4658 0
49 -4665 -4670 4659 0
49 -4665 -4671 4660 0
49 -4665 -4672 4661 0
49 -4666 -4669 4659 0
49 -4666 -4670 4660 0
49 -4666 -4671 4661 0
49 -4666 -4672 4662 0
49 -4667 -4669 4660 0
49 -4667 -4670 4661 0
49 -4667 -4671 4662 0
49 -4667 -4672 4663 0
49 -4668 -4669 4661 0
49 -4668 -4670 4662 0
49 -4668 -4671 4663 0
49 -4668 -4672 4664 0
49 -4675 4669 0
49 -4676 4670 0
49 -4673 4669 0
49 -4674 4670 0
49 -4673 -4675 4670 0
49 -4673 -4676 4671 0
49 -4674 -4675 4671 0
49 -4674 -4676 4672 0
49 -786 4675 0
49 -785 4675 0
49 -785 -786 4676 0
49 -784 4673 0
49 -783 4673 0
49 -783 -784 4674 0
49 -4679 4665 0
49 -4680 4666 0
49 -4677 4665 0
49 -4678 4666 0
49 -4677 -4679 4666 0
49 -4677 -4680 4667 0
49 -4678 -4679 4667 0
49 -4678 -4680 4668 0
49 -782 4679 0
49 -781 4679 0
49 -781 -782 4680 0
49 -780 4677 0
49 -779 4677 0
49 -779 -780 4678 0
49 -4658 0
49 787 0
49 788 0
49 789 0
49 790 0
49 791 792 793 794 795 796 797 798 0
49 -4693 4681 0
49 -4694 4682 0
49 -4695 4683 0
49 -4696 4684 0
49 -4689 4681 0
49 -4690 4682 0
49 -4691 4683 0
49 -4692 4684 0
49 -4689 -4693 4682 0
49 -4689 -4694 4683 0
49 -4689 -4695 4684 0
49 -4689 -4696 4685 0
49 -4690 -4693 4683 0
49 -4690 -4694 4684 0
49 -4690 -4695 4685 0
49 -4690 -4696 4686 0
49 -4691 -4693 4684 0
49 -4691 -4694 4685 0
49 -4691 -4695 4686 0
49 -4691 -4696 4687 0
49 -4692 -4693 4685 0
49 -4692 -4694 4686 0
49 -4692 -4695 4687 0
49 -4692 -4696 4688 0
49 -4699 4693 0
49 -4700 4694 0
49 -4697 4693 0
49 -4698 4694 0
49 -4697 -4699 4694 0
49 -4697 -4700 4695 0
49 -4698 -4699 4695 0
49 -4698 -4700 4696 0
49 -798 4699 0
49 -797 4699 0
49 -797 -798 4700 0
49 -796 4697 0
49 -795 4697 0
49 -795 -796 4698 0
49 -4703 4689 0
49 -4704 4690 0
49 -4701 4689 0
49 -4702 4690 0
49 -4701 -4703 4690 0
49 -4701 -4704 4691 0
49 -4702 -4703 4691 0
49 -4702 -4704 4692 0
49 -794 4703 0
49 -793 4703 0
49 -793 -794 4704 0
49 -792 4701 0
49 -791 4701 0
49 -791 -792 4702 0
49 -4682 0
49 799 800 801 802 803 804 805 806 0
49 -4717 4705 0
49 -4718 4706 0
49 -4719 4707 0
49 -4720 4708 0
49 -4713 4705 0
49 -4714 4706 0
49 -4715 4707 0
49 -4716 4708 0
49 -4713 -4717 4706 0
49 -4713 -4718 4707 0
49 -4713 -4719 4708 0
49 -4713 -4720 4709 0
49 -4714 -4717 4707 0
49 -4714 -4718 4708 0
49 -4714 -4719 4709 0
49 -4714 -4720 4710 0
49 -4715 -4717 4708 0
49 -4715 -4718 4709 0
49 -4715 -4719 4710 0
49 -4715 -4720 4711 0
49 -4716 -4717 4709 0
49 -4716 -4718 4710 0
49 -4716 -4719 4711 0
49 -4716 -4720 4712 0
49 -4723 4717 0
49 -4724 4718 0
49 -4721 4717 0
49 -4722 4718 0
49 -4721 -4723 4718 0
49 -4721 -4724 4719 0
49 -4722 -4723 4719 0
49 -4722 -4724 4720 0
49 -806 4723 0
49 -805 4723 0
49 -805 -806 4724 0
49 -804 4721 0
49 -803 4721 0
49 -803 -804 4722 0
49 -4727 4713 0
49 -4728 4714 0
49 -4725 4713 0
49 -4726 4714 0
49 -4725 -4727 4714 0
49 -4725 -4728 4715 0
49 -4726 -4727 4715 0
49 -4726 -4728 4716 0
49 -802 4727 0
49 -801 4727 0
49 -801 -802 4728 0
49 -800 4725 0
49 -799 4725 0
49 -799 -800 4726 0
49 -4706 0
49 807 0
49 808 0
49 809 0
49 810 0
49 811 0
49 812 0
49 813 0
49 814 0
49 815 0
49 816 0
49 817 818 819 0
49 -819 4729 0
49 -4732 4729 0
49 -4733 4730 0
49 -4732 -819 4730 0
49 -4733 -819 4731 0
49 -818 4732 0
49 -817 4732 0
49 -817 -818 4733 0
49 -4730 0
49 820 821 822 0
49 -822 4734 0
49 -4737 4734 0
49 -4738 4735 0
49 -4737 -822 4735 0
49 -4738 -822 4736 0
49 -821 4737 0
49 -820 4737 0
49 -820 -821 4738 0
49 -4735 0
49 823 0
49 824 0
49 825 0
49 826 0
49 827 0
49 828 0
49 829 830 831 832 833 834 835 836 837 838 839 840 841 842 843 0
49 -4762 4739 0
49 -4763 4740 0
49 -4764 4741 0
49 -4765 4742 0
49 -4766 4743 0
49 -4767 4744 0
49 -4768 4745 0
49 -4754 4739 0
49 -4755 4740 0
49 -4756 4741 0
49 -4757 4742 0
49 -4758 4743 0
49 -4759 4744 0
49 -4760 4745 0
49 -4761 4746 0
49 -4754 -4762 4740 0
49 -4754 -4763 4741 0
49 -4754 -4764 4742 0
49 -4754 -4765 4743 0
49 -4754 -4766 4744 0
49 -4754 -4767 4745 0
49 -4754 -4768 4746 0
49 -4755 -4762 4741 0
49 -4755 -4763 4742 0
49 -4755 -4764 4743 0
49 -4755 -4765 4744 0
49 -4755 -4766 4745 0
49 -4755 -4767 4746 0
49 -4755 -4768 4747 0
49 -4756 -4762 4742 0
49 -4756 -4763 4743 0
49 -4756 -4764 4744 0
49 -4756 -4765 4745 0
49 -4756 -4766 4746 0
49 -4756 -4767 4747 0
49 -4756 -4768 4748 0
49 -4757 -4762 4743 0
49 -4757 -4763 4744 0
49 -4757 -4764 4745 0
49 -4757 -4765 4746 0
49 -4757 -4766 4747 0
49 -4757 -4767 4748 0
49 -4757 -4768 4749 0
49 -4758 -4762 4744 0
49 -4758 -4763 4745 0
49 -4758 -4764 4746 0
49 -4758 -4765 4747 0
49 -4758 -4766 4748 0
49 -4758 -4767 4749 0
49 -4758 -4768 4750 0
49 -4759 -4762 4745 0
49 -4759 -4763 4746 0
49 -4759 -4764 4747 0
49 -4759 -4765 4748 0
49 -4759 -4766 4749 0
49 -4759 -4767 4750 0
49 -4759 -4768 4751 0
49 -4760 -4762 4746 0
49 -4760 -4763 4747 0
49 -4760 -4764 4748 0
49 -4760 -4765 4749 0
49 -4760 -4766 4750 0
49 -4760 -4767 4751 0
49 -4760 -4768 4752 0
49 -4761 -4762 4747 0
49 -4761 -4763 4748 0
49 -4761 -4764 4749 0
49 -4761 -4765 4750 0
49 -4761 -4766 4751 0
49 -4761 -4767 4752 0
49 -4761 -4768 4753 0
49 -4773 4762 0
49 -4774 4763 0
49 -4775 4764 0
49 -4769 4762 0
49 -4770 4763 0
49 -4771 4764 0
49 -4772 4765 0
49 -4769 -4773 4763 0
49 -4769 -4774 4764 0
49 -4769 -4775 4765 0
49 -4770 -4773 4764 0
49 -4770 -4774 4765 0
49 -4770 -4775 4766 0
49 -4771 -4773 4765 0
49 -4771 -4774 4766 0
49 -4771 -4775 4767 0
49 -4772 -4773 4766 0
49 -4772 -4774 4767 0
49 -4772 -4775 4768 0
49 -843 4773 0
49 -4776 4773 0
49 -4777 4774 0
49 -4776 -843 4774 0
49 -4777 -843 4775 0
49 -842 4776 0
49 -841 4776 0
49 -841 -842 4777 0
49 -4780 4769 0
49 -4781 4770 0
49 -4778 4769 0
49 -4779 4770 0
49 -4778 -4780 4770 0
49 -4778 -4781 4771 0
49 -4779 -4780 4771 0
49 -4779 -4781 4772 0
49 -840 4780 0
49 -839 4780 0
49 -839 -840 4781 0
49 -838 4778 0
49 -837 4778 0
49 -837 -838 4779 0
49 -4786 4754 0
49 -4787 4755 0
49 -4788 4756 0
49 -4789 4757 0
49 -4782 4754 0
49 -4783 4755 0
49 -4784 4756 0
49 -4785 4757 0
49 -4782 -4786 4755 0
49 -4782 -4787 4756 0
49 -4782 -4788 4757 0
49 -4782 -4789 4758 0
49 -4783 -4786 4756 0
49 -4783 -4787 4757 0
49 -4783 -4788 4758 0
49 -4783 -4789 4759 0
49 -4784 -4786 4757 0
49 -4784 -4787 4758 0
49 -4784 -4788 4759 0
49 -4784 -4789 4760 0
49 -4785 -4786 4758 0
49 -4785 -4787 4759 0
49 -4785 -4788 4760 0
49 -4785 -4789 4761 0
49 -4792 4786 0
49 -4793 4787 0
49 -4790 4786 0
49 -4791 4787 0
49 -4790 -4792 4787 0
49 -4790 -4793 4788 0
49 -4791 -4792 4788 0
49 -4791 -4793 4789 0
49 -836 4792 0
49 -835 4792 0
49 -835 -836 4793 0
49 -834 4790 0
49 -833 4790 0
49 -833 -834 4791 0
49 -4796 4782 0
49 -4797 4783 0
49 -4794 4782 0
49 -4795 4783 0
49 -4794 -4796 4783 0
49 -4794 -4797 4784 0
49 -4795 -4796 4784 0
49 -4795 -4797 4785 0
49 -832 4796 0
49 -831 4796 0
49 -831 -832 4797 0
49 -830 4794 0
49 -829 4794 0
49 -829 -830 4795 0
49 -4740 0
49 844 845 846 847 848 849 850 851 852 853 854 855 856 857 858 0
49 -4821 4798 0
49 -4822 4799 0
49 -4823 4800 0
49 -4824 4801 0
49 -4825 4802 0
49 -4826 4803 0
49 -4827 4804 0
49 -4813 4798 0
49 -4814 4799 0
49 -4815 4800 0
49 -4816 4801 0
49 -4817 4802 0
49 -4818 4803 0
49 -4819 4804 0
49 -4820 4805 0
49 -4813 -4821 4799 0
49 -4813 -4822 4800 0
49 -4813 -4823 4801 0
49 -4813 -4824 4802 0
49 -4813 -4825 4803 0
49 -4813 -4826 4804 0
49 -4813 -4827 4805 0
49 -4814 -4821 4800 0
49 -4814 -4822 4801 0
49 -4814 -4823 4802 0
49 -4814 -4824 4803 0
49 -4814 -4825 4804 0
49 -4814 -4826 4805 0
49 -4814 -4827 4806 0
49 -4815 -4821 4801 0
49 -4815 -4822 4802 0
49 -4815 -4823 4803 0
49 -4815 -4824 4804 0
49 -4815 -4825 4805 0
49 -4815 -4826 4806 0
49 -4815 -4827 4807 0
49 -4816 -4821 4802 0
49 -4816 -4822 4803 0
49 -4816 -4823 4804 0
49 -4816 -4824 4805 0
49 -4816 -4825 4806 0
49 -4816 -4826 4807 0
49 -4816 -4827 4808 0
49 -4817 -4821 4803 0
49 -4817 -4822 4804 0
49 -4817 -4823 4805 0
49 -4817 -4824 4806 0
49 -4817 -4825 4807 0
49 -4817 -4826 4808 0
49 -4817 -4827 4809 0
49 -4818 -4821 4804 0
49 -4818 -4822 4805 0
49 -4818 -4823 4806 0
49 -4818 -4824 4807 0
49 -4818 -4825 4808 0
49 -4818 -4826 4809 0
49 -4818 -4827 4810 0
49 -4819 -4821 4805 0
49 -4819 -4822 4806 0
49 -4819 -4823 4807 0
49 -4819 -4824 4808 0
49 -4819 -4825 4809 0
49 -4819 -4826 4810 0
49 -4819 -4827 4811 0
49 -4820 -4821 4806 0
49 -4820 -4822 4807 0
49 -4820 -4823 4808 0
49 -4820 -4824 4809 0
49 -4820 -4825 4810 0
49 -4820 -4826 4811 0
49 -4820 -4827 4812 0
49 -4832 4821 0
49 -4833 4822 0
49 -4834 4823 0
49 -4828 4821 0
49 -4829 4822 0
49 -4830 4823 0
49 -4831 4824 0
49 -4828 -4832 4822 0
49 -4828 -4833 4823 0
49 -4828 -4834 4824 0
49 -4829 -4832 4823 0
49 -4829 -4833 4824 0
49 -4829 -4834 4825 0
49 -4830 -4832 4824 0
49 -4830 -4833 4825 0
49 -4830 -4834 4826 0
49 -4831 -4832 4825 0
49 -4831 -4833 4826 0
49 -4831 -4834 4827 0
49 -858 4832 0
49 -4835 4832 0
49 -4836 4833 0
49 -4835 -858 4833 0
49 -4836 -858 4834 0
49 -857 4835 0
49 -856 4835 0
49 -856 -857 4836 0
49 -4839 4828 0
49 -4840 4829 0
49 -4837 4828 0
49 -4838 4829 0
49 -4837 -4839 4829 0
49 -4837 -4840 4830 0
49 -4838 -4839 4830 0
49 -4838 -4840 4831 0
49 -855 4839 0
49 -854 4839 0
49 -854 -855 4840 0
49 -853 4837 0
49 -852 4837 0
49 -852 -853 4838 0
49 -4845 4813 0
49 -4846 4814 0
49 -4847 4815 0
49 -4848 4816 0
49 -4841 4813 0
49 -4842 4814 0
49 -4843 4815 0
49 -4844 4816 0
49 -4841 -4845 4814 0
49 -4841 -4846 4815 0
49 -4841 -4847 4816 0
49 -4841 -4848 4817 0
49 -4842 -4845 4815 0
49 -4842 -4846 4816 0
49 -4842 -4847 4817 0
49 -4842 -4848 4818 0
49 -4843 -4845 4816 0
49 -4843 -4846 4817 0
49 -4843 -4847 4818 0
49 -4843 -4848 4819 0
49 -4844 -4845 4817 0
49 -4844 -4846 4818 0
49 -4844 -4847 4819 0
49 -4844 -4848 4820 0
49 -4851 4845 0
49 -4852 4846 0
49 -4849 4845 0
49 -4850 4846 0
49 -4849 -4851 4846 0
49 -4849 -4852 4847 0
49 -4850 -4851 4847 0
49 -4850 -4852 4848 0
49 -851 4851 0
49 -850 4851 0
49 -850 -851 4852 0
49 -849 4849 0
49 -848 4849 0
49 -848 -849 4850 0
49 -4855 4841 0
49 -4856 4842 0
49 -4853 4841 0
49 -4854 4842 0
49 -4853 -4855 4842 0
49 -4853 -4856 4843 0
49 -4854 -4855 4843 0
49 -4854 -4856 4844 0
49 -847 4855 0
49 -846 4855 0
49 -846 -847 4856 0
49 -845 4853 0
49 -844 4853 0
49 -844 -845 4854 0
49 -4799 0
49 859 860 861 862 863 0
49 -4865 4857 0
49 -4866 4858 0
49 -4862 4857 0
49 -4863 4858 0
49 -4864 4859 0
49 -4862 -4865 4858 0
49 -4862 -4866 4859 0
49 -4863 -4865 4859 0
49 -4863 -4866 4860 0
49 -4864 -4865 4860 0
49 -4864 -4866 4861 0
49 -863 4865 0
49 -862 4865 0
49 -862 -863 4866 0
49 -861 4862 0
49 -4867 4862 0
49 -4868 4863 0
49 -4867 -861 4863 0
49 -4868 -861 4864 0
49 -860 4867 0
49 -859 4867 0
49 -859 -860 4868 0
49 -4858 0
49 864 865 866 867 868 0
49 -4877 4869 0
49 -4878 4870 0
49 -4874 4869 0
49 -4875 4870 0
49 -4876 4871 0
49 -4874 -4877 4870 0
49 -4874 -4878 4871 0
49 -4875 -4877 4871 0
49 -4875 -4878 4872 0
49 -4876 -4877 4872 0
49 -4876 -4878 4873 0
49 -868 4877 0
49 -867 4877 0
49 -867 -868 4878 0
49 -866 4874 0
49 -4879 4874 0
49 -4880 4875 0
49 -4879 -866 4875 0
49 -4880 -866 4876 0
49 -865 4879 0
49 -864 4879 0
49 -864 -865 4880 0
49 -4870 0
49 869 0
49 870 0
49 871 0
49 872 0
49 873 0
49 874 0
49 875 876 877 878 879 880 881 882 883 884 885 886 887 888 889 890 891 892 893 894 895 896 897 898 899 900 901 902 0
49 -4923 4881 0
49 -4924 4882 0
49 -4925 4883 0
49 -4926 4884 0
49 -4927 4885 0
49 -4928 4886 0
49 -4929 4887 0
49 -4930 4888 0
49 -4931 4889 0
49 -4932 4890 0
49 -4933 4891 0
49 -4934 4892 0
49 -4935 4893 0
49 -4936 4894 0
49 -4909 4881 0
49 -4910 4882 0
49 -4911 4883 0
49 -4912 4884 0
49 -4913 4885 0
49 -4914 4886 0
49 -4915 4887 0
49 -4916 4888 0
49 -4917 4889 0
49 -4918 4890 0
49 -4919 4891 0
49 -4920 4892 0
49 -4921 4893 0
49 -4922 4894 0
49 -4909 -4923 4882 0
49 -4909 -4924 4883 0
49 -4909 -4925 4884 0
49 -4909 -4926 4885 0
49 -4909 -4927 4886 0
49 -4909 -4928 4887 0
49 -4909 -4929 4888 0
49 -4909 -4930 4889 0
49 -4909 -4931 4890 0
49 -4909 -4932 4891 0
49 -4909 -4933 4892 0
49 -4909 -4934 4893 0
49 -4909 -4935 4894 0
49 -4909 -4936 4895 0
49 -4910 -4923 4883 0
49 -4910 -4924 4884 0
49 -4910 -4925 4885 0
49 -4910 -4926 4886 0
49 -4910 -4927 4887 0
49 -4910 -4928 4888 0
49 -4910 -4929 4889 0
49 -4910 -4930 4890 0
49 -4910 -4931 4891 0
49 -4910 -4932 4892 0
49 -4910 -4933 4893 0
49 -4910 -4934 4894 0
49 -4910 -4935 4895 0
49 -4910 -4936 4896 0
49 -4911 -4923 4884 0
49 -4911 -4924 4885 0
49 -4911 -4925 4886 0
49 -4911 -4926 4887 0
49 -4911 -4927 4888 0
49 -4911 -4928 4889 0
49 -4911 -4929 4890 0
49 -4911 -4930 4891 0
49 -4911 -4931 4892 0
49 -4911 -4932 4893 0
49 -4911 -4933 4894 0
49 -4911 -4934 4895 0
49 -4911 -4935 4896 0
49 -4911 -4936 4897 0
49 -4912 -4923 4885 0
49 -4912 -4924 4886 0
49 -4912 -4925 4887 0
49 -4912 -4926 4888 0
49 -4912 -4927 4889 0
49 -4912 -4928 4890 0
49 -4912 -4929 4891 0
49 -4912 -4930 4892 0
49 -4912 -4931 4893 0
49 -4912 -4932 4894 0
49 -4912 -4933 4895 0
49 -4912 -4934 4896 0
49 -4912 -4935 4897 0
49 -4912 -4936 4898 0
49 -4913 -4923 4886 0
49 -4913 -4924 4887 0
49 -4913 -4925 4888 0
49 -4913 -4926 4889 0
49 -4913 -4927 4890 0
49 -4913 -4928 4891 0
49 -4913 -4929 4892 0
49 -4913 -4930 4893 0
49 -4913 -4931 4894 0
49 -4913 -4932 4895 0
49 -4913 -4933 4896 0
49 -4913 -4934 4897 0
49 -4913 -4935 4898 0
49 -4913 -4936 4899 0
49 -4914 -4923 4887 0
49 -4914 -4924 4888 0
49 -4914 -4925 4889 0
49 -4914 -4926 4890 0
49 -4914 -4927 4891 0
49 -4914 -4928 4892 0
49 -4914 -4929 4893 0
49 -4914 -4930 4894 0
49 -4914 -4931 4895 0
49 -4914 -4932 4896 0
49 -4914 -4933 4897 0
49 -4914 -4934 4898 0
49 -4914 -4935 4899 0
49 -4914 -4936 4900 0
49 -4915 -4923 4888 0
49 -4915 -4924 4889 0
49 -4915 -4925 4890 0
49 -4915 -4926 4891 0
49 -4915 -4927 4892 0
49 -4915 -4928 4893 0
49 -4915 -4929 4894 0
49 -4915 -4930 4895 0
49 -4915 -4931 4896 0
49 -4915 -4932 4897 0
49 -4915 -4933 4898 0
49 -4915 -4934 4899 0
49 -4915 -4935 4900 0
49 -4915 -4936 4901 0
49 -4916 -4923 4889 0
49 -4916 -4924 4890 0
49 -4916 -4925 4891 0
49 -4916 -4926 4892 0
49 -4916 -4927 4893 0
49 -4916 -4928 4894 0
49 -4916 -4929 4895 0
49 -4916 -4930 4896 0
49 -4916 -4931 4897 0
49 -4916 -4932 4898 0
49 -4916 -4933 4899 0
49 -4916 -4934 4900 0
49 -4916 -4935 4901 0
49 -4916 -4936 4902 0
49 -4917 -4923 4890 0
49 -4917 -4924 4891 0
49 -4917 -4925 4892 0
49 -4917 -4926 4893 0
49 -4917 -4927 4894 0
49 -4917 -4928 4895 0
49 -4917 -4929 4896 0
49 -4917 -4930 4897 0
49 -4917 -4931 4898 0
49 -4917 -4932 4899 0
49 -4917 -4933 4900 0
49 -4917 -4934 4901 0
49 -4917 -4935 4902 0
49 -4917 -4936 4903 0
49 -4918 -4923 4891 0
49 -4918 -4924 4892 0
49 -4918 -4925 4893 0
49 -4918 -4926 4894 0
49 -4918 -4927 4895 0
49 -4918 -4928 4896 0
49 -4918 -4929 4897 0
49 -4918 -4930 4898 0
49 -4918 -4931 4899 0
49 -4918 -4932 4900 0
49 -4918 -4933 4901 0
49 -4918 -4934 4902 0
49 -4918 -4935 4903 0
49 -4918 -4936 4904 0
49 -4919 -4923 4892 0
49 -4919 -4924 4893 0
49 -4919 -4925 4894 0
49 -4919 -4926 4895 0
49 -4919 -4927 4896 0
49 -4919 -4928 4897 0
49 -4919 -4929 4898 0
49 -4919 -4930 4899 0
49 -4919 -4931 4900 0
49 -4919 -4932 4901 0
49 -4919 -4933 4902 0
49 -4919 -4934 4903 0
49 -4919 -4935 4904 0
49 -4919 -4936 4905 0
49 -4920 -4923 4893 0
49 -4920 -4924 4894 0
49 -4920 -4925 4895 0
49 -4920 -4926 4896 0
49 -4920 -4927 4897 0
49 -4920 -4928 4898 0
49 -4920 -4929 4899 0
49 -4920 -4930 4900 0
49 -4920 -4931 4901 0
49 -4920 -4932 4902 0
49 -4920 -4933 4903 0
49 -4920 -4934 4904 0
49 -4920 -4935 4905 0
49 -4920 -4936 4906 0
49 -4921 -4923 4894 0
49 -4921 -4924 4895 0
49 -4921 -4925 4896 0
49 -4921 -4926 4897 0
49 -4921 -4927 4898 0
49 -4921 -4928 4899 0
49 -4921 -4929 4900 0
49 -4921 -4930 4901 0
49 -4921 -4931 4902 0
49 -4921 -4932 4903 0
49 -4921 -4933 4904 0
49 -4921 -4934 4905 0
49 -4921 -4935 4906 0
49 -4921 -4936 4907 0
49 -4922 -4923 4895 0
49 -4922 -4924 4896 0
49 -4922 -4925 4897 0
49 -4922 -4926 4898 0
49 -4922 -4927 4899 0
49 -4922 -4928 4900 0
49 -4922 -4929 4901 0
49 -4922 -4930 4902 0
49 -4922 -4931 4903 0
49 -4922 -4932 4904 0
49 -4922 -4933 4905 0
49 -4922 -4934 4906 0
49 -4922 -4935 4907 0
49 -4922 -4936 4908 0
49 -4944 4923 0
49 -4945 4924 0
49 -4946 4925 0
49 -4947 4926 0
49 -4948 4927 0
49 -4949 4928 0
49 -4950 4929 0
49 -4937 4923 0
49 -4938 4924 0
49 -4939 4925 0
49 -4940 4926 0
49 -4941 4927 0
49 -4942 4928 0
49 -4943 4929 0
49 -4937 -4944 4924 0
49 -4937 -4945 4925 0
49 -4937 -4946 4926 0
49 -4937 -4947 4927 0
49 -4937 -4948 4928 0
49 -4937 -4949 4929 0
49 -4937 -4950 4930 0
49 -4938 -4944 4925 0
49 -4938 -4945 4926 0
49 -4938 -4946 4927 0
49 -4938 -4947 4928 0
49 -4938 -4948 4929 0
49 -4938 -4949 4930 0
49 -4938 -4950 4931 0
49 -4939 -4944 4926 0
49 -4939 -4945 4927 0
49 -4939 -4946 4928 0
49 -4939 -4947 4929 0
49 -4939 -4948 4930 0
49 -4939 -4949 4931 0
49 -4939 -4950 4932 0
49 -4940 -4944 4927 0
49 -4940 -4945 4928 0
49 -4940 -4946 4929 0
49 -4940 -4947 4930 0
49 -4940 -4948 4931 0
49 -4940 -4949 4932 0
49 -4940 -4950 4933 0
49 -4941 -4944 4928 0
49 -4941 -4945 4929 0
49 -4941 -4946 4930 0
49 -4941 -4947 4931 0
49 -4941 -4948 4932 0
49 -4941 -4949 4933 0
49 -4941 -4950 4934 0
49 -4942 -4944 4929 0
49 -4942 -4945 4930 0
49 -4942 -4946 4931 0
49 -4942 -4947 4932 0
49 -4942 -4948 4933 0
49 -4942 -4949 4934 0
49 -4942 -4950 4935 0
49 -4943 -4944 4930 0
49 -4943 -4945 4931 0
49 -4943 -4946 4932 0
49 -4943 -4947 4933 0
49 -4943 -4948 4934 0
49 -4943 -4949 4935 0
49 -4943 -4950 4936 0
49 -4955 4944 0
49 -4956 4945 0
49 -4957 4946 0
49 -4951 4944 0
49 -4952 4945 0
49 -4953 4946 0
49 -4954 4947 0
49 -4951 -4955 4945 0
49 -4951 -4956 4946 0
49 -4951 -4957 4947 0
49 -4952 -4955 4946 0
49 -4952 -4956 4947 0
49 -4952 -4957 4948 0
49 -4953 -4955 4947 0
49 -4953 -4956 4948 0
49 -4953 -4957 4949 0
49 -4954 -4955 4948 0
49 -4954 -4956 4949 0
49 -4954 -4957 4950 0
49 -902 4955 0
49 -4958 4955 0
49 -4959 4956 0
49 -4958 -902 4956 0
49 -4959 -902 4957 0
49 -901 4958 0
49 -900 4958 0
49 -900 -901 4959 0
49 -4962 4951 0
49 -4963 4952 0
49 -4960 4951 0
49 -4961 4952 0
49 -4960 -4962 4952 0
49 -4960 -4963 4953 0
49 -4961 -4962 4953 0
49 -4961 -4963 4954 0
49 -899 4962 0
49 -898 4962 0
49 -898 -899 4963 0
49 -897 4960 0
49 -896 4960 0
49 -896 -897 4961 0
49 -4968 4937 0
49 -4969 4938 0
49 -4970 4939 0
49 -4964 4937 0
49 -4965 4938 0
49 -4966 4939 0
49 -4967 4940 0
49 -4964 -4968 4938 0
49 -4964 -4969 4939 0
49 -4964 -4970 4940 0
49 -4965 -4968 4939 0
49 -4965 -4969 4940 0
49 -4965 -4970 4941 0
49 -4966 -4968 4940 0
49 -4966 -4969 4941 0
49 -4966 -4970 4942 0
49 -4967 -4968 4941 0
49 -4967 -4969 4942 0
49 -4967 -4970 4943 0
49 -895 4968 0
49 -4971 4968 0
49 -4972 4969 0
49 -4971 -895 4969 0
49 -4972 -895 4970 0
49 -894 4971 0
49 -893 4971 0
49 -893 -894 4972 0
49 -4975 4964 0
49 -4976 4965 0
49 -4973 4964 0
49 -4974 4965 0
49 -4973 -4975 4965 0
49 -4973 -4976 4966 0
49 -4974 -4975 4966 0
49 -4974 -4976 4967 0
49 -892 4975 0
49 -891 4975 0
49 -891 -892 4976 0
49 -890 4973 0
49 -889 4973 0
49 -889 -890 4974 0
49 -4984 4909 0
49 -4985 4910 0
49 -4986 4911 0
49 -4987 4912 0
49 -4988 4913 0
49 -4989 4914 0
49 -4990 4915 0
49 -4977 4909 0
49 -4978 4910 0
49 -4979 4911 0
49 -4980 4912 0
49 -4981 4913 0
49 -4982 4914 0
49 -4983 4915 0
49 -4977 -4984 4910 0
49 -4977 -4985 4911 0
49 -4977 -4986 4912 0
49 -4977 -4987 4913 0
49 -4977 -4988 4914 0
49 -4977 -4989 4915 0
49 -4977 -4990 4916 0
49 -4978 -4984 4911 0
49 -4978 -4985 4912 0
49 -4978 -4986 4913 0
49 -4978 -4987 4914 0
49 -4978 -4988 4915 0
49 -4978 -4989 4916 0
49 -4978 -4990 4917 0
49 -4979 -4984 4912 0
49 -4979 -4985 4913 0
49 -4979 -4986 4914 0
49 -4979 -4987 4915 0
49 -4979 -4988 4916 0
49 -4979 -4989 4917 0
49 -4979 -4990 4918 0
49 -4980 -4984 4913 0
49 -4980 -4985 4914 0
49 -4980 -4986 4915 0
49 -4980 -4987 4916 0
49 -4980 -4988 4917 0
49 -4980 -4989 4918 0
49 -4980 -4990 4919 0
49 -4981 -4984 4914 0
49 -4981 -4985 4915 0
49 -4981 -4986 4916 0
49 -4981 -4987 4917 0
49 -4981 -4988 4918 0
49 -4981 -4989 4919 0
49 -4981 -4990 4920 0
49 -4982 -4984 4915 0
49 -4982 -4985 4916 0
49 -4982 -4986 4917 0
49 -4982 -4987 4918 0
49 -4982 -4988 4919 0
49 -4982 -4989 4920 0
49 -4982 -4990 4921 0
49 -4983 -4984 4916 0
49 -4983 -4985 4917 0
49 -4983 -4986 4918 0
49 -4983 -4987 4919 0
49 -4983 -4988 4920 0
49 -4983 -4989 4921 0
49 -4983 -4990 4922 0
49 -4995 4984 0
49 -4996 4985 0
49 -4997 4986 0
49 -4991 4984 0
49 -4992 4985 0
49 -4993 4986 0
49 -4994 4987 0
49 -4991 -4995 4985 0
49 -4991 -4996 4986 0
49 -4991 -4997 4987 0
49 -4992 -4995 4986 0
49 -4992 -4996 4987 0
49 -4992 -4997 4988 0
49 -4993 -4995 4987 0
49 -4993 -4996 4988 0
49 -4993 -4997 4989 0
49 -4994 -4995 4988 0
49 -4994 -4996 4989 0
49 -4994 -4997 4990 0
49 -888 4995 0
49 -4998 4995 0
49 -4999 4996 0
49 -4998 -888 4996 0
49 -4999 -888 4997 0
49 -887 4998 0
49 -886 4998 0
49 -886 -887 4999 0
49 -5002 4991 0
49 -5003 4992 0
49 -5000 4991 0
49 -5001 4992 0
49 -5000 -5002 4992 0
49 -5000 -5003 4993 0
49 -5001 -5002 4993 0
49 -5001 -5003 4994 0
49 -885 5002 0
49 -884 5002 0
49 -884 -885 5003 0
49 -883 5000 0
49 -882 5000 0
49 -882 -883 5001 0
49 -5008 4977 0
49 -5009 4978 0
49 -5010 4979 0
49 -5004 4977 0
49 -5005 4978 0
49 -5006 4979 0
49 -5007 4980 0
49 -5004 -5008 4978 0
49 -5004 -5009 4979 0
49 -5004 -5010 4980 0
49 -5005 -5008 4979 0
49 -5005 -5009 4980 0
49 -5005 -5010 4981 0
49 -5006 -5008 4980 0
49 -5006 -5009 4981 0
49 -5006 -5010 4982 0
49 -5007 -5008 4981 0
49 -5007 -5009 4982 0
49 -5007 -5010 4983 0
49 -881 5008 0
49 -5011 5008 0
49 -5012 5009 0
49 -5011 -881 5009 0
49 -5012 -881 5010 0
49 -880 5011 0
49 -879 5011 0
49 -879 -880 5012 0
49 -5015 5004 0
49 -5016 5005 0
49 -5013 5004 0
49 -5014 5005 0
49 -5013 -5015 5005 0
49 -5013 -5016 5006 0
49 -5014 -5015 5006 0
49 -5014 -5016 5007 0
49 -878 5015 0
49 -877 5015 0
49 -877 -878 5016 0
49 -876 5013 0
49 -875 5013 0
49 -875 -876 5014 0
49 -4882 0
49 903 904 905 906 907 908 909 910 911 912 913 914 915 916 917 918 919 920 921 922 923 924 925 926 927 928 929 930 0
49 -5059 5017 0
49 -5060 5018 0
49 -5061 5019 0
49 -5062 5020 0
49 -5063 5021 0
49 -5064 5022 0
49 -5065 5023 0
49 -5066 5024 0
49 -5067 5025 0
49 -5068 5026 0
49 -5069 5027 0
49 -5070 5028 0
49 -5071 5029 0
49 -5072 5030 0
49 -5045 5017 0
49 -5046 5018 0
49 -5047 5019 0
49 -5048 5020 0
49 -5049 5021 0
49 -5050 5022 0
49 -5051 5023 0
49 -5052 5024 0
49 -5053 5025 0
49 -5054 5026 0
49 -5055 5027 0
49 -5056 5028 0
49 -5057 5029 0
49 -5058 5030 0
49 -5045 -5059 5018 0
49 -5045 -5060 5019 0
49 -5045 -5061 5020 0
49 -5045 -5062 5021 0
49 -5045 -5063 5022 0
49 -5045 -5064 5023 0
49 -5045 -5065 5024 0
49 -5045 -5066 5025 0
49 -5045 -5067 5026 0
49 -5045 -5068 5027 0
49 -5045 -5069 5028 0
49 -5045 -5070 5029 0
49 -5045 -5071 5030 0
49 -5045 -5072 5031 0
49 -5046 -5059 5019 0
49 -5046 -5060 5020 0
49 -5046 -5061 5021 0
49 -5046 -5062 5022 0
49 -5046 -5063 5023 0
49 -5046 -5064 5024 0
49 -5046 -5065 5025 0
49 -5046 -5066 5026 0
49 -5046 -5067 5027 0
49 -5046 -5068 5028 0
49 -5046 -5069 5029 0
49 -5046 -5070 5030 0
49 -5046 -5071 5031 0
49 -5046 -5072 5032 0
49 -5047 -5059 5020 0
49 -5047 -5060 5021 0
49 -5047 -5061 5022 0
49 -5047 -5062 5023 0
49 -5047 -5063 5024 0
49 -5047 -5064 5025 0
49 -5047 -5065 5026 0
49 -5047 -5066 5027 0
49 -5047 -5067 5028 0
49 -5047 -5068 5029 0
49 -5047 -5069 5030 0
49 -5047 -5070 5031 0
49 -5047 -5071 5032 0
49 -5047 -5072 5033 0
49 -5048 -5059 5021 0
49 -5048 -5060 5022 0
49 -5048 -5061 5023 0
49 -5048 -5062 5024 0
49 -5048 -5063 5025 0
49 -5048 -5064 5026 0
49 -5048 -5065 5027 0
49 -5048 -5066 5028 0
49 -5048 -5067 5029 0
49 -5048 -5068 5030 0
49 -5048 -5069 5031 0
49 -5048 -5070 5032 0
49 -5048 -5071 5033 0
49 -5048 -5072 5034 0
49 -5049 -5059 5022 0
49 -5049 -5060 5023 0
49 -5049 -5061 5024 0
49 -5049 -5062 5025 0
49 -5049 -5063 5026 0
49 -5049 -5064 5027 0
49 -5049 -5065 5028 0
49 -5049 -5066 5029 0
49 -5049 -5067 5030 0
49 -5049 -5068 5031 0
49 -5049 -5069 5032 0
49 -5049 -5070 5033 0
49 -5049 -5071 5034 0
49 -5049 -5072 5035 0
49 -5050 -5059 5023 0
49 -5050 -5060 5024 0
49 -5050 -5061 5025 0
49 -5050 -5062 5026 0
49 -5050 -5063 5027 0
49 -5050 -5064 5028 0
49 -5050 -5065 5029 0
49 -5050 -5066 5030 0
49 -5050 -5067 5031 0
49 -5050 -5068 5032 0
49 -5050 -5069 5033 0
49 -5050 -5070 5034 0
49 -5050 -5071 5035 0
49 -5050 -5072 5036 0
49 -5051 -5059 5024 0
49 -5051 -5060 5025 0
49 -5051 -5061 5026 0
49 -5051 -5062 5027 0
49 -5051 -5063 5028 0
49 -5051 -5064 5029 0
49 -5051 -5065 5030 0
49 -5051 -5066 5031 0
49 -5051 -5067 5032 0
49 -5051 -5068 5033 0
49 -5051 -5069 5034 0
49 -5051 -5070 5035 0
49 -5051 -5071 5036 0
49 -5051 -5072 5037 0
49 -5052 -5059 5025 0
49 -5052 -5060 5026 0
49 -5052 -5061 5027 0
49 -5052 -5062 5028 0
49 -5052 -5063 5029 0
49 -5052 -5064 5030 0
49 -5052 -5065 5031 0
49 -5052 -5066 5032 0
49 -5052 -5067 5033 0
49 -5052 -5068 5034 0
49 -5052 -5069 5035 0
49 -5052 -5070 5036 0
49 -5052 -5071 5037 0
49 -5052 -5072 5038 0
49 -5053 -5059 5026 0
49 -5053 -5060 5027 0
49 -5053 -5061 5028 0
49 -5053 -5062 5029 0
49 -5053 -5063 5030 0
49 -5053 -5064 5031 0
49 -5053 -5065 5032 0
49 -5053 -5066 5033 0
49 -5053 -5067 5034 0
49 -5053 -5068 5035 0
49 -5053 -5069 5036 0
49 -5053 -5070 5037 0
49 -5053 -5071 5038 0
49 -5053 -5072 5039 0
49 -5054 -5059 5027 0
49 -5054 -5060 5028 0
49 -5054 -5061 5029 0
49 -5054 -5062 5030 0
49 -5054 -5063 5031 0
49 -5054 -5064 5032 0
49 -5054 -5065 5033 0
49 -5054 -5066 5034 0
49 -5054 -5067 5035 0
49 -5054 -5068 5036 0
49 -5054 -5069 5037 0
49 -5054 -5070 5038 0
49 -5054 -5071 5039 0
49 -5054 -5072 5040 0
49 -5055 -5059 5028 0
49 -5055 -5060 5029 0
49 -5055 -5061 5030 0
49 -5055 -5062 5031 0
49 -5055 -5063 5032 0
49 -5055 -5064 5033 0
49 -5055 -5065 5034 0
49 -5055 -5066 5035 0
49 -5055 -5067 5036 0
49 -5055 -5068 5037 0
49 -5055 -5069 5038 0
49 -5055 -5070 5039 0
49 -5055 -5071 5040 0
49 -5055 -5072 5041 0
49 -5056 -5059 5029 0
49 -5056 -5060 5030 0
49 -5056 -5061 5031 0
49 -5056 -5062 5032 0
49 -5056 -5063 5033 0
49 -5056 -5064 5034 0
49 -5056 -5065 5035 0
49 -5056 -5066 5036 0
49 -5056 -5067 5037 0
49 -5056 -5068 5038 0
49 -5056 -5069 5039 0
49 -5056 -5070 5040 0
49 -5056 -5071 5041 0
49 -5056 -5072 5042 0
49 -5057 -5059 5030 0
49 -5057 -5060 5031 0
49 -5057 -5061 5032 0
49 -5057 -5062 5033 0
49 -5057 -5063 5034 0
49 -5057 -5064 5035 0
49 -5057 -5065 5036 0
49 -5057 -5066 5037 0
49 -5057 -5067 5038 0
49 -5057 -5068 5039 0
49 -5057 -5069 5040 0
49 -5057 -5070 5041 0
49 -5057 -5071 5042 0
49 -5057 -5072 5043 0
49 -5058 -5059 5031 0
49 -5058 -5060 5032 0
49 -5058 -5061 5033 0
49 -5058 -5062 5034 0
49 -5058 -5063 5035 0
49 -5058 -5064 5036 0
49 -5058 -5065 5037 0
49 -5058 -5066 5038 0
49 -5058 -5067 5039 0
49 -5058 -5068 5040 0
49 -5058 -5069 5041 0
49 -5058 -5070 5042 0
49 -5058 -5071 5043 0
49 -5058 -5072 5044 0
49 -5080 5059 0
49 -5081 5060 0
49 -5082 5061 0
49 -5083 5062 0
49 -5084 5063 0
49 -5085 5064 0
49 -5086 5065 0
49 -5073 5059 0
49 -5074 5060 0
49 -5075 5061 0
49 -5076 5062 0
49 -5077 5063 0
49 -5078 5064 0
49 -5079 5065 0
49 -5073 -5080 5060 0
49 -5073 -5081 5061 0
49 -5073 -5082 5062 0
49 -5073 -5083 5063 0
49 -5073 -5084 5064 0
49 -5073 -5085 5065 0
49 -5073 -5086 5066 0
49 -5074 -5080 5061 0
49 -5074 -5081 5062 0
49 -5074 -5082 5063 0
49 -5074 -5083 5064 0
49 -5074 -5084 5065 0
49 -5074 -5085 5066 0
49 -5074 -5086 5067 0
49 -5075 -5080 5062 0
49 -5075 -5081 5063 0
49 -5075 -5082 5064 0
49 -5075 -5083 5065 0
49 -5075 -5084 5066 0
49 -5075 -5085 5067 0
49 -5075 -5086 5068 0
49 -5076 -5080 5063 0
49 -5076 -5081 5064 0
49 -5076 -5082 5065 0
49 -5076 -5083 5066 0
49 -5076 -5084 5067 0
49 -5076 -5085 5068 0
49 -5076 -5086 5069 0
49 -5077 -5080 5064 0
49 -5077 -5081 5065 0
49 -5077 -5082 5066 0
49 -5077 -5083 5067 0
49 -5077 -5084 5068 0
49 -5077 -5085 5069 0
49 -5077 -5086 5070 0
49 -5078 -5080 5065 0
49 -5078 -5081 5066 0
49 -5078 -5082 5067 0
49 -5078 -5083 5068 0
49 -5078 -5084 5069 0
49 -5078 -5085 5070 0
49 -5078 -5086 5071 0
49 -5079 -5080 5066 0
49 -5079 -5081 5067 0
49 -5079 -5082 5068 0
49 -5079 -5083 5069 0
49 -5079 -5084 5070 0
49 -5079 -5085 5071 0
49 -5079 -5086 5072 0
49 -5091 5080 0
49 -5092 5081 0
49 -5093 5082 0
49 -5087 5080 0
49 -5088 5081 0
49 -5089 5082 0
49 -5090 5083 0
49 -5087 -5091 5081 0
49 -5087 -5092 5082 0
49 -5087 -5093 5083 0
49 -5088 -5091 5082 0
49 -5088 -5092 5083 0
49 -5088 -5093 5084 0
49 -5089 -5091 5083 0
49 -5089 -5092 5084 0
49 -5089 -5093 5085 0
49 -5090 -5091 5084 0
49 -5090 -5092 5085 0
49 -5090 -5093 5086 0
49 -930 5091 0
49 -5094 5091 0
49 -5095 5092 0
49 -5094 -930 5092 0
49 -5095 -930 5093 0
49 -929 5094 0
49 -928 5094 0
49 -928 -929 5095 0
49 -5098 5087 0
49 -5099 5088 0
49 -5096 5087 0
49 -5097 5088 0
49 -5096 -5098 5088 0
49 -5096 -5099 5089 0
49 -5097 -5098 5089 0
49 -5097 -5099 5090 0
49 -927 5098 0
49 -926 5098 0
49 -926 -927 5099 0
49 -925 5096 0
49 -924 5096 0
49 -924 -925 5097 0
49 -5104 5073 0
49 -5105 5074 0
49 -5106 5075 0
49 -5100 5073 0
49 -5101 5074 0
49 -5102 5075 0
49 -5103 5076 0
49 -5100 -5104 5074 0
49 -5100 -5105 5075 0
49 -5100 -5106 5076 0
49 -5101 -5104 5075 0
49 -5101 -5105 5076 0
49 -5101 -5106 5077 0
49 -5102 -5104 5076 0
49 -5102 -5105 5077 0
49 -5102 -5106 5078 0
49 -5103 -5104 5077 0
49 -5103 -5105 5078 0
49 -5103 -5106 5079 0
49 -923 5104 0
49 -5107 5104 0
49 -5108 5105 0
49 -5107 -923 5105 0
49 -5108 -923 5106 0
49 -922 5107 0
49 -921 5107 0
49 -921 -922 5108 0
49 -5111 5100 0
49 -5112 5101 0
49 -5109 5100 0
49 -5110 5101 0
49 -5109 -5111 5101 0
49 -5109 -5112 5102 0
49 -5110 -5111 5102 0
49 -5110 -5112 5103 0
49 -920 5111 0
49 -919 5111 0
49 -919 -920 5112 0
49 -918 5109 0
49 -917 5109 0
49 -917 -918 5110 0
49 -5120 5045 0
49 -5121 5046 0
49 -5122 5047 0
49 -5123 5048 0
49 -5124 5049 0
49 -5125 5050 0
49 -5126 5051 0
49 -5113 5045 0
49 -5114 5046 0
49 -5115 5047 0
49 -5116 5048 0
49 -5117 5049 0
49 -5118 5050 0
49 -5119 5051 0
49 -5113 -5120 5046 0
49 -5113 -5121 5047 0
49 -5113 -5122 5048 0
49 -5113 -5123 5049 0
49 -5113 -5124 5050 0
49 -5113 -5125 5051 0
49 -5113 -5126 5052 0
49 -5114 -5120 5047 0
49 -5114 -5121 5048 0
49 -5114 -5122 5049 0
49 -5114 -5123 5050 0
49 -5114 -5124 5051 0
49 -5114 -5125 5052 0
49 -5114 -5126 5053 0
49 -5115 -5120 5048 0
49 -5115 -5121 5049 0
49 -5115 -5122 5050 0
49 -5115 -5123 5051 0
49 -5115 -5124 5052 0
49 -5115 -5125 5053 0
49 -5115 -5126 5054 0
49 -5116 -5120 5049 0
49 -5116 -5121 5050 0
49 -5116 -5122 5051 0
49 -5116 -5123 5052 0
49 -5116 -5124 5053 0
49 -5116 -5125 5054 0
49 -5116 -5126 5055 0
49 -5117 -5120 5050 0
49 -5117 -5121 5051 0
49 -5117 -5122 5052 0
49 -5117 -5123 5053 0
49 -5117 -5124 5054 0
49 -5117 -5125 5055 0
49 -5117 -5126 5056 0
49 -5118 -5120 5051 0
49 -5118 -5121 5052 0
49 -5118 -5122 5053 0
49 -5118 -5123 5054 0
49 -5118 -5124 5055 0
49 -5118 -5125 5056 0
49 -5118 -5126 5057 0
49 -5119 -5120 5052 0
49 -5119 -5121 5053 0
49 -5119 -5122 5054 0
49 -5119 -5123 5055 0
49 -5119 -5124 5056 0
49 -5119 -5125 5057 0
49 -5119 -5126 5058 0
49 -5131 5120 0
49 -5132 5121 0
49 -5133 5122 0
49 -5127 5120 0
49 -5128 5121 0
49 -5129 5122 0
49 -5130 5123 0
49 -5127 -5131 5121 0
49 -5127 -5132 5122 0
49 -5127 -5133 5123 0
49 -5128 -5131 5122 0
49 -5128 -5132 5123 0
49 -5128 -5133 5124 0
49 -5129 -5131 5123 0
49 -5129 -5132 5124 0
49 -5129 -5133 5125 0
49 -5130 -5131 5124 0
49 -5130 -5132 5125 0
49 -5130 -5133 5126 0
49 -916 5131 0
49 -5134 5131 0
49 -5135 5132 0
49 -5134 -916 5132 0
49 -5135 -916 5133 0
49 -915 5134 0
49 -914 5134 0
49 -914 -915 5135 0
49 -5138 5127 0
49 -5139 5128 0
49 -5136 5127 0
49 -5137 5128 0
49 -5136 -5138 5128 0
49 -5136 -5139 5129 0
49 -5137 -5138 5129 0
49 -5137 -5139 5130 0
49 -913 5138 0
49 -912 5138 0
49 -912 -913 5139 0
49 -911 5136 0
49 -910 5136 0
49 -910 -911 5137 0
49 -5144 5113 0
49 -5145 5114 0
49 -5146 5115 0
49 -5140 5113 0
49 -5141 5114 0
49 -5142 5115 0
49 -5143 5116 0
49 -5140 -5144 5114 0
49 -5140 -5145 5115 0
49 -5140 -5146 5116 0
49 -5141 -5144 5115 0
49 -5141 -5145 5116 0
49 -5141 -5146 5117 0
49 -5142 -5144 5116 0
49 -5142 -5145 5117 0
49 -5142 -5146 5118 0
49 -5143 -5144 5117 0
49 -5143 -5145 5118 0
49 -5143 -5146 5119 0
49 -909 5144 0
49 -5147 5144 0
49 -5148 5145 0
49 -5147 -909 5145 0
49 -5148 -909 5146 0
49 -908 5147 0
49 -907 5147 0
49 -907 -908 5148 0
49 -5151 5140 0
49 -5152 5141 0
49 -5149 5140 0
49 -5150 5141 0
49 -5149 -5151 5141 0
49 -5149 -5152 5142 0
49 -5150 -5151 5142 0
49 -5150 -5152 5143 0
49 -906 5151 0
49 -905 5151 0
49 -905 -906 5152 0
49 -904 5149 0
49 -903 5149 0
49 -903 -904 5150 0
49 -5018 0
49 931 932 933 934 935 936 0
49 -5162 5153 0
49 -5163 5154 0
49 -5164 5155 0
49 -5159 5153 0
49 -5160 5154 0
49 -5161 5155 0
49 -5159 -5162 5154 0
49 -5159 -5163 5155 0
49 -5159 -5164 5156 0
49 -5160 -5162 5155 0
49 -5160 -5163 5156 0
49 -5160 -5164 5157 0
49 -5161 -5162 5156 0
49 -5161 -5163 5157 0
49 -5161 -5164 5158 0
49 -936 5162 0
49 -5165 5162 0
49 -5166 5163 0
49 -5165 -936 5163 0
49 -5166 -936 5164 0
49 -935 5165 0
49 -934 5165 0
49 -934 -935 5166 0
49 -933 5159 0
49 -5167 5159 0
49 -5168 5160 0
49 -5167 -933 5160 0
49 -5168 -933 5161 0
49 -932 5167 0
49 -931 5167 0
49 -931 -932 5168 0
49 -5154 0
49 937 938 939 940 941 942 0
49 -5178 5169 0
49 -5179 5170 0
49 -5180 5171 0
49 -5175 5169 0
49 -5176 5170 0
49 -5177 5171 0
49 -5175 -5178 5170 0
49 -5175 -5179 5171 0
49 -5175 -5180 5172 0
49 -5176 -5178 5171 0
49 -5176 -5179 5172 0
49 -5176 -5180 5173 0
49 -5177 -5178 5172 0
49 -5177 -5179 5173 0
49 -5177 -5180 5174 0
49 -942 5178 0
49 -5181 5178 0
49 -5182 5179 0
49 -5181 -942 5179 0
49 -5182 -942 5180 0
49 -941 5181 0
49 -940 5181 0
49 -940 -941 5182 0
49 -939 5175 0
49 -5183 5175 0
49 -5184 5176 0
49 -5183 -939 5176 0
49 -5184 -939 5177 0
49 -938 5183 0
49 -937 5183 0
49 -937 -938 5184 0
49 -5170 0
49 943 0
49 944 0
49 945 0
49 946 0
49 947 948 949 950 951 952 953 954 0
49 -5197 5185 0
49 -5198 5186 0
49 -5199 5187 0
49 -5200 5188 0
49 -5193 5185 0
49 -5194 5186 0
49 -5195 5187 0
49 -5196 5188 0
49 -5193 -5197 5186 0
49 -5193 -5198 5187 0
49 -5193 -5199 5188 0
49 -5193 -5200 5189 0
49 -5194 -5197 5187 0
49 -5194 -5198 5188 0
49 -5194 -5199 5189 0
49 -5194 -5200 5190 0
49 -5195 -5197 5188 0
49 -5195 -5198 5189 0
49 -5195 -5199 5190 0
49 -5195 -5200 5191 0
49 -5196 -5197 5189 0
49 -5196 -5198 5190 0
49 -5196 -5199 5191 0
49 -5196 -5200 5192 0
49 -5203 5197 0
49 -5204 5198 0
49 -5201 5197 0
49 -5202 5198 0
49 -5201 -5203 5198 0
49 -5201 -5204 5199 0
49 -5202 -5203 5199 0
49 -5202 -5204 5200 0
49 -954 5203 0
49 -953 5203 0
49 -953 -954 5204 0
49 -952 5201 0
49 -951 5201 0
49 -951 -952 5202 0
49 -5207 5193 0
49 -5208 5194 0
49 -5205 5193 0
49 -5206 5194 0
49 -5205 -5207 5194 0
49 -5205 -5208 5195 0
49 -5206 -5207 5195 0
49 -5206 -5208 5196 0
49 -950 5207 0
49 -949 5207 0
49 -949 -950 5208 0
49 -948 5205 0
49 -947 5205 0
49 -947 -948 5206 0
49 -5186 0
49 955 956 957 958 959 960 961 962 0
49 -5221 5209 0
49 -5222 5210 0
49 -5223 5211 0
49 -5224 5212 0
49 -5217 5209 0
49 -5218 5210 0
49 -5219 5211 0
49 -5220 5212 0
49 -5217 -5221 5210 0
49 -5217 -5222 5211 0
49 -5217 -5223 5212 0
49 -5217 -5224 5213 0
49 -5218 -5221 5211 0
49 -5218 -5222 5212 0
49 -5218 -5223 5213 0
49 -5218 -5224 5214 0
49 -5219 -5221 5212 0
49 -5219 -5222 5213 0
49 -5219 -5223 5214 0
49 -5219 -5224 5215 0
49 -5220 -5221 5213 0
49 -5220 -5222 5214 0
49 -5220 -5223 5215 0
49 -5220 -5224 5216 0
49 -5227 5221 0
49 -5228 5222 0
49 -5225 5221 0
49 -5226 5222 0
49 -5225 -5227 5222 0
49 -5225 -5228 5223 0
49 -5226 -5227 5223 0
49 -5226 -5228 5224 0
49 -962 5227 0
49 -961 5227 0
49 -961 -962 5228 0
49 -960 5225 0
49 -959 5225 0
49 -959 -960 5226 0
49 -5231 5217 0
49 -5232 5218 0
49 -5229 5217 0
49 -5230 5218 0
49 -5229 -5231 5218 0
49 -5229 -5232 5219 0
49 -5230 -5231 5219 0
49 -5230 -5232 5220 0
49 -958 5231 0
49 -957 5231 0
49 -957 -958 5232 0
49 -956 5229 0
49 -955 5229 0
49 -955 -956 5230 0
49 -5210 0
49 963 964 965 966 967 968 969 970 0
49 -5245 5233 0
49 -5246 5234 0
49 -5247 5235 0
49 -5248 5236 0
49 -5241 5233 0
49 -5242 5234 0
49 -5243 5235 0
49 -5244 5236 0
49 -5241 -5245 5234 0
49 -5241 -5246 5235 0
49 -5241 -5247 5236 0
49 -5241 -5248 5237 0
49 -5242 -5245 5235 0
49 -5242 -5246 5236 0
49 -5242 -5247 5237 0
49 -5242 -5248 5238 0
49 -5243 -5245 5236 0
49 -5243 -5246 5237 0
49 -5243 -5247 5238 0
49 -5243 -5248 5239 0
49 -5244 -5245 5237 0
49 -5244 -5246 5238 0
49 -5244 -5247 5239 0
49 -5244 -5248 5240 0
49 -5251 5245 0
49 -5252 5246 0
49 -5249 5245 0
49 -5250 5246 0
49 -5249 -5251 5246 0
49 -5249 -5252 5247 0
49 -5250 -5251 5247 0
49 -5250 -5252 5248 0
49 -970 5251 0
49 -969 5251 0
49 -969 -970 5252 0
49 -968 5249 0
49 -967 5249 0
49 -967 -968 5250 0
49 -5255 5241 0
49 -5256 5242 0
49 -5253 5241 0
49 -5254 5242 0
49 -5253 -5255 5242 0
49 -5253 -5256 5243 0
49 -5254 -5255 5243 0
49 -5254 -5256 5244 0
49 -966 5255 0
49 -965 5255 0
49 -965 -966 5256 0
49 -964 5253 0
49 -963 5253 0
49 -963 -964 5254 0
49 -5234 0
49 971 972 973 974 975 976 977 978 0
49 -5269 5257 0
49 -5270 5258 0
49 -5271 5259 0
49 -5272 5260 0
49 -5265 5257 0
49 -5266 5258 0
49 -5267 5259 0
49 -5268 5260 0
49 -5265 -5269 5258 0
49 -5265 -5270 5259 0
49 -5265 -5271 5260 0
49 -5265 -5272 5261 0
49 -5266 -5269 5259 0
49 -5266 -5270 5260 0
49 -5266 -5271 5261 0
49 -5266 -5272 5262 0
49 -5267 -5269 5260 0
49 -5267 -5270 5261 0
49 -5267 -5271 5262 0
49 -5267 -5272 5263 0
49 -5268 -5269 5261 0
49 -5268 -5270 5262 0
49 -5268 -5271 5263 0
49 -5268 -5272 5264 0
49 -5275 5269 0
49 -5276 5270 0
49 -5273 5269 0
49 -5274 5270 0
49 -5273 -5275 5270 0
49 -5273 -5276 5271 0
49 -5274 -5275 5271 0
49 -5274 -5276 5272 0
49 -978 5275 0
49 -977 5275 0
49 -977 -978 5276 0
49 -976 5273 0
49 -975 5273 0
49 -975 -976 5274 0
49 -5279 5265 0
49 -5280 5266 0
49 -5277 5265 0
49 -5278 5266 0
49 -5277 -5279 5266 0
49 -5277 -5280 5267 0
49 -5278 -5279 5267 0
49 -5278 -5280 5268 0
49 -974 5279 0
49 -973 5279 0
49 -973 -974 5280 0
49 -972 5277 0
49 -971 5277 0
49 -971 -972 5278 0
49 -5258 0
49 979 980 981 982 983 984 985 986 0
49 -5293 5281 0
49 -5294 5282 0
49 -5295 5283 0
49 -5296 5284 0
49 -5289 5281 0
49 -5290 5282 0
49 -5291 5283 0
49 -5292 5284 0
49 -5289 -5293 5282 0
49 -5289 -5294 5283 0
49 -5289 -5295 5284 0
49 -5289 -5296 5285 0
49 -5290 -5293 5283 0
49 -5290 -5294 5284 0
49 -5290 -5295 5285 0
49 -5290 -5296 5286 0
49 -5291 -5293 5284 0
49 -5291 -5294 5285 0
49 -5291 -5295 5286 0
49 -5291 -5296 5287 0
49 -5292 -5293 5285 0
49 -5292 -5294 5286 0
49 -5292 -5295 5287 0
49 -5292 -5296 5288 0
49 -5299 5293 0
49 -5300 5294 0
49 -5297 5293 0
49 -5298 5294 0
49 -5297 -5299 5294 0
49 -5297 -5300 5295 0
49 -5298 -5299 5295 0
49 -5298 -5300 5296 0
49 -986 5299 0
49 -985 5299 0
49 -985 -986 5300 0
49 -984 5297 0
49 -983 5297 0
49 -983 -984 5298 0
49 -5303 5289 0
49 -5304 5290 0
49 -5301 5289 0
49 -5302 5290 0
49 -5301 -5303 5290 0
49 -5301 -5304 5291 0
49 -5302 -5303 5291 0
49 -5302 -5304 5292 0
49 -982 5303 0
49 -981 5303 0
49 -981 -982 5304 0
49 -980 5301 0
49 -979 5301 0
49 -979 -980 5302 0
49 -5282 0
49 987 988 989 990 991 992 993 994 0
49 -5317 5305 0
49 -5318 5306 0
49 -5319 5307 0
49 -5320 5308 0
49 -5313 5305 0
49 -5314 5306 0
49 -5315 5307 0
49 -5316 5308 0
49 -5313 -5317 5306 0
49 -5313 -5318 5307 0
49 -5313 -5319 5308 0
49 -5313 -5320 5309 0
49 -5314 -5317 5307 0
49 -5314 -5318 5308 0
49 -5314 -5319 5309 0
49 -5314 -5320 5310 0
49 -5315 -5317 5308 0
49 -5315 -5318 5309 0
49 -5315 -5319 5310 0
49 -5315 -5320 5311 0
49 -5316 -5317 5309 0
49 -5316 -5318 5310 0
49 -5316 -5319 5311 0
49 -5316 -5320 5312 0
49 -5323 5317 0
49 -5324 5318 0
49 -5321 5317 0
49 -5322 5318 0
49 -5321 -5323 5318 0
49 -5321 -5324 5319 0
49 -5322 -5323 5319 0
49 -5322 -5324 5320 0
49 -994 5323 0
49 -993 5323 0
49 -993 -994 5324 0
49 -992 5321 0
49 -991 5321 0
49 -991 -992 5322 0
49 -5327 5313 0
49 -5328 5314 0
49 -5325 5313 0
49 -5326 5314 0
49 -5325 -5327 5314 0
49 -5325 -5328 5315 0
49 -5326 -5327 5315 0
49 -5326 -5328 5316 0
49 -990 5327 0
49 -989 5327 0
49 -989 -990 5328 0
49 -988 5325 0
49 -987 5325 0
49 -987 -988 5326 0
49 -5306 0
49 995 996 997 998 999 1000 1001 1002 0
49 -5341 5329 0
49 -5342 5330 0
49 -5343 5331 0
49 -5344 5332 0
49 -5337 5329 0
49 -5338 5330 0
49 -5339 5331 0
49 -5340 5332 0
49 -5337 -5341 5330 0
49 -5337 -5342 5331 0
49 -5337 -5343 5332 0
49 -5337 -5344 5333 0
49 -5338 -5341 5331 0
49 -5338 -5342 5332 0
49 -5338 -5343 5333 0
49 -5338 -5344 5334 0
49 -5339 -5341 5332 0
49 -5339 -5342 5333 0
49 -5339 -5343 5334 0
49 -5339 -5344 5335 0
49 -5340 -5341 5333 0
49 -5340 -5342 5334 0
49 -5340 -5343 5335 0
49 -5340 -5344 5336 0
49 -5347 5341 0
49 -5348 5342 0
49 -5345 5341 0
49 -5346 5342 0
49 -5345 -5347 5342 0
49 -5345 -5348 5343 0
49 -5346 -5347 5343 0
49 -5346 -5348 5344 0
49 -1002 5347 0
49 -1001 5347 0
49 -1001 -1002 5348 0
49 -1000 5345 0
49 -999 5345 0
49 -999 -1000 5346 0
49 -5351 5337 0
49 -5352 5338 0
49 -5349 5337 0
49 -5350 5338 0
49 -5349 -5351 5338 0
49 -5349 -5352 5339 0
49 -5350 -5351 5339 0
49 -5350 -5352 5340 0
49 -998 5351 0
49 -997 5351 0
49 -997 -998 5352 0
49 -996 5349 0
49 -995 5349 0
49 -995 -996 5350 0
49 -5330 0
49 1003 1004 1005 1006 1007 1008 1009 1010 0
49 -5365 5353 0
49 -5366 5354 0
49 -5367 5355 0
49 -5368 5356 0
49 -5361 5353 0
49 -5362 5354 0
49 -5363 5355 0
49 -5364 5356 0
49 -5361 -5365 5354 0
49 -5361 -5366 5355 0
49 -5361 -5367 5356 0
49 -5361 -5368 5357 0
49 -5362 -5365 5355 0
49 -5362 -5366 5356 0
49 -5362 -5367 5357 0
49 -5362 -5368 5358 0
49 -5363 -5365 5356 0
49 -5363 -5366 5357 0
49 -5363 -5367 5358 0
49 -5363 -5368 5359 0
49 -5364 -5365 5357 0
49 -5364 -5366 5358 0
49 -5364 -5367 5359 0
49 -5364 -5368 5360 0
49 -5371 5365 0
49 -5372 5366 0
49 -5369 5365 0
49 -5370 5366 0
49 -5369 -5371 5366 0
49 -5369 -5372 5367 0
49 -5370 -5371 5367 0
49 -5370 -5372 5368 0
49 -1010 5371 0
49 -1009 5371 0
49 -1009 -1010 5372 0
49 -1008 5369 0
49 -1007 5369 0
49 -1007 -1008 5370 0
49 -5375 5361 0
49 -5376 5362 0
49 -5373 5361 0
49 -5374 5362 0
49 -5373 -5375 5362 0
49 -5373 -5376 5363 0
49 -5374 -5375 5363 0
49 -5374 -5376 5364 0
49 -1006 5375 0
49 -1005 5375 0
49 -1005 -1006 5376 0
49 -1004 5373 0
49 -1003 5373 0
49 -1003 -1004 5374 0
49 -5354 0
49 1011 0
49 1012 0
49 1013 0
49 1014 0
49 1015 0
49 1016 0
49 1017 0
49 1018 0
49 1019 0
49 1020 0
49 1021 1022 1023 1024 1025 1026 1027 1028 0
49 -5389 5377 0
49 -5390 5378 0
49 -5391 5379 0
49 -5392 5380 0
49 -5385 5377 0
49 -5386 5378 0
49 -5387 5379 0
49 -5388 5380 0
49 -5385 -5389 5378 0
49 -5385 -5390 5379 0
49 -5385 -5391 5380 0
49 -5385 -5392 5381 0
49 -5386 -5389 5379 0
49 -5386 -5390 5380 0
49 -5386 -5391 5381 0
49 -5386 -5392 5382 0
49 -5387 -5389 5380 0
49 -5387 -5390 5381 0
49 -5387 -5391 5382 0
49 -5387 -5392 5383 0
49 -5388 -5389 5381 0
49 -5388 -5390 5382 0
49 -5388 -5391 5383 0
49 -5388 -5392 5384 0
49 -5395 5389 0
49 -5396 5390 0
49 -5393 5389 0
49 -5394 5390 0
49 -5393 -5395 5390 0
49 -5393 -5396 5391 0
49 -5394 -5395 5391 0
49 -5394 -5396 5392 0
49 -1028 5395 0
49 -1027 5395 0
49 -1027 -1028 5396 0
49 -1026 5393 0
49 -1025 5393 0
49 -1025 -1026 5394 0
49 -5399 5385 0
49 -5400 5386 0
49 -5397 5385 0
49 -5398 5386 0
49 -5397 -5399 5386 0
49 -5397 -5400 5387 0
49 -5398 -5399 5387 0
49 -5398 -5400 5388 0
49 -1024 5399 0
49 -1023 5399 0
49 -1023 -1024 5400 0
49 -1022 5397 0
49 -1021 5397 0
49 -1021 -1022 5398 0
49 -5378 0
49 1029 1030 1031 1032 1033 1034 1035 1036 0
49 -5413 5401 0
49 -5414 5402 0
49 -5415 5403 0
49 -5416 5404 0
49 -5409 5401 0
49 -5410 5402 0
49 -5411 5403 0
49 -5412 5404 0
49 -5409 -5413 5402 0
49 -5409 -5414 5403 0
49 -5409 -5415 5404 0
49 -5409 -5416 5405 0
49 -5410 -5413 5403 0
49 -5410 -5414 5404 0
49 -5410 -5415 5405 0
49 -5410 -5416 5406 0
49 -5411 -5413 5404 0
49 -5411 -5414 5405 0
49 -5411 -5415 5406 0
49 -5411 -5416 5407 0
49 -5412 -5413 5405 0
49 -5412 -5414 5406 0
49 -5412 -5415 5407 0
49 -5412 -5416 5408 0
49 -5419 5413 0
49 -5420 5414 0
49 -5417 5413 0
49 -5418 5414 0
49 -5417 -5419 5414 0
49 -5417 -5420 5415 0
49 -5418 -5419 5415 0
49 -5418 -5420 5416 0
49 -1036 5419 0
49 -1035 5419 0
49 -1035 -1036 5420 0
49 -1034 5417 0
49 -1033 5417 0
49 -1033 -1034 5418 0
49 -5423 5409 0
49 -5424 5410 0
49 -5421 5409 0
49 -5422 5410 0
49 -5421 -5423 5410 0
49 -5421 -5424 5411 0
49 -5422 -5423 5411 0
49 -5422 -5424 5412 0
49 -1032 5423 0
49 -1031 5423 0
49 -1031 -1032 5424 0
49 -1030 5421 0
49 -1029 5421 0
49 -1029 -1030 5422 0
49 -5402 0
49 1037 0
49 1038 0
49 1039 1040 1041 1042 1043 1044 1045 1046 0
49 -5437 5425 0
49 -5438 5426 0
49 -5439 5427 0
49 -5440 5428 0
49 -5433 5425 0
49 -5434 5426 0
49 -5435 5427 0
49 -5436 5428 0
49 -5433 -5437 5426 0
49 -5433 -5438 5427 0
49 -5433 -5439 5428 0
49 -5433 -5440 5429 0
49 -5434 -5437 5427 0
49 -5434 -5438 5428 0
49 -5434 -5439 5429 0
49 -5434 -5440 5430 0
49 -5435 -5437 5428 0
49 -5435 -5438 5429 0
49 -5435 -5439 5430 0
49 -5435 -5440 5431 0
49 -5436 -5437 5429 0
49 -5436 -5438 5430 0
49 -5436 -5439 5431 0
49 -5436 -5440 5432 0
49 -5443 5437 0
49 -5444 5438 0
49 -5441 5437 0
49 -5442 5438 0
49 -5441 -5443 5438 0
49 -5441 -5444 5439 0
49 -5442 -5443 5439 0
49 -5442 -5444 5440 0
49 -1046 5443 0
49 -1045 5443 0
49 -1045 -1046 5444 0
49 -1044 5441 0
49 -1043 5441 0
49 -1043 -1044 5442 0
49 -5447 5433 0
49 -5448 5434 0
49 -5445 5433 0
49 -5446 5434 0
49 -5445 -5447 5434 0
49 -5445 -5448 5435 0
49 -5446 -5447 5435 0
49 -5446 -5448 5436 0
49 -1042 5447 0
49 -1041 5447 0
49 -1041 -1042 5448 0
49 -1040 5445 0
49 -1039 5445 0
49 -1039 -1040 5446 0
49 -5426 0
49 1047 1048 1049 1050 1051 1052 1053 1054 0
49 -5461 5449 0
49 -5462 5450 0
49 -5463 5451 0
49 -5464 5452 0
49 -5457 5449 0
49 -5458 5450 0
49 -5459 5451 0
49 -5460 5452 0
49 -5457 -5461 5450 0
49 -5457 -5462 5451 0
49 -5457 -5463 5452 0
49 -5457 -5464 5453 0
49 -5458 -5461 5451 0
49 -5458 -5462 5452 0
49 -5458 -5463 5453 0
49 -5458 -5464 5454 0
49 -5459 -5461 5452 0
49 -5459 -5462 5453 0
49 -5459 -5463 5454 0
49 -5459 -5464 5455 0
49 -5460 -5461 5453 0
49 -5460 -5462 5454 0
49 -5460 -5463 5455 0
49 -5460 -5464 5456 0
49 -5467 5461 0
49 -5468 5462 0
49 -5465 5461 0
49 -5466 5462 0
49 -5465 -5467 5462 0
49 -5465 -5468 5463 0
49 -5466 -5467 5463 0
49 -5466 -5468 5464 0
49 -1054 5467 0
49 -1053 5467 0
49 -1053 -1054 5468 0
49 -1052 5465 0
49 -1051 5465 0
49 -1051 -1052 5466 0
49 -5471 5457 0
49 -5472 5458 0
49 -5469 5457 0
49 -5470 5458 0
49 -5469 -5471 5458 0
49 -5469 -5472 5459 0
49 -5470 -5471 5459 0
49 -5470 -5472 5460 0
49 -1050 5471 0
49 -1049 5471 0
49 -1049 -1050 5472 0
49 -1048 5469 0
49 -1047 5469 0
49 -1047 -1048 5470 0
49 -5450 0
49 1055 0
49 1056 0
49 1057 0
49 1058 0
49 1059 0
49 1060 0
49 1061 0
49 1062 0
49 1063 1064 1065 1066 1067 1068 1069 1070 0
49 -5485 5473 0
49 -5486 5474 0
49 -5487 5475 0
49 -5488 5476 0
49 -5481 5473 0
49 -5482 5474 0
49 -5483 5475 0
49 -5484 5476 0
49 -5481 -5485 5474 0
49 -5481 -5486 5475 0
49 -5481 -5487 5476 0
49 -5481 -5488 5477 0
49 -5482 -5485 5475 0
49 -5482 -5486 5476 0
49 -5482 -5487 5477 0
49 -5482 -5488 5478 0
49 -5483 -5485 5476 0
49 -5483 -5486 5477 0
49 -5483 -5487 5478 0
49 -5483 -5488 5479 0
49 -5484 -5485 5477 0
49 -5484 -5486 5478 0
49 -5484 -5487 5479 0
49 -5484 -5488 5480 0
49 -5491 5485 0
49 -5492 5486 0
49 -5489 5485 0
49 -5490 5486 0
49 -5489 -5491 5486 0
49 -5489 -5492 5487 0
49 -5490 -5491 5487 0
49 -5490 -5492 5488 0
49 -1070 5491 0
49 -1069 5491 0
49 -1069 -1070 5492 0
49 -1068 5489 0
49 -1067 5489 0
49 -1067 -1068 5490 0
49 -5495 5481 0
49 -5496 5482 0
49 -5493 5481 0
49 -5494 5482 0
49 -5493 -5495 5482 0
49 -5493 -5496 5483 0
49 -5494 -5495 5483 0
49 -5494 -5496 5484 0
49 -1066 5495 0
49 -1065 5495 0
49 -1065 -1066 5496 0
49 -1064 5493 0
49 -1063 5493 0
49 -1063 -1064 5494 0
49 -5474 0
49 1071 1072 1073 1074 1075 1076 1077 1078 0
49 -5509 5497 0
49 -5510 5498 0
49 -5511 5499 0
49 -5512 5500 0
49 -5505 5497 0
49 -5506 5498 0
49 -5507 5499 0
49 -5508 5500 0
49 -5505 -5509 5498 0
49 -5505 -5510 5499 0
49 -5505 -5511 5500 0
49 -5505 -5512 5501 0
49 -5506 -5509 5499 0
49 -5506 -5510 5500 0
49 -5506 -5511 5501 0
49 -5506 -5512 5502 0
49 -5507 -5509 5500 0
49 -5507 -5510 5501 0
49 -5507 -5511 5502 0
49 -5507 -5512 5503 0
49 -5508 -5509 5501 0
49 -5508 -5510 5502 0
49 -5508 -5511 5503 0
49 -5508 -5512 5504 0
49 -5515 5509 0
49 -5516 5510 0
49 -5513 5509 0
49 -5514 5510 0
49 -5513 -5515 5510 0
49 -5513 -5516 5511 0
49 -5514 -5515 5511 0
49 -5514 -5516 5512 0
49 -1078 5515 0
49 -1077 5515 0
49 -1077 -1078 5516 0
49 -1076 5513 0
49 -1075 5513 0
49 -1075 -1076 5514 0
49 -5519 5505 0
49 -5520 5506 0
49 -5517 5505 0
49 -5518 5506 0
49 -5517 -5519 5506 0
49 -5517 -5520 5507 0
49 -5518 -5519 5507 0
49 -5518 -5520 5508 0
49 -1074 5519 0
49 -1073 5519 0
49 -1073 -1074 5520 0
49 -1072 5517 0
49 -1071 5517 0
49 -1071 -1072 5518 0
49 -5498 0
49 1079 1080 1081 1082 1083 1084 1085 1086 0
49 -5533 5521 0
49 -5534 5522 0
49 -5535 5523 0
49 -5536 5524 0
49 -5529 5521 0
49 -5530 5522 0
49 -5531 5523 0
49 -5532 5524 0
49 -5529 -5533 5522 0
49 -5529 -5534 5523 0
49 -5529 -5535 5524 0
49 -5529 -5536 5525 0
49 -5530 -5533 5523 0
49 -5530 -5534 5524 0
49 -5530 -5535 5525 0
49 -5530 -5536 5526 0
49 -5531 -5533 5524 0
49 -5531 -5534 5525 0
49 -5531 -5535 5526 0
49 -5531 -5536 5527 0
49 -5532 -5533 5525 0
49 -5532 -5534 5526 0
49 -5532 -5535 5527 0
49 -5532 -5536 5528 0
49 -5539 5533 0
49 -5540 5534 0
49 -5537 5533 0
49 -5538 5534 0
49 -5537 -5539 5534 0
49 -5537 -5540 5535 0
49 -5538 -5539 5535 0
49 -5538 -5540 5536 0
49 -1086 5539 0
49 -1085 5539 0
49 -1085 -1086 5540 0
49 -1084 5537 0
49 -1083 5537 0
49 -1083 -1084 5538 0
49 -5543 5529 0
49 -5544 5530 0
49 -5541 5529 0
49 -5542 5530 0
49 -5541 -5543 5530 0
49 -5541 -5544 5531 0
49 -5542 -5543 5531 0
49 -5542 -5544 5532 0
49 -1082 5543 0
49 -1081 5543 0
49 -1081 -1082 5544 0
49 -1080 5541 0
49 -1079 5541 0
49 -1079 -1080 5542 0
49 -5522 0
49 1087 1088 1089 1090 1091 1092 1093 1094 0
49 -5557 5545 0
49 -5558 5546 0
49 -5559 5547 0
49 -5560 5548 0
49 -5553 5545 0
49 -5554 5546 0
49 -5555 5547 0
49 -5556 5548 0
49 -5553 -5557 5546 0
49 -5553 -5558 5547 0
49 -5553 -5559 5548 0
49 -5553 -5560 5549 0
49 -5554 -5557 5547 0
49 -5554 -5558 5548 0
49 -5554 -5559 5549 0
49 -5554 -5560 5550 0
49 -5555 -5557 5548 0
49 -5555 -5558 5549 0
49 -5555 -5559 5550 0
49 -5555 -5560 5551 0
49 -5556 -5557 5549 0
49 -5556 -5558 5550 0
49 -5556 -5559 5551 0
49 -5556 -5560 5552 0
49 -5563 5557 0
49 -5564 5558 0
49 -5561 5557 0
49 -5562 5558 0
49 -5561 -5563 5558 0
49 -5561 -5564 5559 0
49 -5562 -5563 5559 0
49 -5562 -5564 5560 0
49 -1094 5563 0
49 -1093 5563 0
49 -1093 -1094 5564 0
49 -1092 5561 0
49 -1091 5561 0
49 -1091 -1092 5562 0
49 -5567 5553 0
49 -5568 5554 0
49 -5565 5553 0
49 -5566 5554 0
49 -5565 -5567 5554 0
49 -5565 -5568 5555 0
49 -5566 -5567 5555 0
49 -5566 -5568 5556 0
49 -1090 5567 0
49 -1089 5567 0
49 -1089 -1090 5568 0
49 -1088 5565 0
49 -1087 5565 0
49 -1087 -1088 5566 0
49 -5546 0
49 1095 0
49 1096 0
49 1097 0
49 1098 0
49 1099 0
49 1100 0
49 1101 0
49 1102 0
49 1103 0
49 1104 0
49 1105 0
49 1106 0
49 1107 1108 1109 0
49 -1109 5569 0
49 -5572 5569 0
49 -5573 5570 0
49 -5572 -1109 5570 0
49 -5573 -1109 5571 0
49 -1108 5572 0
49 -1107 5572 0
49 -1107 -1108 5573 0
49 -5570 0
49 1110 1111 1112 0
49 -1112 5574 0
49 -5577 5574 0
49 -5578 5575 0
49 -5577 -1112 5575 0
49 -5578 -1112 5576 0
49 -1111 5577 0
49 -1110 5577 0
49 -1110 -1111 5578 0
49 -5575 0
49 1113 0
49 1114 0
49 1115 1116 1117 1118 1119 1120 1121 1122 0
49 -5591 5579 0
49 -5592 5580 0
49 -5593 5581 0
49 -5594 5582 0
49 -5587 5579 0
49 -5588 5580 0
49 -5589 5581 0
49 -5590 5582 0
49 -5587 -5591 5580 0
49 -5587 -5592 5581 0
49 -5587 -5593 5582 0
49 -5587 -5594 5583 0
49 -5588 -5591 5581 0
49 -5588 -5592 5582 0
49 -5588 -5593 5583 0
49 -5588 -5594 5584 0
49 -5589 -5591 5582 0
49 -5589 -5592 5583 0
49 -5589 -5593 5584 0
49 -5589 -5594 5585 0
49 -5590 -5591 5583 0
49 -5590 -5592 5584 0
49 -5590 -5593 5585 0
49 -5590 -5594 5586 0
49 -5597 5591 0
49 -5598 5592 0
49 -5595 5591 0
49 -5596 5592 0
49 -5595 -5597 5592 0
49 -5595 -5598 5593 0
49 -5596 -5597 5593 0
49 -5596 -5598 5594 0
49 -1122 5597 0
49 -1121 5597 0
49 -1121 -1122 5598 0
49 -1120 5595 0
49 -1119 5595 0
49 -1119 -1120 5596 0
49 -5601 5587 0
49 -5602 5588 0
49 -5599 5587 0
49 -5600 5588 0
49 -5599 -5601 5588 0
49 -5599 -5602 5589 0
49 -5600 -5601 5589 0
49 -5600 -5602 5590 0
49 -1118 5601 0
49 -1117 5601 0
49 -1117 -1118 5602 0
49 -1116 5599 0
49 -1115 5599 0
49 -1115 -1116 5600 0
49 -5580 0
49 1123 1124 1125 1126 1127 1128 1129 1130 0
49 -5615 5603 0
49 -5616 5604 0
49 -5617 5605 0
49 -5618 5606 0
49 -5611 5603 0
49 -5612 5604 0
49 -5613 5605 0
49 -5614 5606 0
49 -5611 -5615 5604 0
49 -5611 -5616 5605 0
49 -5611 -5617 5606 0
49 -5611 -5618 5607 0
49 -5612 -5615 5605 0
49 -5612 -5616 5606 0
49 -5612 -5617 5607 0
49 -5612 -5618 5608 0
49 -5613 -5615 5606 0
49 -5613 -5616 5607 0
49 -5613 -5617 5608 0
49 -5613 -5618 5609 0
49 -5614 -5615 5607 0
49 -5614 -5616 5608 0
49 -5614 -5617 5609 0
49 -5614 -5618 5610 0
49 -5621 5615 0
49 -5622 5616 0
49 -5619 5615 0
49 -5620 5616 0
49 -5619 -5621 5616 0
49 -5619 -5622 5617 0
49 -5620 -5621 5617 0
49 -5620 -5622 5618 0
49 -1130 5621 0
49 -1129 5621 0
49 -1129 -1130 5622 0
49 -1128 5619 0
49 -1127 5619 0
49 -1127 -1128 5620 0
49 -5625 5611 0
49 -5626 5612 0
49 -5623 5611 0
49 -5624 5612 0
49 -5623 -5625 5612 0
49 -5623 -5626 5613 0
49 -5624 -5625 5613 0
49 -5624 -5626 5614 0
49 -1126 5625 0
49 -1125 5625 0
49 -1125 -1126 5626 0
49 -1124 5623 0
49 -1123 5623 0
49 -1123 -1124 5624 0
49 -5604 0
49 1131 0
49 1132 0
49 1133 0
49 1134 0
49 1135 1136 1137 1138 1139 1140 1141 1142 0
49 -5639 5627 0
49 -5640 5628 0
49 -5641 5629 0
49 -5642 5630 0
49 -5635 5627 0
49 -5636 5628 0
49 -5637 5629 0
49 -5638 5630 0
49 -5635 -5639 5628 0
49 -5635 -5640 5629 0
49 -5635 -5641 5630 0
49 -5635 -5642 5631 0
49 -5636 -5639 5629 0
49 -5636 -5640 5630 0
49 -5636 -5641 5631 0
49 -5636 -5642 5632 0
49 -5637 -5639 5630 0
49 -5637 -5640 5631 0
49 -5637 -5641 5632 0
49 -5637 -5642 5633 0
49 -5638 -5639 5631 0
49 -5638 -5640 5632 0
49 -5638 -5641 5633 0
49 -5638 -5642 5634 0
49 -5645 5639 0
49 -5646 5640 0
49 -5643 5639 0
49 -5644 5640 0
49 -5643 -5645 5640 0
49 -5643 -5646 5641 0
49 -5644 -5645 5641 0
49 -5644 -5646 5642 0
49 -1142 5645 0
49 -1141 5645 0
49 -1141 -1142 5646 0
49 -1140 5643 0
49 -1139 5643 0
49 -1139 -1140 5644 0
49 -5649 5635 0
49 -5650 5636 0
49 -5647 5635 0
49 -5648 5636 0
49 -5647 -5649 5636 0
49 -5647 -5650 5637 0
49 -5648 -5649 5637 0
49 -5648 -5650 5638 0
49 -1138 5649 0
49 -1137 5649 0
49 -1137 -1138 5650 0
49 -1136 5647 0
49 -1135 5647 0
49 -1135 -1136 5648 0
49 -5628 0
49 1143 1144 1145 1146 1147 1148 1149 1150 0
49 -5663 5651 0
49 -5664 5652 0
49 -5665 5653 0
49 -5666 5654 0
49 -5659 5651 0
49 -5660 5652 0
49 -5661 5653 0
49 -5662 5654 0
49 -5659 -5663 5652 0
49 -5659 -5664 5653 0
49 -5659 -5665 5654 0
49 -5659 -5666 5655 0
49 -5660 -5663 5653 0
49 -5660 -5664 5654 0
49 -5660 -5665 5655 0
49 -5660 -5666 5656 0
49 -5661 -5663 5654 0
49 -5661 -5664 5655 0
49 -5661 -5665 5656 0
49 -5661 -5666 5657 0
49 -5662 -5663 5655 0
49 -5662 -5664 5656 0
49 -5662 -5665 5657 0
49 -5662 -5666 5658 0
49 -5669 5663 0
49 -5670 5664 0
49 -5667 5663 0
49 -5668 5664 0
49 -5667 -5669 5664 0
49 -5667 -5670 5665 0
49 -5668 -5669 5665 0
49 -5668 -5670 5666 0
49 -1150 5669 0
49 -1149 5669 0
49 -1149 -1150 5670 0
49 -1148 5667 0
49 -1147 5667 0
49 -1147 -1148 5668 0
49 -5673 5659 0
49 -5674 5660 0
49 -5671 5659 0
49 -5672 5660 0
49 -5671 -5673 5660 0
49 -5671 -5674 5661 0
49 -5672 -5673 5661 0
49 -5672 -5674 5662 0
49 -1146 5673 0
49 -1145 5673 0
49 -1145 -1146 5674 0
49 -1144 5671 0
49 -1143 5671 0
49 -1143 -1144 5672 0
49 -5652 0
49 1151 1152 1153 1154 0
49 -5681 5675 0
49 -5682 5676 0
49 -5679 5675 0
49 -5680 5676 0
49 -5679 -5681 5676 0
49 -5679 -5682 5677 0
49 -5680 -5681 5677 0
49 -5680 -5682 5678 0
49 -1154 5681 0
49 -1153 5681 0
49 -1153 -1154 5682 0
49 -1152 5679 0
49 -1151 5679 0
49 -1151 -1152 5680 0
49 -5676 0
49 1155 1156 1157 1158 0
49 -5689 5683 0
49 -5690 5684 0
49 -5687 5683 0
49 -5688 5684 0
49 -5687 -5689 5684 0
49 -5687 -5690 5685 0
49 -5688 -5689 5685 0
49 -5688 -5690 5686 0
49 -1158 5689 0
49 -1157 5689 0
49 -1157 -1158 5690 0
49 -1156 5687 0
49 -1155 5687 0
49 -1155 -1156 5688 0
49 -5684 0
49 1159 1160 1161 1162 1163 1164 1165 1166 1167 1168 1169 1170 1171 1172 0
49 -5712 5691 0
49 -5713 5692 0
49 -5714 5693 0
49 -5715 5694 0
49 -5716 5695 0
49 -5717 5696 0
49 -5718 5697 0
49 -5705 5691 0
49 -5706 5692 0
49 -5707 5693 0
49 -5708 5694 0
49 -5709 5695 0
49 -5710 5696 0
49 -5711 5697 0
49 -5705 -5712 5692 0
49 -5705 -5713 5693 0
49 -5705 -5714 5694 0
49 -5705 -5715 5695 0
49 -5705 -5716 5696 0
49 -5705 -5717 5697 0
49 -5705 -5718 5698 0
49 -5706 -5712 5693 0
49 -5706 -5713 5694 0
49 -5706 -5714 5695 0
49 -5706 -5715 5696 0
49 -5706 -5716 5697 0
49 -5706 -5717 5698 0
49 -5706 -5718 5699 0
49 -5707 -5712 5694 0
49 -5707 -5713 5695 0
49 -5707 -5714 5696 0
49 -5707 -5715 5697 0
49 -5707 -5716 5698 0
49 -5707 -5717 5699 0
49 -5707 -5718 5700 0
49 -5708 -5712 5695 0
49 -5708 -5713 5696 0
49 -5708 -5714 5697 0
49 -5708 -5715 5698 0
49 -5708 -5716 5699 0
49 -5708 -5717 5700 0
49 -5708 -5718 5701 0
49 -5709 -5712 5696 0
49 -5709 -5713 5697 0
49 -5709 -5714 5698 0
49 -5709 -5715 5699 0
49 -5709 -5716 5700 0
49 -5709 -5717 5701 0
49 -5709 -5718 5702 0
49 -5710 -5712 5697 0
49 -5710 -5713 5698 0
49 -5710 -5714 5699 0
49 -5710 -5715 5700 0
49 -5710 -5716 5701 0
49 -5710 -5717 5702 0
49 -5710 -5718 5703 0
49 -5711 -5712 5698 0
49 -5711 -5713 5699 0
49 -5711 -5714 5700 0
49 -5711 -5715 5701 0
49 -5711 -5716 5702 0
49 -5711 -5717 5703 0
49 -5711 -5718 5704 0
49 -5723 5712 0
49 -5724 5713 0
49 -5725 5714 0
49 -5719 5712 0
49 -5720 5713 0
49 -5721 5714 0
49 -5722 5715 0
49 -5719 -5723 5713 0
49 -5719 -5724 5714 0
49 -5719 -5725 5715 0
49 -5720 -5723 5714 0
49 -5720 -5724 5715 0
49 -5720 -5725 5716 0
49 -5721 -5723 5715 0
49 -5721 -5724 5716 0
49 -5721 -5725 5717 0
49 -5722 -5723 5716 0
49 -5722 -5724 5717 0
49 -5722 -5725 5718 0
49 -1172 5723 0
49 -5726 5723 0
49 -5727 5724 0
49 -5726 -1172 5724 0
49 -5727 -1172 5725 0
49 -1171 5726 0
49 -1170 5726 0
49 -1170 -1171 5727 0
49 -5730 5719 0
49 -5731 5720 0
49 -5728 5719 0
49 -5729 5720 0
49 -5728 -5730 5720 0
49 -5728 -5731 5721 0
49 -5729 -5730 5721 0
49 -5729 -5731 5722 0
49 -1169 5730 0
49 -1168 5730 0
49 -1168 -1169 5731 0
49 -1167 5728 0
49 -1166 5728 0
49 -1166 -1167 5729 0
49 -5736 5705 0
49 -5737 5706 0
49 -5738 5707 0
49 -5732 5705 0
49 -5733 5706 0
49 -5734 5707 0
49 -5735 5708 0
49 -5732 -5736 5706 0
49 -5732 -5737 5707 0
49 -5732 -5738 5708 0
49 -5733 -5736 5707 0
49 -5733 -5737 5708 0
49 -5733 -5738 5709 0
49 -5734 -5736 5708 0
49 -5734 -5737 5709 0
49 -5734 -5738 5710 0
49 -5735 -5736 5709 0
49 -5735 -5737 5710 0
49 -5735 -5738 5711 0
49 -1165 5736 0
49 -5739 5736 0
49 -5740 5737 0
49 -5739 -1165 5737 0
49 -5740 -1165 5738 0
49 -1164 5739 0
49 -1163 5739 0
49 -1163 -1164 5740 0
49 -5743 5732 0
49 -5744 5733 0
49 -5741 5732 0
49 -5742 5733 0
49 -5741 -5743 5733 0
49 -5741 -5744 5734 0
49 -5742 -5743 5734 0
49 -5742 -5744 5735 0
49 -1162 5743 0
49 -1161 5743 0
49 -1161 -1162 5744 0
49 -1160 5741 0
49 -1159 5741 0
49 -1159 -1160 5742 0
49 -5692 0
49 1173 1174 1175 1176 1177 1178 1179 1180 1181 1182 1183 1184 1185 1186 0
49 -5766 5745 0
49 -5767 5746 0
49 -5768 5747 0
49 -5769 5748 0
49 -5770 5749 0
49 -5771 5750 0
49 -5772 5751 0
49 -5759 5745 0
49 -5760 5746 0
49 -5761 5747 0
49 -5762 5748 0
49 -5763 5749 0
49 -5764 5750 0
49 -5765 5751 0
49 -5759 -5766 5746 0
49 -5759 -5767 5747 0
49 -5759 -5768 5748 0
49 -5759 -5769 5749 0
49 -5759 -5770 5750 0
49 -5759 -5771 5751 0
49 -5759 -5772 5752 0
49 -5760 -5766 5747 0
49 -5760 -5767 5748 0
49 -5760 -5768 5749 0
49 -5760 -5769 5750 0
49 -5760 -5770 5751 0
49 -5760 -5771 5752 0
49 -5760 -5772 5753 0
49 -5761 -5766 5748 0
49 -5761 -5767 5749 0
49 -5761 -5768 5750 0
49 -5761 -5769 5751 0
49 -5761 -5770 5752 0
49 -5761 -5771 5753 0
49 -5761 -5772 5754 0
49 -5762 -5766 5749 0
49 -5762 -5767 5750 0
49 -5762 -5768 5751 0
49 -5762 -5769 5752 0
49 -5762 -5770 5753 0
49 -5762 -5771 5754 0
49 -5762 -5772 5755 0
49 -5763 -5766 5750 0
49 -5763 -5767 5751 0
49 -5763 -5768 5752 0
49 -5763 -5769 5753 0
49 -5763 -5770 5754 0
49 -5763 -5771 5755 0
49 -5763 -5772 5756 0
49 -5764 -5766 5751 0
49 -5764 -5767 5752 0
49 -5764 -5768 5753 0
49 -5764 -5769 5754 0
49 -5764 -5770 5755 0
49 -5764 -5771 5756 0
49 -5764 -5772 5757 0
49 -5765 -5766 5752 0
49 -5765 -5767 5753 0
49 -5765 -5768 5754 0
49 -5765 -5769 5755 0
49 -5765 -5770 5756 0
49 -5765 -5771 5757 0
49 -5765 -5772 5758 0
49 -5777 5766 0
49 -5778 5767 0
49 -5779 5768 0
49 -5773 5766 0
49 -5774 5767 0
49 -5775 5768 0
49 -5776 5769 0
49 -5773 -5777 5767 0
49 -5773 -5778 5768 0
49 -5773 -5779 5769 0
49 -5774 -5777 5768 0
49 -5774 -5778 5769 0
49 -5774 -5779 5770 0
49 -5775 -5777 5769 0
49 -5775 -5778 5770 0
49 -5775 -5779 5771 0
49 -5776 -5777 5770 0
49 -5776 -5778 5771 0
49 -5776 -5779 5772 0
49 -1186 5777 0
49 -5780 5777 0
49 -5781 5778 0
49 -5780 -1186 5778 0
49 -5781 -1186 5779 0
49 -1185 5780 0
49 -1184 5780 0
49 -1184 -1185 5781 0
49 -5784 5773 0
49 -5785 5774 0
49 -5782 5773 0
49 -5783 5774 0
49 -5782 -5784 5774 0
49 -5782 -5785 5775 0
49 -5783 -5784 5775 0
49 -5783 -5785 5776 0
49 -1183 5784 0
49 -1182 5784 0
49 -1182 -1183 5785 0
49 -1181 5782 0
49 -1180 5782 0
49 -1180 -1181 5783 0
49 -5790 5759 0
49 -5791 5760 0
49 -5792 5761 0
49 -5786 5759 0
49 -5787 5760 0
49 -5788 5761 0
49 -5789 5762 0
49 -5786 -5790 5760 0
49 -5786 -5791 5761 0
49 -5786 -5792 5762 0
49 -5787 -5790 5761 0
49 -5787 -5791 5762 0
49 -5787 -5792 5763 0
49 -5788 -5790 5762 0
49 -5788 -5791 5763 0
49 -5788 -5792 5764 0
49 -5789 -5790 5763 0
49 -5789 -5791 5764 0
49 -5789 -5792 5765 0
49 -1179 5790 0
49 -5793 5790 0
49 -5794 5791 0
49 -5793 -1179 5791 0
49 -5794 -1179 5792 0
49 -1178 5793 0
49 -1177 5793 0
49 -1177 -1178 5794 0
49 -5797 5786 0
49 -5798 5787 0
49 -5795 5786 0
49 -5796 5787 0
49 -5795 -5797 5787 0
49 -5795 -5798 5788 0
49 -5796 -5797 5788 0
49 -5796 -5798 5789 0
49 -1176 5797 0
49 -1175 5797 0
49 -1175 -1176 5798 0
49 -1174 5795 0
49 -1173 5795 0
49 -1173 -1174 5796 0
49 -5746 0
49 1187 1188 1189 0
49 -1189 5799 0
49 -5802 5799 0
49 -5803 5800 0
49 -5802 -1189 5800 0
49 -5803 -1189 5801 0
49 -1188 5802 0
49 -1187 5802 0
49 -1187 -1188 5803 0
49 -5800 0
49 1190 1191 1192 0
49 -1192 5804 0
49 -5807 5804 0
49 -5808 5805 0
49 -5807 -1192 5805 0
49 -5808 -1192 5806 0
49 -1191 5807 0
49 -1190 5807 0
49 -1190 -1191 5808 0
49 -5805 0
49 1193 0
49 1194 0
49 1195 1196 1197 1198 1199 1200 0
49 -5818 5809 0
49 -5819 5810 0
49 -5820 5811 0
49 -5815 5809 0
49 -5816 5810 0
49 -5817 5811 0
49 -5815 -5818 5810 0
49 -5815 -5819 5811 0
49 -5815 -5820 5812 0
49 -5816 -5818 5811 0
49 -5816 -5819 5812 0
49 -5816 -5820 5813 0
49 -5817 -5818 5812 0
49 -5817 -5819 5813 0
49 -5817 -5820 5814 0
49 -1200 5818 0
49 -5821 5818 0
49 -5822 5819 0
49 -5821 -1200 5819 0
49 -5822 -1200 5820 0
49 -1199 5821 0
49 -1198 5821 0
49 -1198 -1199 5822 0
49 -1197 5815 0
49 -5823 5815 0
49 -5824 5816 0
49 -5823 -1197 5816 0
49 -5824 -1197 5817 0
49 -1196 5823 0
49 -1195 5823 0
49 -1195 -1196 5824 0
49 -5810 0
49 1201 1202 1203 1204 1205 1206 0
49 -5834 5825 0
49 -5835 5826 0
49 -5836 5827 0
49 -5831 5825 0
49 -5832 5826 0
49 -5833 5827 0
49 -5831 -5834 5826 0
49 -5831 -5835 5827 0
49 -5831 -5836 5828 0
49 -5832 -5834 5827 0
49 -5832 -5835 5828 0
49 -5832 -5836 5829 0
49 -5833 -5834 5828 0
49 -5833 -5835 5829 0
49 -5833 -5836 5830 0
49 -1206 5834 0
49 -5837 5834 0
49 -5838 5835 0
49 -5837 -1206 5835 0
49 -5838 -1206 5836 0
49 -1205 5837 0
49 -1204 5837 0
49 -1204 -1205 5838 0
49 -1203 5831 0
49 -5839 5831 0
49 -5840 5832 0
49 -5839 -1203 5832 0
49 -5840 -1203 5833 0
49 -1202 5839 0
49 -1201 5839 0
49 -1201 -1202 5840 0
49 -5826 0
49 1207 0
49 1208 0
49 1209 0
49 1210 0
49 1211 1212 1213 1214 1215 1216 1217 0
49 -5852 5841 0
49 -5853 5842 0
49 -5854 5843 0
49 -5848 5841 0
49 -5849 5842 0
49 -5850 5843 0
49 -5851 5844 0
49 -5848 -5852 5842 0
49 -5848 -5853 5843 0
49 -5848 -5854 5844 0
49 -5849 -5852 5843 0
49 -5849 -5853 5844 0
49 -5849 -5854 5845 0
49 -5850 -5852 5844 0
49 -5850 -5853 5845 0
49 -5850 -5854 5846 0
49 -5851 -5852 5845 0
49 -5851 -5853 5846 0
49 -5851 -5854 5847 0
49 -1217 5852 0
49 -5855 5852 0
49 -5856 5853 0
49 -5855 -1217 5853 0
49 -5856 -1217 5854 0
49 -1216 5855 0
49 -1215 5855 0
49 -1215 -1216 5856 0
49 -5859 5848 0
49 -5860 5849 0
49 -5857 5848 0
49 -5858 5849 0
49 -5857 -5859 5849 0
49 -5857 -5860 5850 0
49 -5858 -5859 5850 0
49 -5858 -5860 5851 0
49 -1214 5859 0
49 -1213 5859 0
49 -1213 -1214 5860 0
49 -1212 5857 0
49 -1211 5857 0
49 -1211 -1212 5858 0
49 -5842 0
49 1218 1219 1220 1221 1222 1223 1224 0
49 -5872 5861 0
49 -5873 5862 0
49 -5874 5863 0
49 -5868 5861 0
49 -5869 5862 0
49 -5870 5863 0
49 -5871 5864 0
49 -5868 -5872 5862 0
49 -5868 -5873 5863 0
49 -5868 -5874 5864 0
49 -5869 -5872 5863 0
49 -5869 -5873 5864 0
49 -5869 -5874 5865 0
49 -5870 -5872 5864 0
49 -5870 -5873 5865 0
49 -5870 -5874 5866 0
49 -5871 -5872 5865 0
49 -5871 -5873 5866 0
49 -5871 -5874 5867 0
49 -1224 5872 0
49 -5875 5872 0
49 -5876 5873 0
49 -5875 -1224 5873 0
49 -5876 -1224 5874 0
49 -1223 5875 0
49 -1222 5875 0
49 -1222 -1223 5876 0
49 -5879 5868 0
49 -5880 5869 0
49 -5877 5868 0
49 -5878 5869 0
49 -5877 -5879 5869 0
49 -5877 -5880 5870 0
49 -5878 -5879 5870 0
49 -5878 -5880 5871 0
49 -1221 5879 0
49 -1220 5879 0
49 -1220 -1221 5880 0
49 -1219 5877 0
49 -1218 5877 0
49 -1218 -1219 5878 0
49 -5862 0
49 1225 0
49 1226 0
49 1227 1228 0
49 -1227 -1228 0
49 1229 1230 0
49 -1229 -1230 0
49 1231 0
49 1232 0
49 1233 0
49 1234 0
49 1235 1236 1237 1238 1239 1240 1241 0
49 -5892 5881 0
49 -5893 5882 0
49 -5894 5883 0
49 -5888 5881 0
49 -5889 5882 0
49 -5890 5883 0
49 -5891 5884 0
49 -5888 -5892 5882 0
49 -5888 -5893 5883 0
49 -5888 -5894 5884 0
49 -5889 -5892 5883 0
49 -5889 -5893 5884 0
49 -5889 -5894 5885 0
49 -5890 -5892 5884 0
49 -5890 -5893 5885 0
49 -5890 -5894 5886 0
49 -5891 -5892 5885 0
49 -5891 -5893 5886 0
49 -5891 -5894 5887 0
49 -1241 5892 0
49 -5895 5892 0
49 -5896 5893 0
49 -5895 -1241 5893 0
49 -5896 -1241 5894 0
49 -1240 5895 0
49 -1239 5895 0
49 -1239 -1240 5896 0
49 -5899 5888 0
49 -5900 5889 0
49 -5897 5888 0
49 -5898 5889 0
49 -5897 -5899 5889 0
49 -5897 -5900 5890 0
49 -5898 -5899 5890 0
49 -5898 -5900 5891 0
49 -1238 5899 0
49 -1237 5899 0
49 -1237 -1238 5900 0
49 -1236 5897 0
49 -1235 5897 0
49 -1235 -1236 5898 0
49 -5882 0
49 1242 1243 1244 1245 1246 1247 1248 0
49 -5912 5901 0
49 -5913 5902 0
49 -5914 5903 0
49 -5908 5901 0
49 -5909 5902 0
49 -5910 5903 0
49 -5911 5904 0
49 -5908 -5912 5902 0
49 -5908 -5913 5903 0
49 -5908 -5914 5904 0
49 -5909 -5912 5903 0
49 -5909 -5913 5904 0
49 -5909 -5914 5905 0
49 -5910 -5912 5904 0
49 -5910 -5913 5905 0
49 -5910 -5914 5906 0
49 -5911 -5912 5905 0
49 -5911 -5913 5906 0
49 -5911 -5914 5907 0
49 -1248 5912 0
49 -5915 5912 0
49 -5916 5913 0
49 -5915 -1248 5913 0
49 -5916 -1248 5914 0
49 -1247 5915 0
49 -1246 5915 0
49 -1246 -1247 5916 0
49 -5919 5908 0
49 -5920 5909 0
49 -5917 5908 0
49 -5918 5909 0
49 -5917 -5919 5909 0
49 -5917 -5920 5910 0
49 -5918 -5919 5910 0
49 -5918 -5920 5911 0
49 -1245 5919 0
49 -1244 5919 0
49 -1244 -1245 5920 0
49 -1243 5917 0
49 -1242 5917 0
49 -1242 -1243 5918 0
49 -5902 0
49 1249 1250 1251 1252 0
49 -5927 5921 0
49 -5928 5922 0
49 -5925 5921 0
49 -5926 5922 0
49 -5925 -5927 5922 0
49 -5925 -5928 5923 0
49 -5926 -5927 5923 0
49 -5926 -5928 5924 0
49 -1252 5927 0
49 -1251 5927 0
49 -1251 -1252 5928 0
49 -1250 5925 0
49 -1249 5925 0
49 -1249 -1250 5926 0
49 -5922 0
49 1253 1254 1255 1256 0
49 -5935 5929 0
49 -5936 5930 0
49 -5933 5929 0
49 -5934 5930 0
49 -5933 -5935 5930 0
49 -5933 -5936 5931 0
49 -5934 -5935 5931 0
49 -5934 -5936 5932 0
49 -1256 5935 0
49 -1255 5935 0
49 -1255 -1256 5936 0
49 -1254 5933 0
49 -1253 5933 0
49 -1253 -1254 5934 0
49 -5930 0
49 1257 0
49 1258 0
49 1259 0
49 1260 0
49 1261 1262 1263 1264 1265 1266 1267 0
49 -5948 5937 0
49 -5949 5938 0
49 -5950 5939 0
49 -5944 5937 0
49 -5945 5938 0
49 -5946 5939 0
49 -5947 5940 0
49 -5944 -5948 5938 0
49 -5944 -5949 5939 0
49 -5944 -5950 5940 0
49 -5945 -5948 5939 0
49 -5945 -5949 5940 0
49 -5945 -5950 5941 0
49 -5946 -5948 5940 0
49 -5946 -5949 5941 0
49 -5946 -5950 5942 0
49 -5947 -5948 5941 0
49 -5947 -5949 5942 0
49 -5947 -5950 5943 0
49 -1267 5948 0
49 -5951 5948 0
49 -5952 5949 0
49 -5951 -1267 5949 0
49 -5952 -1267 5950 0
49 -1266 5951 0
49 -1265 5951 0
49 -1265 -1266 5952 0
49 -5955 5944 0
49 -5956 5945 0
49 -5953 5944 0
49 -5954 5945 0
49 -5953 -5955 5945 0
49 -5953 -5956 5946 0
49 -5954 -5955 5946 0
49 -5954 -5956 5947 0
49 -1264 5955 0
49 -1263 5955 0
49 -1263 -1264 5956 0
49 -1262 5953 0
49 -1261 5953 0
49 -1261 -1262 5954 0
49 -5938 0
49 1268 1269 1270 1271 1272 1273 1274 0
49 -5968 5957 0
49 -5969 5958 0
49 -5970 5959 0
49 -5964 5957 0
49 -5965 5958 0
49 -5966 5959 0
49 -5967 5960 0
49 -5964 -5968 5958 0
49 -5964 -5969 5959 0
49 -5964 -5970 5960 0
49 -5965 -5968 5959 0
49 -5965 -5969 5960 0
49 -5965 -5970 5961 0
49 -5966 -5968 5960 0
49 -5966 -5969 5961 0
49 -5966 -5970 5962 0
49 -5967 -5968 5961 0
49 -5967 -5969 5962 0
49 -5967 -5970 5963 0
49 -1274 5968 0
49 -5971 5968 0
49 -5972 5969 0
49 -5971 -1274 5969 0
49 -5972 -1274 5970 0
49 -1273 5971 0
49 -1272 5971 0
49 -1272 -1273 5972 0
49 -5975 5964 0
49 -5976 5965 0
49 -5973 5964 0
49 -5974 5965 0
49 -5973 -5975 5965 0
49 -5973 -5976 5966 0
49 -5974 -5975 5966 0
49 -5974 -5976 5967 0
49 -1271 5975 0
49 -1270 5975 0
49 -1270 -1271 5976 0
49 -1269 5973 0
49 -1268 5973 0
49 -1268 -1269 5974 0
49 -5958 0
49 1275 1276 1277 1278 1279 1280 1281 1282 0
49 -5989 5977 0
49 -5990 5978 0
49 -5991 5979 0
49 -5992 5980 0
49 -5985 5977 0
49 -5986 5978 0
49 -5987 5979 0
49 -5988 5980 0
49 -5985 -5989 5978 0
49 -5985 -5990 5979 0
49 -5985 -5991 5980 0
49 -5985 -5992 5981 0
49 -5986 -5989 5979 0
49 -5986 -5990 5980 0
49 -5986 -5991 5981 0
49 -5986 -5992 5982 0
49 -5987 -5989 5980 0
49 -5987 -5990 5981 0
49 -5987 -5991 5982 0
49 -5987 -5992 5983 0
49 -5988 -5989 5981 0
49 -5988 -5990 5982 0
49 -5988 -5991 5983 0
49 -5988 -5992 5984 0
49 -5995 5989 0
49 -5996 5990 0
49 -5993 5989 0
49 -5994 5990 0
49 -5993 -5995 5990 0
49 -5993 -5996 5991 0
49 -5994 -5995 5991 0
49 -5994 -5996 5992 0
49 -1282 5995 0
49 -1281 5995 0
49 -1281 -1282 5996 0
49 -1280 5993 0
49 -1279 5993 0
49 -1279 -1280 5994 0
49 -5999 5985 0
49 -6000 5986 0
49 -5997 5985 0
49 -5998 5986 0
49 -5997 -5999 5986 0
49 -5997 -6000 5987 0
49 -5998 -5999 5987 0
49 -5998 -6000 5988 0
49 -1278 5999 0
49 -1277 5999 0
49 -1277 -1278 6000 0
49 -1276 5997 0
49 -1275 5997 0
49 -1275 -1276 5998 0
49 -5978 0
49 1283 1284 1285 1286 1287 1288 1289 1290 0
49 -6013 6001 0
49 -6014 6002 0
49 -6015 6003 0
49 -6016 6004 0
49 -6009 6001 0
49 -6010 6002 0
49 -6011 6003 0
49 -6012 6004 0
49 -6009 -6013 6002 0
49 -6009 -6014 6003 0
49 -6009 -6015 6004 0
49 -6009 -6016 6005 0
49 -6010 -6013 6003 0
49 -6010 -6014 6004 0
49 -6010 -6015 6005 0
49 -6010 -6016 6006 0
49 -6011 -6013 6004 0
49 -6011 -6014 6005 0
49 -6011 -6015 6006 0
49 -6011 -6016 6007 0
49 -6012 -6013 6005 0
49 -6012 -6014 6006 0
49 -6012 -6015 6007 0
49 -6012 -6016 6008 0
49 -6019 6013 0
49 -6020 6014 0
49 -6017 6013 0
49 -6018 6014 0
49 -6017 -6019 6014 0
49 -6017 -6020 6015 0
49 -6018 -6019 6015 0
49 -6018 -6020 6016 0
49 -1290 6019 0
49 -1289 6019 0
49 -1289 -1290 6020 0
49 -1288 6017 0
49 -1287 6017 0
49 -1287 -1288 6018 0
49 -6023 6009 0
49 -6024 6010 0
49 -6021 6009 0
49 -6022 6010 0
49 -6021 -6023 6010 0
49 -6021 -6024 6011 0
49 -6022 -6023 6011 0
49 -6022 -6024 6012 0
49 -1286 6023 0
49 -1285 6023 0
49 -1285 -1286 6024 0
49 -1284 6021 0
49 -1283 6021 0
49 -1283 -1284 6022 0
49 -6002 0
49 1291 1292 1293 1294 1295 1296 0
49 -6034 6025 0
49 -6035 6026 0
49 -6036 6027 0
49 -6031 6025 0
49 -6032 6026 0
49 -6033 6027 0
49 -6031 -6034 6026 0
49 -6031 -6035 6027 0
49 -6031 -6036 6028 0
49 -6032 -6034 6027 0
49 -6032 -6035 6028 0
49 -6032 -6036 6029 0
49 -6033 -6034 6028 0
49 -6033 -6035 6029 0
49 -6033 -6036 6030 0
49 -1296 6034 0
49 -6037 6034 0
49 -6038 6035 0
49 -6037 -1296 6035 0
49 -6038 -1296 6036 0
49 -1295 6037 0
49 -1294 6037 0
49 -1294 -1295 6038 0
49 -1293 6031 0
49 -6039 6031 0
49 -6040 6032 0
49 -6039 -1293 6032 0
49 -6040 -1293 6033 0
49 -1292 6039 0
49 -1291 6039 0
49 -1291 -1292 6040 0
49 -6026 0
49 1297 1298 1299 1300 1301 1302 0
49 -6050 6041 0
49 -6051 6042 0
49 -6052 6043 0
49 -6047 6041 0
49 -6048 6042 0
49 -6049 6043 0
49 -6047 -6050 6042 0
49 -6047 -6051 6043 0
49 -6047 -6052 6044 0
49 -6048 -6050 6043 0
49 -6048 -6051 6044 0
49 -6048 -6052 6045 0
49 -6049 -6050 6044 0
49 -6049 -6051 6045 0
49 -6049 -6052 6046 0
49 -1302 6050 0
49 -6053 6050 0
49 -6054 6051 0
49 -6053 -1302 6051 0
49 -6054 -1302 6052 0
49 -1301 6053 0
49 -1300 6053 0
49 -1300 -1301 6054 0
49 -1299 6047 0
49 -6055 6047 0
49 -6056 6048 0
49 -6055 -1299 6048 0
49 -6056 -1299 6049 0
49 -1298 6055 0
49 -1297 6055 0
49 -1297 -1298 6056 0
49 -6042 0
49 1303 0
49 1304 0
49 1305 1306 1307 1308 0
49 -6063 6057 0
49 -6064 6058 0
49 -6061 6057 0
49 -6062 6058 0
49 -6061 -6063 6058 0
49 -6061 -6064 6059 0
49 -6062 -6063 6059 0
49 -6062 -6064 6060 0
49 -1308 6063 0
49 -1307 6063 0
49 -1307 -1308 6064 0
49 -1306 6061 0
49 -1305 6061 0
49 -1305 -1306 6062 0
49 -6058 0
49 1309 1310 1311 1312 0
49 -6071 6065 0
49 -6072 6066 0
49 -6069 6065 0
49 -6070 6066 0
49 -6069 -6071 6066 0
49 -6069 -6072 6067 0
49 -6070 -6071 6067 0
49 -6070 -6072 6068 0
49 -1312 6071 0
49 -1311 6071 0
49 -1311 -1312 6072 0
49 -1310 6069 0
49 -1309 6069 0
49 -1309 -1310 6070 0
49 -6066 0
49 1313 0
49 1314 0
49 1315 0
49 1316 0
49 1317 0
49 1318 0
49 1319 0
49 1320 0
49 1321 1322 1323 1324 1325 1326 0
49 -6082 6073 0
49 -6083 6074 0
49 -6084 6075 0
49 -6079 6073 0
49 -6080 6074 0
49 -6081 6075 0
49 -6079 -6082 6074 0
49 -6079 -6083 6075 0
49 -6079 -6084 6076 0
49 -6080 -6082 6075 0
49 -6080 -6083 6076 0
49 -6080 -6084 6077 0
49 -6081 -6082 6076 0
49 -6081 -6083 6077 0
49 -6081 -6084 6078 0
49 -1326 6082 0
49 -6085 6082 0
49 -6086 6083 0
49 -6085 -1326 6083 0
49 -6086 -1326 6084 0
49 -1325 6085 0
49 -1324 6085 0
49 -1324 -1325 6086 0
49 -1323 6079 0
49 -6087 6079 0
49 -6088 6080 0
49 -6087 -1323 6080 0
49 -6088 -1323 6081 0
49 -1322 6087 0
49 -1321 6087 0
49 -1321 -1322 6088 0
49 -6074 0
49 1327 1328 1329 1330 1331 1332 0
49 -6098 6089 0
49 -6099 6090 0
49 -6100 6091 0
49 -6095 6089 0
49 -6096 6090 0
49 -6097 6091 0
49 -6095 -6098 6090 0
49 -6095 -6099 6091 0
49 -6095 -6100 6092 0
49 -6096 -6098 6091 0
49 -6096 -6099 6092 0
49 -6096 -6100 6093 0
49 -6097 -6098 6092 0
49 -6097 -6099 6093 0
49 -6097 -6100 6094 0
49 -1332 6098 0
49 -6101 6098 0
49 -6102 6099 0
49 -6101 -1332 6099 0
49 -6102 -1332 6100 0
49 -1331 6101 0
49 -1330 6101 0
49 -1330 -1331 6102 0
49 -1329 6095 0
49 -6103 6095 0
49 -6104 6096 0
49 -6103 -1329 6096 0
49 -6104 -1329 6097 0
49 -1328 6103 0
49 -1327 6103 0
49 -1327 -1328 6104 0
49 -6090 0
49 1333 0
49 1334 0
49 1335 0
49 1336 0
49 1337 0
49 1338 0
49 1339 0
49 1340 0
49 1341 1342 1343 1344 1345 1346 1347 1348 0
49 -6117 6105 0
49 -6118 6106 0
49 -6119 6107 0
49 -6120 6108 0
49 -6113 6105 0
49 -6114 6106 0
49 -6115 6107 0
49 -6116 6108 0
49 -6113 -6117 6106 0
49 -6113 -6118 6107 0
49 -6113 -6119 6108 0
49 -6113 -6120 6109 0
49 -6114 -6117 6107 0
49 -6114 -6118 6108 0
49 -6114 -6119 6109 0
49 -6114 -6120 6110 0
49 -6115 -6117 6108 0
49 -6115 -6118 6109 0
49 -6115 -6119 6110 0
49 -6115 -6120 6111 0
49 -6116 -6117 6109 0
49 -6116 -6118 6110 0
49 -6116 -6119 6111 0
49 -6116 -6120 6112 0
49 -6123 6117 0
49 -6124 6118 0
49 -6121 6117 0
49 -6122 6118 0
49 -6121 -6123 6118 0
49 -6121 -6124 6119 0
49 -6122 -6123 6119 0
49 -6122 -6124 6120 0
49 -1348 6123 0
49 -1347 6123 0
49 -1347 -1348 6124 0
49 -1346 6121 0
49 -1345 6121 0
49 -1345 -1346 6122 0
49 -6127 6113 0
49 -6128 6114 0
49 -6125 6113 0
49 -6126 6114 0
49 -6125 -6127 6114 0
49 -6125 -6128 6115 0
49 -6126 -6127 6115 0
49 -6126 -6128 6116 0
49 -1344 6127 0
49 -1343 6127 0
49 -1343 -1344 6128 0
49 -1342 6125 0
49 -1341 6125 0
49 -1341 -1342 6126 0
49 -6106 0
49 1349 1350 1351 1352 1353 1354 1355 1356 0
49 -6141 6129 0
49 -6142 6130 0
49 -6143 6131 0
49 -6144 6132 0
49 -6137 6129 0
49 -6138 6130 0
49 -6139 6131 0
49 -6140 6132 0
49 -6137 -6141 6130 0
49 -6137 -6142 6131 0
49 -6137 -6143 6132 0
49 -6137 -6144 6133 0
49 -6138 -6141 6131 0
49 -6138 -6142 6132 0
49 -6138 -6143 6133 0
49 -6138 -6144 6134 0
49 -6139 -6141 6132 0
49 -6139 -6142 6133 0
49 -6139 -6143 6134 0
49 -6139 -6144 6135 0
49 -6140 -6141 6133 0
49 -6140 -6142 6134 0
49 -6140 -6143 6135 0
49 -6140 -6144 6136 0
49 -6147 6141 0
49 -6148 6142 0
49 -6145 6141 0
49 -6146 6142 0
49 -6145 -6147 6142 0
49 -6145 -6148 6143 0
49 -6146 -6147 6143 0
49 -6146 -6148 6144 0
49 -1356 6147 0
49 -1355 6147 0
49 -1355 -1356 6148 0
49 -1354 6145 0
49 -1353 6145 0
49 -1353 -1354 6146 0
49 -6151 6137 0
49 -6152 6138 0
49 -6149 6137 0
49 -6150 6138 0
49 -6149 -6151 6138 0
49 -6149 -6152 6139 0
49 -6150 -6151 6139 0
49 -6150 -6152 6140 0
49 -1352 6151 0
49 -1351 6151 0
49 -1351 -1352 6152 0
49 -1350 6149 0
49 -1349 6149 0
49 -1349 -1350 6150 0
49 -6130 0
49 1357 0
49 1358 0
49 1359 0
49 1360 0
49 1361 0
49 1362 0
49 1363 0
49 1364 0
49 1365 1366 1367 0
49 -1367 6153 0
49 -6156 6153 0
49 -6157 6154 0
49 -6156 -1367 6154 0
49 -6157 -1367 6155 0
49 -1366 6156 0
49 -1365 6156 0
49 -1365 -1366 6157 0
49 -6154 0
49 1368 1369 1370 0
49 -1370 6158 0
49 -6161 6158 0
49 -6162 6159 0
49 -6161 -1370 6159 0
49 -6162 -1370 6160 0
49 -1369 6161 0
49 -1368 6161 0
49 -1368 -1369 6162 0
49 -6159 0
49 1371 1372 1373 1374 1375 1376 1377 1378 1379 1380 1381 0
49 -6180 6163 0
49 -6181 6164 0
49 -6182 6165 0
49 -6183 6166 0
49 -6184 6167 0
49 -6174 6163 0
49 -6175 6164 0
49 -6176 6165 0
49 -6177 6166 0
49 -6178 6167 0
49 -6179 6168 0
49 -6174 -6180 6164 0
49 -6174 -6181 6165 0
49 -6174 -6182 6166 0
49 -6174 -6183 6167 0
49 -6174 -6184 6168 0
49 -6175 -6180 6165 0
49 -6175 -6181 6166 0
49 -6175 -6182 6167 0
49 -6175 -6183 6168 0
49 -6175 -6184 6169 0
49 -6176 -6180 6166 0
49 -6176 -6181 6167 0
49 -6176 -6182 6168 0
49 -6176 -6183 6169 0
49 -6176 -6184 6170 0
49 -6177 -6180 6167 0
49 -6177 -6181 6168 0
49 -6177 -6182 6169 0
49 -6177 -6183 6170 0
49 -6177 -6184 6171 0
49 -6178 -6180 6168 0
49 -6178 -6181 6169 0
49 -6178 -6182 6170 0
49 -6178 -6183 6171 0
49 -6178 -6184 6172 0
49 -6179 -6180 6169 0
49 -6179 -6181 6170 0
49 -6179 -6182 6171 0
49 -6179 -6183 6172 0
49 -6179 -6184 6173 0
49 -6188 6180 0
49 -6189 6181 0
49 -6185 6180 0
49 -6186 6181 0
49 -6187 6182 0
49 -6185 -6188 6181 0
49 -6185 -6189 6182 0
49 -6186 -6188 6182 0
49 -6186 -6189 6183 0
49 -6187 -6188 6183 0
49 -6187 -6189 6184 0
49 -1381 6188 0
49 -1380 6188 0
49 -1380 -1381 6189 0
49 -1379 6185 0
49 -6190 6185 0
49 -6191 6186 0
49 -6190 -1379 6186 0
49 -6191 -1379 6187 0
49 -1378 6190 0
49 -1377 6190 0
49 -1377 -1378 6191 0
49 -6195 6174 0
49 -6196 6175 0
49 -6197 6176 0
49 -6192 6174 0
49 -6193 6175 0
49 -6194 6176 0
49 -6192 -6195 6175 0
49 -6192 -6196 6176 0
49 -6192 -6197 6177 0
49 -6193 -6195 6176 0
49 -6193 -6196 6177 0
49 -6193 -6197 6178 0
49 -6194 -6195 6177 0
49 -6194 -6196 6178 0
49 -6194 -6197 6179 0
49 -1376 6195 0
49 -6198 6195 0
49 -6199 6196 0
49 -6198 -1376 6196 0
49 -6199 -1376 6197 0
49 -1375 6198 0
49 -1374 6198 0
49 -1374 -1375 6199 0
49 -1373 6192 0
49 -6200 6192 0
49 -6201 6193 0
49 -6200 -1373 6193 0
49 -6201 -1373 6194 0
49 -1372 6200 0
49 -1371 6200 0
49 -1371 -1372 6201 0
49 -6164 0
49 1382 1383 1384 1385 1386 1387 1388 1389 1390 1391 1392 0
49 -6219 6202 0
49 -6220 6203 0
49 -6221 6204 0
49 -6222 6205 0
49 -6223 6206 0
49 -6213 6202 0
49 -6214 6203 0
49 -6215 6204 0
49 -6216 6205 0
49 -6217 6206 0
49 -6218 6207 0
49 -6213 -6219 6203 0
49 -6213 -6220 6204 0
49 -6213 -6221 6205 0
49 -6213 -6222 6206 0
49 -6213 -6223 6207 0
49 -6214 -6219 6204 0
49 -6214 -6220 6205 0
49 -6214 -6221 6206 0
49 -6214 -6222 6207 0
49 -6214 -6223 6208 0
49 -6215 -6219 6205 0
49 -6215 -6220 6206 0
49 -6215 -6221 6207 0
49 -6215 -6222 6208 0
49 -6215 -6223 6209 0
49 -6216 -6219 6206 0
49 -6216 -6220 6207 0
49 -6216 -6221 6208 0
49 -6216 -6222 6209 0
49 -6216 -6223 6210 0
49 -6217 -6219 6207 0
49 -6217 -6220 6208 0
49 -6217 -6221 6209 0
49 -6217 -6222 6210 0
49 -6217 -6223 6211 0
49 -6218 -6219 6208 0
49 -6218 -6220 6209 0
49 -6218 -6221 6210 0
49 -6218 -6222 6211 0
49 -6218 -6223 6212 0
49 -6227 6219 0
49 -6228 6220 0
49 -6224 6219 0
49 -6225 6220 0
49 -6226 6221 0
49 -6224 -6227 6220 0
49 -6224 -6228 6221 0
49 -6225 -6227 6221 0
49 -6225 -6228 6222 0
49 -6226 -6227 6222 0
49 -6226 -6228 6223 0
49 -1392 6227 0
49 -1391 6227 0
49 -1391 -1392 6228 0
49 -1390 6224 0
49 -6229 6224 0
49 -6230 6225 0
49 -6229 -1390 6225 0
49 -6230 -1390 6226 0
49 -1389 6229 0
49 -1388 6229 0
49 -1388 -1389 6230 0
49 -6234 6213 0
49 -6235 6214 0
49 -6236 6215 0
49 -6231 6213 0
49 -6232 6214 0
49 -6233 6215 0
49 -6231 -6234 6214 0
49 -6231 -6235 6215 0
49 -6231 -6236 6216 0
49 -6232 -6234 6215 0
49 -6232 -6235 6216 0
49 -6232 -6236 6217 0
49 -6233 -6234 6216 0
49 -6233 -6235 6217 0
49 -6233 -6236 6218 0
49 -1387 6234 0
49 -6237 6234 0
49 -6238 6235 0
49 -6237 -1387 6235 0
49 -6238 -1387 6236 0
49 -1386 6237 0
49 -1385 6237 0
49 -1385 -1386 6238 0
49 -1384 6231 0
49 -6239 6231 0
49 -6240 6232 0
49 -6239 -1384 6232 0
49 -6240 -1384 6233 0
49 -1383 6239 0
49 -1382 6239 0
49 -1382 -1383 6240 0
49 -6203 0
49 1393 0
49 1394 0
49 1395 1396 1397 1398 1399 1400 1401 1402 1403 1404 1405 1406 1407 1408 0
49 -6262 6241 0
49 -6263 6242 0
49 -6264 6243 0
49 -6265 6244 0
49 -6266 6245 0
49 -6267 6246 0
49 -6268 6247 0
49 -6255 6241 0
49 -6256 6242 0
49 -6257 6243 0
49 -6258 6244 0
49 -6259 6245 0
49 -6260 6246 0
49 -6261 6247 0
49 -6255 -6262 6242 0
49 -6255 -6263 6243 0
49 -6255 -6264 6244 0
49 -6255 -6265 6245 0
49 -6255 -6266 6246 0
49 -6255 -6267 6247 0
49 -6255 -6268 6248 0
49 -6256 -6262 6243 0
49 -6256 -6263 6244 0
49 -6256 -6264 6245 0
49 -6256 -6265 6246 0
49 -6256 -6266 6247 0
49 -6256 -6267 6248 0
49 -6256 -6268 6249 0
49 -6257 -6262 6244 0
49 -6257 -6263 6245 0
49 -6257 -6264 6246 0
49 -6257 -6265 6247 0
49 -6257 -6266 6248 0
49 -6257 -6267 6249 0
49 -6257 -6268 6250 0
49 -6258 -6262 6245 0
49 -6258 -6263 6246 0
49 -6258 -6264 6247 0
49 -6258 -6265 6248 0
49 -6258 -6266 6249 0
49 -6258 -6267 6250 0
49 -6258 -6268 6251 0
49 -6259 -6262 6246 0
49 -6259 -6263 6247 0
49 -6259 -6264 6248 0
49 -6259 -6265 6249 0
49 -6259 -6266 6250 0
49 -6259 -6267 6251 0
49 -6259 -6268 6252 0
49 -6260 -6262 6247 0
49 -6260 -6263 6248 0
49 -6260 -6264 6249 0
49 -6260 -6265 6250 0
49 -6260 -6266 6251 0
49 -6260 -6267 6252 0
49 -6260 -6268 6253 0
49 -6261 -6262 6248 0
49 -6261 -6263 6249 0
49 -6261 -6264 6250 0
49 -6261 -6265 6251 0
49 -6261 -6266 6252 0
49 -6261 -6267 6253 0
49 -6261 -6268 6254 0
49 -6273 6262 0
49 -6274 6263 0
49 -6275 6264 0
49 -6269 6262 0
49 -6270 6263 0
49 -6271 6264 0
49 -6272 6265 0
49 -6269 -6273 6263 0
49 -6269 -6274 6264 0
49 -6269 -6275 6265 0
49 -6270 -6273 6264 0
49 -6270 -6274 6265 0
49 -6270 -6275 6266 0
49 -6271 -6273 6265 0
49 -6271 -6274 6266 0
49 -6271 -6275 6267 0
49 -6272 -6273 6266 0
49 -6272 -6274 6267 0
49 -6272 -6275 6268 0
49 -1408 6273 0
49 -6276 6273 0
49 -6277 6274 0
49 -6276 -1408 6274 0
49 -6277 -1408 6275 0
49 -1407 6276 0
49 -1406 6276 0
49 -1406 -1407 6277 0
49 -6280 6269 0
49 -6281 6270 0
49 -6278 6269 0
49 -6279 6270 0
49 -6278 -6280 6270 0
49 -6278 -6281 6271 0
49 -6279 -6280 6271 0
49 -6279 -6281 6272 0
49 -1405 6280 0
49 -1404 6280 0
49 -1404 -1405 6281 0
49 -1403 6278 0
49 -1402 6278 0
49 -1402 -1403 6279 0
49 -6286 6255 0
49 -6287 6256 0
49 -6288 6257 0
49 -6282 6255 0
49 -6283 6256 0
49 -6284 6257 0
49 -6285 6258 0
49 -6282 -6286 6256 0
49 -6282 -6287 6257 0
49 -6282 -6288 6258 0
49 -6283 -6286 6257 0
49 -6283 -6287 6258 0
49 -6283 -6288 6259 0
49 -6284 -6286 6258 0
49 -6284 -6287 6259 0
49 -6284 -6288 6260 0
49 -6285 -6286 6259 0
49 -6285 -6287 6260 0
49 -6285 -6288 6261 0
49 -1401 6286 0
49 -6289 6286 0
49 -6290 6287 0
49 -6289 -1401 6287 0
49 -6290 -1401 6288 0
49 -1400 6289 0
49 -1399 6289 0
49 -1399 -1400 6290 0
49 -6293 6282 0
49 -6294 6283 0
49 -6291 6282 0
49 -6292 6283 0
49 -6291 -6293 6283 0
49 -6291 -6294 6284 0
49 -6292 -6293 6284 0
49 -6292 -6294 6285 0
49 -1398 6293 0
49 -1397 6293 0
49 -1397 -1398 6294 0
49 -1396 6291 0
49 -1395 6291 0
49 -1395 -1396 6292 0
49 -6242 0
49 1409 1410 1411 1412 1413 1414 1415 1416 1417 1418 1419 1420 1421 1422 0
49 -6316 6295 0
49 -6317 6296 0
49 -6318 6297 0
49 -6319 6298 0
49 -6320 6299 0
49 -6321 6300 0
49 -6322 6301 0
49 -6309 6295 0
49 -6310 6296 0
49 -6311 6297 0
49 -6312 6298 0
49 -6313 6299 0
49 -6314 6300 0
49 -6315 6301 0
49 -6309 -6316 6296 0
49 -6309 -6317 6297 0
49 -6309 -6318 6298 0
49 -6309 -6319 6299 0
49 -6309 -6320 6300 0
49 -6309 -6321 6301 0
49 -6309 -6322 6302 0
49 -6310 -6316 6297 0
49 -6310 -6317 6298 0
49 -6310 -6318 6299 0
49 -6310 -6319 6300 0
49 -6310 -6320 6301 0
49 -6310 -6321 6302 0
49 -6310 -6322 6303 0
49 -6311 -6316 6298 0
49 -6311 -6317 6299 0
49 -6311 -6318 6300 0
49 -6311 -6319 6301 0
49 -6311 -6320 6302 0
49 -6311 -6321 6303 0
49 -6311 -6322 6304 0
49 -6312 -6316 6299 0
49 -6312 -6317 6300 0
49 -6312 -6318 6301 0
49 -6312 -6319 6302 0
49 -6312 -6320 6303 0
49 -6312 -6321 6304 0
49 -6312 -6322 6305 0
49 -6313 -6316 6300 0
49 -6313 -6317 6301 0
49 -6313 -6318 6302 0
49 -6313 -6319 6303 0
49 -6313 -6320 6304 0
49 -6313 -6321 6305 0
49 -6313 -6322 6306 0
49 -6314 -6316 6301 0
49 -6314 -6317 6302 0
49 -6314 -6318 6303 0
49 -6314 -6319 6304 0
49 -6314 -6320 6305 0
49 -6314 -6321 6306 0
49 -6314 -6322 6307 0
49 -6315 -6316 6302 0
49 -6315 -6317 6303 0
49 -6315 -6318 6304 0
49 -6315 -6319 6305 0
49 -6315 -6320 6306 0
49 -6315 -6321 6307 0
49 -6315 -6322 6308 0
49 -6327 6316 0
49 -6328 6317 0
49 -6329 6318 0
49 -6323 6316 0
49 -6324 6317 0
49 -6325 6318 0
49 -6326 6319 0
49 -6323 -6327 6317 0
49 -6323 -6328 6318 0
49 -6323 -6329 6319 0
49 -6324 -6327 6318 0
49 -6324 -6328 6319 0
49 -6324 -6329 6320 0
49 -6325 -6327 6319 0
49 -6325 -6328 6320 0
49 -6325 -6329 6321 0
49 -6326 -6327 6320 0
49 -6326 -6328 6321 0
49 -6326 -6329 6322 0
49 -1422 6327 0
49 -6330 6327 0
49 -6331 6328 0
49 -6330 -1422 6328 0
49 -6331 -1422 6329 0
49 -1421 6330 0
49 -1420 6330 0
49 -1420 -1421 6331 0
49 -6334 6323 0
49 -6335 6324 0
49 -6332 6323 0
49 -6333 6324 0
49 -6332 -6334 6324 0
49 -6332 -6335 6325 0
49 -6333 -6334 6325 0
49 -6333 -6335 6326 0
49 -1419 6334 0
49 -1418 6334 0
49 -1418 -1419 6335 0
49 -1417 6332 0
49 -1416 6332 0
49 -1416 -1417 6333 0
49 -6340 6309 0
49 -6341 6310 0
49 -6342 6311 0
49 -6336 6309 0
49 -6337 6310 0
49 -6338 6311 0
49 -6339 6312 0
49 -6336 -6340 6310 0
49 -6336 -6341 6311 0
49 -6336 -6342 6312 0
49 -6337 -6340 6311 0
49 -6337 -6341 6312 0
49 -6337 -6342 6313 0
49 -6338 -6340 6312 0
49 -6338 -6341 6313 0
49 -6338 -6342 6314 0
49 -6339 -6340 6313 0
49 -6339 -6341 6314 0
49 -6339 -6342 6315 0
49 -1415 6340 0
49 -6343 6340 0
49 -6344 6341 0
49 -6343 -1415 6341 0
49 -6344 -1415 6342 0
49 -1414 6343 0
49 -1413 6343 0
49 -1413 -1414 6344 0
49 -6347 6336 0
49 -6348 6337 0
49 -6345 6336 0
49 -6346 6337 0
49 -6345 -6347 6337 0
49 -6345 -6348 6338 0
49 -6346 -6347 6338 0
49 -6346 -6348 6339 0
49 -1412 6347 0
49 -1411 6347 0
49 -1411 -1412 6348 0
49 -1410 6345 0
49 -1409 6345 0
49 -1409 -1410 6346 0
49 -6296 0
49 1423 0
49 1424 0
49 1425 0
49 1426 0
49 1427 0
49 1428 0
49 1429 1430 1431 1432 1433 0
49 -6357 6349 0
49 -6358 6350 0
49 -6354 6349 0
49 -6355 6350 0
49 -6356 6351 0
49 -6354 -6357 6350 0
49 -6354 -6358 6351 0
49 -6355 -6357 6351 0
49 -6355 -6358 6352 0
49 -6356 -6357 6352 0
49 -6356 -6358 6353 0
49 -1433 6357 0
49 -1432 6357 0
49 -1432 -1433 6358 0
49 -1431 6354 0
49 -6359 6354 0
49 -6360 6355 0
49 -6359 -1431 6355 0
49 -6360 -1431 6356 0
49 -1430 6359 0
49 -1429 6359 0
49 -1429 -1430 6360 0
49 -6350 0
49 1434 1435 1436 1437 1438 0
49 -6369 6361 0
49 -6370 6362 0
49 -6366 6361 0
49 -6367 6362 0
49 -6368 6363 0
49 -6366 -6369 6362 0
49 -6366 -6370 6363 0
49 -6367 -6369 6363 0
49 -6367 -6370 6364 0
49 -6368 -6369 6364 0
49 -6368 -6370 6365 0
49 -1438 6369 0
49 -1437 6369 0
49 -1437 -1438 6370 0
49 -1436 6366 0
49 -6371 6366 0
49 -6372 6367 0
49 -6371 -1436 6367 0
49 -6372 -1436 6368 0
49 -1435 6371 0
49 -1434 6371 0
49 -1434 -1435 6372 0
49 -6362 0
49 1439 0
49 1440 0
49 1441 0
49 1442 0
49 1443 1444 1445 1446 1447 1448 0
49 -6382 6373 0
49 -6383 6374 0
49 -6384 6375 0
49 -6379 6373 0
49 -6380 6374 0
49 -6381 6375 0
49 -6379 -6382 6374 0
49 -6379 -6383 6375 0
49 -6379 -6384 6376 0
49 -6380 -6382 6375 0
49 -6380 -6383 6376 0
49 -6380 -6384 6377 0
49 -6381 -6382 6376 0
49 -6381 -6383 6377 0
49 -6381 -6384 6378 0
49 -1448 6382 0
49 -6385 6382 0
49 -6386 6383 0
49 -6385 -1448 6383 0
49 -6386 -1448 6384 0
49 -1447 6385 0
49 -1446 6385 0
49 -1446 -1447 6386 0
49 -1445 6379 0
49 -6387 6379 0
49 -6388 6380 0
49 -6387 -1445 6380 0
49 -6388 -1445 6381 0
49 -1444 6387 0
49 -1443 6387 0
49 -1443 -1444 6388 0
49 -6374 0
49 1449 1450 1451 1452 1453 1454 0
49 -6398 6389 0
49 -6399 6390 0
49 -6400 6391 0
49 -6395 6389 0
49 -6396 6390 0
49 -6397 6391 0
49 -6395 -6398 6390 0
49 -6395 -6399 6391 0
49 -6395 -6400 6392 0
49 -6396 -6398 6391 0
49 -6396 -6399 6392 0
49 -6396 -6400 6393 0
49 -6397 -6398 6392 0
49 -6397 -6399 6393 0
49 -6397 -6400 6394 0
49 -1454 6398 0
49 -6401 6398 0
49 -6402 6399 0
49 -6401 -1454 6399 0
49 -6402 -1454 6400 0
49 -1453 6401 0
49 -1452 6401 0
49 -1452 -1453 6402 0
49 -1451 6395 0
49 -6403 6395 0
49 -6404 6396 0
49 -6403 -1451 6396 0
49 -6404 -1451 6397 0
49 -1450 6403 0
49 -1449 6403 0
49 -1449 -1450 6404 0
49 -6390 0
49 1455 1456 1457 1458 1459 1460 1461 0
49 -6416 6405 0
49 -6417 6406 0
49 -6418 6407 0
49 -6412 6405 0
49 -6413 6406 0
49 -6414 6407 0
49 -6415 6408 0
49 -6412 -6416 6406 0
49 -6412 -6417 6407 0
49 -6412 -6418 6408 0
49 -6413 -6416 6407 0
49 -6413 -6417 6408 0
49 -6413 -6418 6409 0
49 -6414 -6416 6408 0
49 -6414 -6417 6409 0
49 -6414 -6418 6410 0
49 -6415 -6416 6409 0
49 -6415 -6417 6410 0
49 -6415 -6418 6411 0
49 -1461 6416 0
49 -6419 6416 0
49 -6420 6417 0
49 -6419 -1461 6417 0
49 -6420 -1461 6418 0
49 -1460 6419 0
49 -1459 6419 0
49 -1459 -1460 6420 0
49 -6423 6412 0
49 -6424 6413 0
49 -6421 6412 0
49 -6422 6413 0
49 -6421 -6423 6413 0
49 -6421 -6424 6414 0
49 -6422 -6423 6414 0
49 -6422 -6424 6415 0
49 -1458 6423 0
49 -1457 6423 0
49 -1457 -1458 6424 0
49 -1456 6421 0
49 -1455 6421 0
49 -1455 -1456 6422 0
49 -6406 0
49 1462 1463 1464 1465 1466 1467 1468 0
49 -6436 6425 0
49 -6437 6426 0
49 -6438 6427 0
49 -6432 6425 0
49 -6433 6426 0
49 -6434 6427 0
49 -6435 6428 0
49 -6432 -6436 6426 0
49 -6432 -6437 6427 0
49 -6432 -6438 6428 0
49 -6433 -6436 6427 0
49 -6433 -6437 6428 0
49 -6433 -6438 6429 0
49 -6434 -6436 6428 0
49 -6434 -6437 6429 0
49 -6434 -6438 6430 0
49 -6435 -6436 6429 0
49 -6435 -6437 6430 0
49 -6435 -6438 6431 0
49 -1468 6436 0
49 -6439 6436 0
49 -6440 6437 0
49 -6439 -1468 6437 0
49 -6440 -1468 6438 0
49 -1467 6439 0
49 -1466 6439 0
49 -1466 -1467 6440 0
49 -6443 6432 0
49 -6444 6433 0
49 -6441 6432 0
49 -6442 6433 0
49 -6441 -6443 6433 0
49 -6441 -6444 6434 0
49 -6442 -6443 6434 0
49 -6442 -6444 6435 0
49 -1465 6443 0
49 -1464 6443 0
49 -1464 -1465 6444 0
49 -1463 6441 0
49 -1462 6441 0
49 -1462 -1463 6442 0
49 -6426 0
49 1469 0
49 1470 0
49 1471 0
49 1472 0
49 1473 1474 1475 1476 1477 1478 1479 1480 0
49 -6457 6445 0
49 -6458 6446 0
49 -6459 6447 0
49 -6460 6448 0
49 -6453 6445 0
49 -6454 6446 0
49 -6455 6447 0
49 -6456 6448 0
49 -6453 -6457 6446 0
49 -6453 -6458 6447 0
49 -6453 -6459 6448 0
49 -6453 -6460 6449 0
49 -6454 -6457 6447 0
49 -6454 -6458 6448 0
49 -6454 -6459 6449 0
49 -6454 -6460 6450 0
49 -6455 -6457 6448 0
49 -6455 -6458 6449 0
49 -6455 -6459 6450 0
49 -6455 -6460 6451 0
49 -6456 -6457 6449 0
49 -6456 -6458 6450 0
49 -6456 -6459 6451 0
49 -6456 -6460 6452 0
49 -6463 6457 0
49 -6464 6458 0
49 -6461 6457 0
49 -6462 6458 0
49 -6461 -6463 6458 0
49 -6461 -6464 6459 0
49 -6462 -6463 6459 0
49 -6462 -6464 6460 0
49 -1480 6463 0
49 -1479 6463 0
49 -1479 -1480 6464 0
49 -1478 6461 0
49 -1477 6461 0
49 -1477 -1478 6462 0
49 -6467 6453 0
49 -6468 6454 0
49 -6465 6453 0
49 -6466 6454 0
49 -6465 -6467 6454 0
49 -6465 -6468 6455 0
49 -6466 -6467 6455 0
49 -6466 -6468 6456 0
49 -1476 6467 0
49 -1475 6467 0
49 -1475 -1476 6468 0
49 -1474 6465 0
49 -1473 6465 0
49 -1473 -1474 6466 0
49 -6446 0
49 1481 1482 1483 1484 1485 1486 1487 1488 0
49 -6481 6469 0
49 -6482 6470 0
49 -6483 6471 0
49 -6484 6472 0
49 -6477 6469 0
49 -6478 6470 0
49 -6479 6471 0
49 -6480 6472 0
49 -6477 -6481 6470 0
49 -6477 -6482 6471 0
49 -6477 -6483 6472 0
49 -6477 -6484 6473 0
49 -6478 -6481 6471 0
49 -6478 -6482 6472 0
49 -6478 -6483 6473 0
49 -6478 -6484 6474 0
49 -6479 -6481 6472 0
49 -6479 -6482 6473 0
49 -6479 -6483 6474 0
49 -6479 -6484 6475 0
49 -6480 -6481 6473 0
49 -6480 -6482 6474 0
49 -6480 -6483 6475 0
49 -6480 -6484 6476 0
49 -6487 6481 0
49 -6488 6482 0
49 -6485 6481 0
49 -6486 6482 0
49 -6485 -6487 6482 0
49 -6485 -6488 6483 0
49 -6486 -6487 6483 0
49 -6486 -6488 6484 0
49 -1488 6487 0
49 -1487 6487 0
49 -1487 -1488 6488 0
49 -1486 6485 0
49 -1485 6485 0
49 -1485 -1486 6486 0
49 -6491 6477 0
49 -6492 6478 0
49 -6489 6477 0
49 -6490 6478 0
49 -6489 -6491 6478 0
49 -6489 -6492 6479 0
49 -6490 -6491 6479 0
49 -6490 -6492 6480 0
49 -1484 6491 0
49 -1483 6491 0
49 -1483 -1484 6492 0
49 -1482 6489 0
49 -1481 6489 0
49 -1481 -1482 6490 0
49 -6470 0
49 1489 1490 1491 1492 1493 1494 1495 1496 0
49 -6505 6493 0
49 -6506 6494 0
49 -6507 6495 0
49 -6508 6496 0
49 -6501 6493 0
49 -6502 6494 0
49 -6503 6495 0
49 -6504 6496 0
49 -6501 -6505 6494 0
49 -6501 -6506 6495 0
49 -6501 -6507 6496 0
49 -6501 -6508 6497 0
49 -6502 -6505 6495 0
49 -6502 -6506 6496 0
49 -6502 -6507 6497 0
49 -6502 -6508 6498 0
49 -6503 -6505 6496 0
49 -6503 -6506 6497 0
49 -6503 -6507 6498 0
49 -6503 -6508 6499 0
49 -6504 -6505 6497 0
49 -6504 -6506 6498 0
49 -6504 -6507 6499 0
49 -6504 -6508 6500 0
49 -6511 6505 0
49 -6512 6506 0
49 -6509 6505 0
49 -6510 6506 0
49 -6509 -6511 6506 0
49 -6509 -6512 6507 0
49 -6510 -6511 6507 0
49 -6510 -6512 6508 0
49 -1496 6511 0
49 -1495 6511 0
49 -1495 -1496 6512 0
49 -1494 6509 0
49 -1493 6509 0
49 -1493 -1494 6510 0
49 -6515 6501 0
49 -6516 6502 0
49 -6513 6501 0
49 -6514 6502 0
49 -6513 -6515 6502 0
49 -6513 -6516 6503 0
49 -6514 -6515 6503 0
49 -6514 -6516 6504 0
49 -1492 6515 0
49 -1491 6515 0
49 -1491 -1492 6516 0
49 -1490 6513 0
49 -1489 6513 0
49 -1489 -1490 6514 0
49 -6494 0
49 1497 1498 1499 1500 1501 1502 1503 1504 0
49 -6529 6517 0
49 -6530 6518 0
49 -6531 6519 0
49 -6532 6520 0
49 -6525 6517 0
49 -6526 6518 0
49 -6527 6519 0
49 -6528 6520 0
49 -6525 -6529 6518 0
49 -6525 -6530 6519 0
49 -6525 -6531 6520 0
49 -6525 -6532 6521 0
49 -6526 -6529 6519 0
49 -6526 -6530 6520 0
49 -6526 -6531 6521 0
49 -6526 -6532 6522 0
49 -6527 -6529 6520 0
49 -6527 -6530 6521 0
49 -6527 -6531 6522 0
49 -6527 -6532 6523 0
49 -6528 -6529 6521 0
49 -6528 -6530 6522 0
49 -6528 -6531 6523 0
49 -6528 -6532 6524 0
49 -6535 6529 0
49 -6536 6530 0
49 -6533 6529 0
49 -6534 6530 0
49 -6533 -6535 6530 0
49 -6533 -6536 6531 0
49 -6534 -6535 6531 0
49 -6534 -6536 6532 0
49 -1504 6535 0
49 -1503 6535 0
49 -1503 -1504 6536 0
49 -1502 6533 0
49 -1501 6533 0
49 -1501 -1502 6534 0
49 -6539 6525 0
49 -6540 6526 0
49 -6537 6525 0
49 -6538 6526 0
49 -6537 -6539 6526 0
49 -6537 -6540 6527 0
49 -6538 -6539 6527 0
49 -6538 -6540 6528 0
49 -1500 6539 0
49 -1499 6539 0
49 -1499 -1500 6540 0
49 -1498 6537 0
49 -1497 6537 0
49 -1497 -1498 6538 0
49 -6518 0
49 1505 0
49 1506 0
49 1507 1508 1509 1510 1511 1512 1513 1514 1515 1516 0
49 -6556 6541 0
49 -6557 6542 0
49 -6558 6543 0
49 -6559 6544 0
49 -6560 6545 0
49 -6551 6541 0
49 -6552 6542 0
49 -6553 6543 0
49 -6554 6544 0
49 -6555 6545 0
49 -6551 -6556 6542 0
49 -6551 -6557 6543 0
49 -6551 -6558 6544 0
49 -6551 -6559 6545 0
49 -6551 -6560 6546 0
49 -6552 -6556 6543 0
49 -6552 -6557 6544 0
49 -6552 -6558 6545 0
49 -6552 -6559 6546 0
49 -6552 -6560 6547 0
49 -6553 -6556 6544 0
49 -6553 -6557 6545 0
49 -6553 -6558 6546 0
49 -6553 -6559 6547 0
49 -6553 -6560 6548 0
49 -6554 -6556 6545 0
49 -6554 -6557 6546 0
49 -6554 -6558 6547 0
49 -6554 -6559 6548 0
49 -6554 -6560 6549 0
49 -6555 -6556 6546 0
49 -6555 -6557 6547 0
49 -6555 -6558 6548 0
49 -6555 -6559 6549 0
49 -6555 -6560 6550 0
49 -6564 6556 0
49 -6565 6557 0
49 -6561 6556 0
49 -6562 6557 0
49 -6563 6558 0
49 -6561 -6564 6557 0
49 -6561 -6565 6558 0
49 -6562 -6564 6558 0
49 -6562 -6565 6559 0
49 -6563 -6564 6559 0
49 -6563 -6565 6560 0
49 -1516 6564 0
49 -1515 6564 0
49 -1515 -1516 6565 0
49 -1514 6561 0
49 -6566 6561 0
49 -6567 6562 0
49 -6566 -1514 6562 0
49 -6567 -1514 6563 0
49 -1513 6566 0
49 -1512 6566 0
49 -1512 -1513 6567 0
49 -6571 6551 0
49 -6572 6552 0
49 -6568 6551 0
49 -6569 6552 0
49 -6570 6553 0
49 -6568 -6571 6552 0
49 -6568 -6572 6553 0
49 -6569 -6571 6553 0
49 -6569 -6572 6554 0
49 -6570 -6571 6554 0
49 -6570 -6572 6555 0
49 -1511 6571 0
49 -1510 6571 0
49 -1510 -1511 6572 0
49 -1509 6568 0
49 -6573 6568 0
49 -6574 6569 0
49 -6573 -1509 6569 0
49 -6574 -1509 6570 0
49 -1508 6573 0
49 -1507 6573 0
49 -1507 -1508 6574 0
49 -6542 0
49 1517 1518 1519 1520 1521 1522 1523 1524 1525 1526 0
49 -6590 6575 0
49 -6591 6576 0
49 -6592 6577 0
49 -6593 6578 0
49 -6594 6579 0
49 -6585 6575 0
49 -6586 6576 0
49 -6587 6577 0
49 -6588 6578 0
49 -6589 6579 0
49 -6585 -6590 6576 0
49 -6585 -6591 6577 0
49 -6585 -6592 6578 0
49 -6585 -6593 6579 0
49 -6585 -6594 6580 0
49 -6586 -6590 6577 0
49 -6586 -6591 6578 0
49 -6586 -6592 6579 0
49 -6586 -6593 6580 0
49 -6586 -6594 6581 0
49 -6587 -6590 6578 0
49 -6587 -6591 6579 0
49 -6587 -6592 6580 0
49 -6587 -6593 6581 0
49 -6587 -6594 6582 0
49 -6588 -6590 6579 0
49 -6588 -6591 6580 0
49 -6588 -6592 6581 0
49 -6588 -6593 6582 0
49 -6588 -6594 6583 0
49 -6589 -6590 6580 0
49 -6589 -6591 6581 0
49 -6589 -6592 6582 0
49 -6589 -6593 6583 0
49 -6589 -6594 6584 0
49 -6598 6590 0
49 -6599 6591 0
49 -6595 6590 0
49 -6596 6591 0
49 -6597 6592 0
49 -6595 -6598 6591 0
49 -6595 -6599 6592 0
49 -6596 -6598 6592 0
49 -6596 -6599 6593 0
49 -6597 -6598 6593 0
49 -6597 -6599 6594 0
49 -1526 6598 0
49 -1525 6598 0
49 -1525 -1526 6599 0
49 -1524 6595 0
49 -6600 6595 0
49 -6601 6596 0
49 -6600 -1524 6596 0
49 -6601 -1524 6597 0
49 -1523 6600 0
49 -1522 6600 0
49 -1522 -1523 6601 0
49 -6605 6585 0
49 -6606 6586 0
49 -6602 6585 0
49 -6603 6586 0
49 -6604 6587 0
49 -6602 -6605 6586 0
49 -6602 -6606 6587 0
49 -6603 -6605 6587 0
49 -6603 -6606 6588 0
49 -6604 -6605 6588 0
49 -6604 -6606 6589 0
49 -1521 6605 0
49 -1520 6605 0
49 -1520 -1521 6606 0
49 -1519 6602 0
49 -6607 6602 0
49 -6608 6603 0
49 -6607 -1519 6603 0
49 -6608 -1519 6604 0
49 -1518 6607 0
49 -1517 6607 0
49 -1517 -1518 6608 0
49 -6576 0
49 1527 1528 1529 1530 1531 1532 1533 1534 1535 1536 1537 1538 1539 1540 1541 1542 1543 1544 1545 1546 0
49 -6639 6609 0
49 -6640 6610 0
49 -6641 6611 0
49 -6642 6612 0
49 -6643 6613 0
49 -6644 6614 0
49 -6645 6615 0
49 -6646 6616 0
49 -6647 6617 0
49 -6648 6618 0
49 -6629 6609 0
49 -6630 6610 0
49 -6631 6611 0
49 -6632 6612 0
49 -6633 6613 0
49 -6634 6614 0
49 -6635 6615 0
49 -6636 6616 0
49 -6637 6617 0
49 -6638 6618 0
49 -6629 -6639 6610 0
49 -6629 -6640 6611 0
49 -6629 -6641 6612 0
49 -6629 -6642 6613 0
49 -6629 -6643 6614 0
49 -6629 -6644 6615 0
49 -6629 -6645 6616 0
49 -6629 -6646 6617 0
49 -6629 -6647 6618 0
49 -6629 -6648 6619 0
49 -6630 -6639 6611 0
49 -6630 -6640 6612 0
49 -6630 -6641 6613 0
49 -6630 -6642 6614 0
49 -6630 -6643 6615 0
49 -6630 -6644 6616 0
49 -6630 -6645 6617 0
49 -6630 -6646 6618 0
49 -6630 -6647 6619 0
49 -6630 -6648 6620 0
49 -6631 -6639 6612 0
49 -6631 -6640 6613 0
49 -6631 -6641 6614 0
49 -6631 -6642 6615 0
49 -6631 -6643 6616 0
49 -6631 -6644 6617 0
49 -6631 -6645 6618 0
49 -6631 -6646 6619 0
49 -6631 -6647 6620 0
49 -6631 -6648 6621 0
49 -6632 -6639 6613 0
49 -6632 -6640 6614 0
49 -6632 -6641 6615 0
49 -6632 -6642 6616 0
49 -6632 -6643 6617 0
49 -6632 -6644 6618 0
49 -6632 -6645 6619 0
49 -6632 -6646 6620 0
49 -6632 -6647 6621 0
49 -6632 -6648 6622 0
49 -6633 -6639 6614 0
49 -6633 -6640 6615 0
49 -6633 -6641 6616 0
49 -6633 -6642 6617 0
49 -6633 -6643 6618 0
49 -6633 -6644 6619 0
49 -6633 -6645 6620 0
49 -6633 -6646 6621 0
49 -6633 -6647 6622 0
49 -6633 -6648 6623 0
49 -6634 -6639 6615 0
49 -6634 -6640 6616 0
49 -6634 -6641 6617 0
49 -6634 -6642 6618 0
49 -6634 -6643 6619 0
49 -6634 -6644 6620 0
49 -6634 -6645 6621 0
49 -6634 -6646 6622 0
49 -6634 -6647 6623 0
49 -6634 -6648 6624 0
49 -6635 -6639 6616 0
49 -6635 -6640 6617 0
49 -6635 -6641 6618 0
49 -6635 -6642 6619 0
49 -6635 -6643 6620 0
49 -6635 -6644 6621 0
49 -6635 -6645 6622 0
49 -6635 -6646 6623 0
49 -6635 -6647 6624 0
49 -6635 -6648 6625 0
49 -6636 -6639 6617 0
49 -6636 -6640 6618 0
49 -6636 -6641 6619 0
49 -6636 -6642 6620 0
49 -6636 -6643 6621 0
49 -6636 -6644 6622 0
49 -6636 -6645 6623 0
49 -6636 -6646 6624 0
49 -6636 -6647 6625 0
49 -6636 -6648 6626 0
49 -6637 -6639 6618 0
49 -6637 -6640 6619 0
49 -6637 -6641 6620 0
49 -6637 -6642 6621 0
49 -6637 -6643 6622 0
49 -6637 -6644 6623 0
49 -6637 -6645 6624 0
49 -6637 -6646 6625 0
49 -6637 -6647 6626 0
49 -6637 -6648 6627 0
49 -6638 -6639 6619 0
49 -6638 -6640 6620 0
49 -6638 -6641 6621 0
49 -6638 -6642 6622 0
49 -6638 -6643 6623 0
49 -6638 -6644 6624 0
49 -6638 -6645 6625 0
49 -6638 -6646 6626 0
49 -6638 -6647 6627 0
49 -6638 -6648 6628 0
49 -6654 6639 0
49 -6655 6640 0
49 -6656 6641 0
49 -6657 6642 0
49 -6658 6643 0
49 -6649 6639 0
49 -6650 6640 0
49 -6651 6641 0
49 -6652 6642 0
49 -6653 6643 0
49 -6649 -6654 6640 0
49 -6649 -6655 6641 0
49 -6649 -6656 6642 0
49 -6649 -6657 6643 0
49 -6649 -6658 6644 0
49 -6650 -6654 6641 0
49 -6650 -6655 6642 0
49 -6650 -6656 6643 0
49 -6650 -6657 6644 0
49 -6650 -6658 6645 0
49 -6651 -6654 6642 0
49 -6651 -6655 6643 0
49 -6651 -6656 6644 0
49 -6651 -6657 6645 0
49 -6651 -6658 6646 0
49 -6652 -6654 6643 0
49 -6652 -6655 6644 0
49 -6652 -6656 6645 0
49 -6652 -6657 6646 0
49 -6652 -6658 6647 0
49 -6653 -6654 6644 0
49 -6653 -6655 6645 0
49 -6653 -6656 6646 0
49 -6653 -6657 6647 0
49 -6653 -6658 6648 0
49 -6662 6654 0
49 -6663 6655 0
49 -6659 6654 0
49 -6660 6655 0
49 -6661 6656 0
49 -6659 -6662 6655 0
49 -6659 -6663 6656 0
49 -6660 -6662 6656 0
49 -6660 -6663 6657 0
49 -6661 -6662 6657 0
49 -6661 -6663 6658 0
49 -1546 6662 0
49 -1545 6662 0
49 -1545 -1546 6663 0
49 -1544 6659 0
49 -6664 6659 0
49 -6665 6660 0
49 -6664 -1544 6660 0
49 -6665 -1544 6661 0
49 -1543 6664 0
49 -1542 6664 0
49 -1542 -1543 6665 0
49 -6669 6649 0
49 -6670 6650 0
49 -6666 6649 0
49 -6667 6650 0
49 -6668 6651 0
49 -6666 -6669 6650 0
49 -6666 -6670 6651 0
49 -6667 -6669 6651 0
49 -6667 -6670 6652 0
49 -6668 -6669 6652 0
49 -6668 -6670 6653 0
49 -1541 6669 0
49 -1540 6669 0
49 -1540 -1541 6670 0
49 -1539 6666 0
49 -6671 6666 0
49 -6672 6667 0
49 -6671 -1539 6667 0
49 -6672 -1539 6668 0
49 -1538 6671 0
49 -1537 6671 0
49 -1537 -1538 6672 0
49 -6678 6629 0
49 -6679 6630 0
49 -6680 6631 0
49 -6681 6632 0
49 -6682 6633 0
49 -6673 6629 0
49 -6674 6630 0
49 -6675 6631 0
49 -6676 6632 0
49 -6677 6633 0
49 -6673 -6678 6630 0
49 -6673 -6679 6631 0
49 -6673 -6680 6632 0
49 -6673 -6681 6633 0
49 -6673 -6682 6634 0
49 -6674 -6678 6631 0
49 -6674 -6679 6632 0
49 -6674 -6680 6633 0
49 -6674 -6681 6634 0
49 -6674 -6682 6635 0
49 -6675 -6678 6632 0
49 -6675 -6679 6633 0
49 -6675 -6680 6634 0
49 -6675 -6681 6635 0
49 -6675 -6682 6636 0
49 -6676 -6678 6633 0
49 -6676 -6679 6634 0
49 -6676 -6680 6635 0
49 -6676 -6681 6636 0
49 -6676 -6682 6637 0
49 -6677 -6678 6634 0
49 -6677 -6679 6635 0
49 -6677 -6680 6636 0
49 -6677 -6681 6637 0
49 -6677 -6682 6638 0
49 -6686 6678 0
49 -6687 6679 0
49 -6683 6678 0
49 -6684 6679 0
49 -6685 6680 0
49 -6683 -6686 6679 0
49 -6683 -6687 6680 0
49 -6684 -6686 6680 0
49 -6684 -6687 6681 0
49 -6685 -6686 6681 0
49 -6685 -6687 6682 0
49 -1536 6686 0
49 -1535 6686 0
49 -1535 -1536 6687 0
49 -1534 6683 0
49 -6688 6683 0
49 -6689 6684 0
49 -6688 -1534 6684 0
49 -6689 -1534 6685 0
49 -1533 6688 0
49 -1532 6688 0
49 -1532 -1533 6689 0
49 -6693 6673 0
49 -6694 6674 0
49 -6690 6673 0
49 -6691 6674 0
49 -6692 6675 0
49 -6690 -6693 6674 0
49 -6690 -6694 6675 0
49 -6691 -6693 6675 0
49 -6691 -6694 6676 0
49 -6692 -6693 6676 0
49 -6692 -6694 6677 0
49 -1531 6693 0
49 -1530 6693 0
49 -1530 -1531 6694 0
49 -1529 6690 0
49 -6695 6690 0
49 -6696 6691 0
49 -6695 -1529 6691 0
49 -6696 -1529 6692 0
49 -1528 6695 0
49 -1527 6695 0
49 -1527 -1528 6696 0
49 -6610 0
49 1547 1548 1549 1550 1551 1552 1553 1554 1555 1556 1557 1558 1559 1560 1561 1562 1563 1564 1565 1566 0
49 -6727 6697 0
49 -6728 6698 0
49 -6729 6699 0
49 -6730 6700 0
49 -6731 6701 0
49 -6732 6702 0
49 -6733 6703 0
49 -6734 6704 0
49 -6735 6705 0
49 -6736 6706 0
49 -6717 6697 0
49 -6718 6698 0
49 -6719 6699 0
49 -6720 6700 0
49 -6721 6701 0
49 -6722 6702 0
49 -6723 6703 0
49 -6724 6704 0
49 -6725 6705 0
49 -6726 6706 0
49 -6717 -6727 6698 0
49 -6717 -6728 6699 0
49 -6717 -6729 6700 0
49 -6717 -6730 6701 0
49 -6717 -6731 6702 0
49 -6717 -6732 6703 0
49 -6717 -6733 6704 0
49 -6717 -6734 6705 0
49 -6717 -6735 6706 0
49 -6717 -6736 6707 0
49 -6718 -6727 6699 0
49 -6718 -6728 6700 0
49 -6718 -6729 6701 0
49 -6718 -6730 6702 0
49 -6718 -6731 6703 0
49 -6718 -6732 6704 0
49 -6718 -6733 6705 0
49 -6718 -6734 6706 0
49 -6718 -6735 6707 0
49 -6718 -6736 6708 0
49 -6719 -6727 6700 0
49 -6719 -6728 6701 0
49 -6719 -6729 6702 0
49 -6719 -6730 6703 0
49 -6719 -6731 6704 0
49 -6719 -6732 6705 0
49 -6719 -6733 6706 0
49 -6719 -6734 6707 0
49 -6719 -6735 6708 0
49 -6719 -6736 6709 0
49 -6720 -6727 6701 0
49 -6720 -6728 6702 0
49 -6720 -6729 6703 0
49 -6720 -6730 6704 0
49 -6720 -6731 6705 0
49 -6720 -6732 6706 0
49 -6720 -6733 6707 0
49 -6720 -6734 6708 0
49 -6720 -6735 6709 0
49 -6720 -6736 6710 0
49 -6721 -6727 6702 0
49 -6721 -6728 6703 0
49 -6721 -6729 6704 0
49 -6721 -6730 6705 0
49 -6721 -6731 6706 0
49 -6721 -6732 6707 0
49 -6721 -6733 6708 0
49 -6721 -6734 6709 0
49 -6721 -6735 6710 0
49 -6721 -6736 6711 0
49 -6722 -6727 6703 0
49 -6722 -6728 6704 0
49 -6722 -6729 6705 0
49 -6722 -6730 6706 0
49 -6722 -6731 6707 0
49 -6722 -6732 6708 0
49 -6722 -6733 6709 0
49 -6722 -6734 6710 0
49 -6722 -6735 6711 0
49 -6722 -6736 6712 0
49 -6723 -6727 6704 0
49 -6723 -6728 6705 0
49 -6723 -6729 6706 0
49 -6723 -6730 6707 0
49 -6723 -6731 6708 0
49 -6723 -6732 6709 0
49 -6723 -6733 6710 0
49 -6723 -6734 6711 0
49 -6723 -6735 6712 0
49 -6723 -6736 6713 0
49 -6724 -6727 6705 0
49 -6724 -6728 6706 0
49 -6724 -6729 6707 0
49 -6724 -6730 6708 0
49 -6724 -6731 6709 0
49 -6724 -6732 6710 0
49 -6724 -6733 6711 0
49 -6724 -6734 6712 0
49 -6724 -6735 6713 0
49 -6724 -6736 6714 0
49 -6725 -6727 6706 0
49 -6725 -6728 6707 0
49 -6725 -6729 6708 0
49 -6725 -6730 6709 0
49 -6725 -6731 6710 0
49 -6725 -6732 6711 0
49 -6725 -6733 6712 0
49 -6725 -6734 6713 0
49 -6725 -6735 6714 0
49 -6725 -6736 6715 0
49 -6726 -6727 6707 0
49 -6726 -6728 6708 0
49 -6726 -6729 6709 0
49 -6726 -6730 6710 0
49 -6726 -6731 6711 0
49 -6726 -6732 6712 0
49 -6726 -6733 6713 0
49 -6726 -6734 6714 0
49 -6726 -6735 6715 0
49 -6726 -6736 6716 0
49 -6742 6727 0
49 -6743 6728 0
49 -6744 6729 0
49 -6745 6730 0
49 -6746 6731 0
49 -6737 6727 0
49 -6738 6728 0
49 -6739 6729 0
49 -6740 6730 0
49 -6741 6731 0
49 -6737 -6742 6728 0
49 -6737 -6743 6729 0
49 -6737 -6744 6730 0
49 -6737 -6745 6731 0
49 -6737 -6746 6732 0
49 -6738 -6742 6729 0
49 -6738 -6743 6730 0
49 -6738 -6744 6731 0
49 -6738 -6745 6732 0
49 -6738 -6746 6733 0
49 -6739 -6742 6730 0
49 -6739 -6743 6731 0
49 -6739 -6744 6732 0
49 -6739 -6745 6733 0
49 -6739 -6746 6734 0
49 -6740 -6742 6731 0
49 -6740 -6743 6732 0
49 -6740 -6744 6733 0
49 -6740 -6745 6734 0
49 -6740 -6746 6735 0
49 -6741 -6742 6732 0
49 -6741 -6743 6733 0
49 -6741 -6744 6734 0
49 -6741 -6745 6735 0
49 -6741 -6746 6736 0
49 -6750 6742 0
49 -6751 6743 0
49 -6747 6742 0
49 -6748 6743 0
49 -6749 6744 0
49 -6747 -6750 6743 0
49 -6747 -6751 6744 0
49 -6748 -6750 6744 0
49 -6748 -6751 6745 0
49 -6749 -6750 6745 0
49 -6749 -6751 6746 0
49 -1566 6750 0
49 -1565 6750 0
49 -1565 -1566 6751 0
49 -1564 6747 0
49 -6752 6747 0
49 -6753 6748 0
49 -6752 -1564 6748 0
49 -6753 -1564 6749 0
49 -1563 6752 0
49 -1562 6752 0
49 -1562 -1563 6753 0
49 -6757 6737 0
49 -6758 6738 0
49 -6754 6737 0
49 -6755 6738 0
49 -6756 6739 0
49 -6754 -6757 6738 0
49 -6754 -6758 6739 0
49 -6755 -6757 6739 0
49 -6755 -6758 6740 0
49 -6756 -6757 6740 0
49 -6756 -6758 6741 0
49 -1561 6757 0
49 -1560 6757 0
49 -1560 -1561 6758 0
49 -1559 6754 0
49 -6759 6754 0
49 -6760 6755 0
49 -6759 -1559 6755 0
49 -6760 -1559 6756 0
49 -1558 6759 0
49 -1557 6759 0
49 -1557 -1558 6760 0
49 -6766 6717 0
49 -6767 6718 0
49 -6768 6719 0
49 -6769 6720 0
49 -6770 6721 0
49 -6761 6717 0
49 -6762 6718 0
49 -6763 6719 0
49 -6764 6720 0
49 -6765 6721 0
49 -6761 -6766 6718 0
49 -6761 -6767 6719 0
49 -6761 -6768 6720 0
49 -6761 -6769 6721 0
49 -6761 -6770 6722 0
49 -6762 -6766 6719 0
49 -6762 -6767 6720 0
49 -6762 -6768 6721 0
49 -6762 -6769 6722 0
49 -6762 -6770 6723 0
49 -6763 -6766 6720 0
49 -6763 -6767 6721 0
49 -6763 -6768 6722 0
49 -6763 -6769 6723 0
49 -6763 -6770 6724 0
49 -6764 -6766 6721 0
49 -6764 -6767 6722 0
49 -6764 -6768 6723 0
49 -6764 -6769 6724 0
49 -6764 -6770 6725 0
49 -6765 -6766 6722 0
49 -6765 -6767 6723 0
49 -6765 -6768 6724 0
49 -6765 -6769 6725 0
49 -6765 -6770 6726 0
49 -6774 6766 0
49 -6775 6767 0
49 -6771 6766 0
49 -6772 6767 0
49 -6773 6768 0
49 -6771 -6774 6767 0
49 -6771 -6775 6768 0
49 -6772 -6774 6768 0
49 -6772 -6775 6769 0
49 -6773 -6774 6769 0
49 -6773 -6775 6770 0
49 -1556 6774 0
49 -1555 6774 0
49 -1555 -1556 6775 0
49 -1554 6771 0
49 -6776 6771 0
49 -6777 6772 0
49 -6776 -1554 6772 0
49 -6777 -1554 6773 0
49 -1553 6776 0
49 -1552 6776 0
49 -1552 -1553 6777 0
49 -6781 6761 0
49 -6782 6762 0
49 -6778 6761 0
49 -6779 6762 0
49 -6780 6763 0
49 -6778 -6781 6762 0
49 -6778 -6782 6763 0
49 -6779 -6781 6763 0
49 -6779 -6782 6764 0
49 -6780 -6781 6764 0
49 -6780 -6782 6765 0
49 -1551 6781 0
49 -1550 6781 0
49 -1550 -1551 6782 0
49 -1549 6778 0
49 -6783 6778 0
49 -6784 6779 0
49 -6783 -1549 6779 0
49 -6784 -1549 6780 0
49 -1548 6783 0
49 -1547 6783 0
49 -1547 -1548 6784 0
49 -6698 0
49 1567 1568 1569 1570 1571 1572 1573 1574 0
49 -6797 6785 0
49 -6798 6786 0
49 -6799 6787 0
49 -6800 6788 0
49 -6793 6785 0
49 -6794 6786 0
49 -6795 6787 0
49 -6796 6788 0
49 -6793 -6797 6786 0
49 -6793 -6798 6787 0
49 -6793 -6799 6788 0
49 -6793 -6800 6789 0
49 -6794 -6797 6787 0
49 -6794 -6798 6788 0
49 -6794 -6799 6789 0
49 -6794 -6800 6790 0
49 -6795 -6797 6788 0
49 -6795 -6798 6789 0
49 -6795 -6799 6790 0
49 -6795 -6800 6791 0
49 -6796 -6797 6789 0
49 -6796 -6798 6790 0
49 -6796 -6799 6791 0
49 -6796 -6800 6792 0
49 -6803 6797 0
49 -6804 6798 0
49 -6801 6797 0
49 -6802 6798 0
49 -6801 -6803 6798 0
49 -6801 -6804 6799 0
49 -6802 -6803 6799 0
49 -6802 -6804 6800 0
49 -1574 6803 0
49 -1573 6803 0
49 -1573 -1574 6804 0
49 -1572 6801 0
49 -1571 6801 0
49 -1571 -1572 6802 0
49 -6807 6793 0
49 -6808 6794 0
49 -6805 6793 0
49 -6806 6794 0
49 -6805 -6807 6794 0
49 -6805 -6808 6795 0
49 -6806 -6807 6795 0
49 -6806 -6808 6796 0
49 -1570 6807 0
49 -1569 6807 0
49 -1569 -1570 6808 0
49 -1568 6805 0
49 -1567 6805 0
49 -1567 -1568 6806 0
49 -6786 0
49 1575 1576 1577 1578 1579 1580 1581 1582 0
49 -6821 6809 0
49 -6822 6810 0
49 -6823 6811 0
49 -6824 6812 0
49 -6817 6809 0
49 -6818 6810 0
49 -6819 6811 0
49 -6820 6812 0
49 -6817 -6821 6810 0
49 -6817 -6822 6811 0
49 -6817 -6823 6812 0
49 -6817 -6824 6813 0
49 -6818 -6821 6811 0
49 -6818 -6822 6812 0
49 -6818 -6823 6813 0
49 -6818 -6824 6814 0
49 -6819 -6821 6812 0
49 -6819 -6822 6813 0
49 -6819 -6823 6814 0
49 -6819 -6824 6815 0
49 -6820 -6821 6813 0
49 -6820 -6822 6814 0
49 -6820 -6823 6815 0
49 -6820 -6824 6816 0
49 -6827 6821 0
49 -6828 6822 0
49 -6825 6821 0
49 -6826 6822 0
49 -6825 -6827 6822 0
49 -6825 -6828 6823 0
49 -6826 -6827 6823 0
49 -6826 -6828 6824 0
49 -1582 6827 0
49 -1581 6827 0
49 -1581 -1582 6828 0
49 -1580 6825 0
49 -1579 6825 0
49 -1579 -1580 6826 0
49 -6831 6817 0
49 -6832 6818 0
49 -6829 6817 0
49 -6830 6818 0
49 -6829 -6831 6818 0
49 -6829 -6832 6819 0
49 -6830 -6831 6819 0
49 -6830 -6832 6820 0
49 -1578 6831 0
49 -1577 6831 0
49 -1577 -1578 6832 0
49 -1576 6829 0
49 -1575 6829 0
49 -1575 -1576 6830 0
49 -6810 0
49 1583 1584 1585 1586 1587 1588 1589 1590 0
49 -6845 6833 0
49 -6846 6834 0
49 -6847 6835 0
49 -6848 6836 0
49 -6841 6833 0
49 -6842 6834 0
49 -6843 6835 0
49 -6844 6836 0
49 -6841 -6845 6834 0
49 -6841 -6846 6835 0
49 -6841 -6847 6836 0
49 -6841 -6848 6837 0
49 -6842 -6845 6835 0
49 -6842 -6846 6836 0
49 -6842 -6847 6837 0
49 -6842 -6848 6838 0
49 -6843 -6845 6836 0
49 -6843 -6846 6837 0
49 -6843 -6847 6838 0
49 -6843 -6848 6839 0
49 -6844 -6845 6837 0
49 -6844 -6846 6838 0
49 -6844 -6847 6839 0
49 -6844 -6848 6840 0
49 -6851 6845 0
49 -6852 6846 0
49 -6849 6845 0
49 -6850 6846 0
49 -6849 -6851 6846 0
49 -6849 -6852 6847 0
49 -6850 -6851 6847 0
49 -6850 -6852 6848 0
49 -1590 6851 0
49 -1589 6851 0
49 -1589 -1590 6852 0
49 -1588 6849 0
49 -1587 6849 0
49 -1587 -1588 6850 0
49 -6855 6841 0
49 -6856 6842 0
49 -6853 6841 0
49 -6854 6842 0
49 -6853 -6855 6842 0
49 -6853 -6856 6843 0
49 -6854 -6855 6843 0
49 -6854 -6856 6844 0
49 -1586 6855 0
49 -1585 6855 0
49 -1585 -1586 6856 0
49 -1584 6853 0
49 -1583 6853 0
49 -1583 -1584 6854 0
49 -6834 0
49 1591 1592 1593 1594 1595 1596 1597 1598 0
49 -6869 6857 0
49 -6870 6858 0
49 -6871 6859 0
49 -6872 6860 0
49 -6865 6857 0
49 -6866 6858 0
49 -6867 6859 0
49 -6868 6860 0
49 -6865 -6869 6858 0
49 -6865 -6870 6859 0
49 -6865 -6871 6860 0
49 -6865 -6872 6861 0
49 -6866 -6869 6859 0
49 -6866 -6870 6860 0
49 -6866 -6871 6861 0
49 -6866 -6872 6862 0
49 -6867 -6869 6860 0
49 -6867 -6870 6861 0
49 -6867 -6871 6862 0
49 -6867 -6872 6863 0
49 -6868 -6869 6861 0
49 -6868 -6870 6862 0
49 -6868 -6871 6863 0
49 -6868 -6872 6864 0
49 -6875 6869 0
49 -6876 6870 0
49 -6873 6869 0
49 -6874 6870 0
49 -6873 -6875 6870 0
49 -6873 -6876 6871 0
49 -6874 -6875 6871 0
49 -6874 -6876 6872 0
49 -1598 6875 0
49 -1597 6875 0
49 -1597 -1598 6876 0
49 -1596 6873 0
49 -1595 6873 0
49 -1595 -1596 6874 0
49 -6879 6865 0
49 -6880 6866 0
49 -6877 6865 0
49 -6878 6866 0
49 -6877 -6879 6866 0
49 -6877 -6880 6867 0
49 -6878 -6879 6867 0
49 -6878 -6880 6868 0
49 -1594 6879 0
49 -1593 6879 0
49 -1593 -1594 6880 0
49 -1592 6877 0
49 -1591 6877 0
49 -1591 -1592 6878 0
49 -6858 0
49 1599 0
49 1600 0
49 1601 1602 1603 1604 1605 1606 0
49 -6890 6881 0
49 -6891 6882 0
49 -6892 6883 0
49 -6887 6881 0
49 -6888 6882 0
49 -6889 6883 0
49 -6887 -6890 6882 0
49 -6887 -6891 6883 0
49 -6887 -6892 6884 0
49 -6888 -6890 6883 0
49 -6888 -6891 6884 0
49 -6888 -6892 6885 0
49 -6889 -6890 6884 0
49 -6889 -6891 6885 0
49 -6889 -6892 6886 0
49 -1606 6890 0
49 -6893 6890 0
49 -6894 6891 0
49 -6893 -1606 6891 0
49 -6894 -1606 6892 0
49 -1605 6893 0
49 -1604 6893 0
49 -1604 -1605 6894 0
49 -1603 6887 0
49 -6895 6887 0
49 -6896 6888 0
49 -6895 -1603 6888 0
49 -6896 -1603 6889 0
49 -1602 6895 0
49 -1601 6895 0
49 -1601 -1602 6896 0
49 -6882 0
49 1607 1608 1609 1610 1611 1612 0
49 -6906 6897 0
49 -6907 6898 0
49 -6908 6899 0
49 -6903 6897 0
49 -6904 6898 0
49 -6905 6899 0
49 -6903 -6906 6898 0
49 -6903 -6907 6899 0
49 -6903 -6908 6900 0
49 -6904 -6906 6899 0
49 -6904 -6907 6900 0
49 -6904 -6908 6901 0
49 -6905 -6906 6900 0
49 -6905 -6907 6901 0
49 -6905 -6908 6902 0
49 -1612 6906 0
49 -6909 6906 0
49 -6910 6907 0
49 -6909 -1612 6907 0
49 -6910 -1612 6908 0
49 -1611 6909 0
49 -1610 6909 0
49 -1610 -1611 6910 0
49 -1609 6903 0
49 -6911 6903 0
49 -6912 6904 0
49 -6911 -1609 6904 0
49 -6912 -1609 6905 0
49 -1608 6911 0
49 -1607 6911 0
49 -1607 -1608 6912 0
49 -6898 0
49 1613 0
49 1614 0
49 1615 1616 1617 1618 1619 1620 1621 1622 0
49 -6925 6913 0
49 -6926 6914 0
49 -6927 6915 0
49 -6928 6916 0
49 -6921 6913 0
49 -6922 6914 0
49 -6923 6915 0
49 -6924 6916 0
49 -6921 -6925 6914 0
49 -6921 -6926 6915 0
49 -6921 -6927 6916 0
49 -6921 -6928 6917 0
49 -6922 -6925 6915 0
49 -6922 -6926 6916 0
49 -6922 -6927 6917 0
49 -6922 -6928 6918 0
49 -6923 -6925 6916 0
49 -6923 -6926 6917 0
49 -6923 -6927 6918 0
49 -6923 -6928 6919 0
49 -6924 -6925 6917 0
49 -6924 -6926 6918 0
49 -6924 -6927 6919 0
49 -6924 -6928 6920 0
49 -6931 6925 0
49 -6932 6926 0
49 -6929 6925 0
49 -6930 6926 0
49 -6929 -6931 6926 0
49 -6929 -6932 6927 0
49 -6930 -6931 6927 0
49 -6930 -6932 6928 0
49 -1622 6931 0
49 -1621 6931 0
49 -1621 -1622 6932 0
49 -1620 6929 0
49 -1619 6929 0
49 -1619 -1620 6930 0
49 -6935 6921 0
49 -6936 6922 0
49 -6933 6921 0
49 -6934 6922 0
49 -6933 -6935 6922 0
49 -6933 -6936 6923 0
49 -6934 -6935 6923 0
49 -6934 -6936 6924 0
49 -1618 6935 0
49 -1617 6935 0
49 -1617 -1618 6936 0
49 -1616 6933 0
49 -1615 6933 0
49 -1615 -1616 6934 0
49 -6914 0
49 1623 1624 1625 1626 1627 1628 1629 1630 0
49 -6949 6937 0
49 -6950 6938 0
49 -6951 6939 0
49 -6952 6940 0
49 -6945 6937 0
49 -6946 6938 0
49 -6947 6939 0
49 -6948 6940 0
49 -6945 -6949 6938 0
49 -6945 -6950 6939 0
49 -6945 -6951 6940 0
49 -6945 -6952 6941 0
49 -6946 -6949 6939 0
49 -6946 -6950 6940 0
49 -6946 -6951 6941 0
49 -6946 -6952 6942 0
49 -6947 -6949 6940 0
49 -6947 -6950 6941 0
49 -6947 -6951 6942 0
49 -6947 -6952 6943 0
49 -6948 -6949 6941 0
49 -6948 -6950 6942 0
49 -6948 -6951 6943 0
49 -6948 -6952 6944 0
49 -6955 6949 0
49 -6956 6950 0
49 -6953 6949 0
49 -6954 6950 0
49 -6953 -6955 6950 0
49 -6953 -6956 6951 0
49 -6954 -6955 6951 0
49 -6954 -6956 6952 0
49 -1630 6955 0
49 -1629 6955 0
49 -1629 -1630 6956 0
49 -1628 6953 0
49 -1627 6953 0
49 -1627 -1628 6954 0
49 -6959 6945 0
49 -6960 6946 0
49 -6957 6945 0
49 -6958 6946 0
49 -6957 -6959 6946 0
49 -6957 -6960 6947 0
49 -6958 -6959 6947 0
49 -6958 -6960 6948 0
49 -1626 6959 0
49 -1625 6959 0
49 -1625 -1626 6960 0
49 -1624 6957 0
49 -1623 6957 0
49 -1623 -1624 6958 0
49 -6938 0
49 1631 0
49 1632 0
49 1633 0
49 1634 0
49 1635 0
49 1636 0
49 1637 0
49 1638 0
49 1639 0
49 1640 0
49 1641 1642 1643 1644 1645 1646 0
49 -6970 6961 0
49 -6971 6962 0
49 -6972 6963 0
49 -6967 6961 0
49 -6968 6962 0
49 -6969 6963 0
49 -6967 -6970 6962 0
49 -6967 -6971 6963 0
49 -6967 -6972 6964 0
49 -6968 -6970 6963 0
49 -6968 -6971 6964 0
49 -6968 -6972 6965 0
49 -6969 -6970 6964 0
49 -6969 -6971 6965 0
49 -6969 -6972 6966 0
49 -1646 6970 0
49 -6973 6970 0
49 -6974 6971 0
49 -6973 -1646 6971 0
49 -6974 -1646 6972 0
49 -1645 6973 0
49 -1644 6973 0
49 -1644 -1645 6974 0
49 -1643 6967 0
49 -6975 6967 0
49 -6976 6968 0
49 -6975 -1643 6968 0
49 -6976 -1643 6969 0
49 -1642 6975 0
49 -1641 6975 0
49 -1641 -1642 6976 0
49 -6962 0
49 1647 1648 1649 1650 1651 1652 0
49 -6986 6977 0
49 -6987 6978 0
49 -6988 6979 0
49 -6983 6977 0
49 -6984 6978 0
49 -6985 6979 0
49 -6983 -6986 6978 0
49 -6983 -6987 6979 0
49 -6983 -6988 6980 0
49 -6984 -6986 6979 0
49 -6984 -6987 6980 0
49 -6984 -6988 6981 0
49 -6985 -6986 6980 0
49 -6985 -6987 6981 0
49 -6985 -6988 6982 0
49 -1652 6986 0
49 -6989 6986 0
49 -6990 6987 0
49 -6989 -1652 6987 0
49 -6990 -1652 6988 0
49 -1651 6989 0
49 -1650 6989 0
49 -1650 -1651 6990 0
49 -1649 6983 0
49 -6991 6983 0
49 -6992 6984 0
49 -6991 -1649 6984 0
49 -6992 -1649 6985 0
49 -1648 6991 0
49 -1647 6991 0
49 -1647 -1648 6992 0
49 -6978 0
49 1653 0
49 1654 0
49 1655 1656 1657 1658 1659 1660 1661 1662 0
49 -7005 6993 0
49 -7006 6994 0
49 -7007 6995 0
49 -7008 6996 0
49 -7001 6993 0
49 -7002 6994 0
49 -7003 6995 0
49 -7004 6996 0
49 -7001 -7005 6994 0
49 -7001 -7006 6995 0
49 -7001 -7007 6996 0
49 -7001 -7008 6997 0
49 -7002 -7005 6995 0
49 -7002 -7006 6996 0
49 -7002 -7007 6997 0
49 -7002 -7008 6998 0
49 -7003 -7005 6996 0
49 -7003 -7006 6997 0
49 -7003 -7007 6998 0
49 -7003 -7008 6999 0
49 -7004 -7005 6997 0
49 -7004 -7006 6998 0
49 -7004 -7007 6999 0
49 -7004 -7008 7000 0
49 -7011 7005 0
49 -7012 7006 0
49 -7009 7005 0
49 -7010 7006 0
49 -7009 -7011 7006 0
49 -7009 -7012 7007 0
49 -7010 -7011 7007 0
49 -7010 -7012 7008 0
49 -1662 7011 0
49 -1661 7011 0
49 -1661 -1662 7012 0
49 -1660 7009 0
49 -1659 7009 0
49 -1659 -1660 7010 0
49 -7015 7001 0
49 -7016 7002 0
49 -7013 7001 0
49 -7014 7002 0
49 -7013 -7015 7002 0
49 -7013 -7016 7003 0
49 -7014 -7015 7003 0
49 -7014 -7016 7004 0
49 -1658 7015 0
49 -1657 7015 0
49 -1657 -1658 7016 0
49 -1656 7013 0
49 -1655 7013 0
49 -1655 -1656 7014 0
49 -6994 0
49 1663 1664 1665 1666 1667 1668 1669 1670 0
49 -7029 7017 0
49 -7030 7018 0
49 -7031 7019 0
49 -7032 7020 0
49 -7025 7017 0
49 -7026 7018 0
49 -7027 7019 0
49 -7028 7020 0
49 -7025 -7029 7018 0
49 -7025 -7030 7019 0
49 -7025 -7031 7020 0
49 -7025 -7032 7021 0
49 -7026 -7029 7019 0
49 -7026 -7030 7020 0
49 -7026 -7031 7021 0
49 -7026 -7032 7022 0
49 -7027 -7029 7020 0
49 -7027 -7030 7021 0
49 -7027 -7031 7022 0
49 -7027 -7032 7023 0
49 -7028 -7029 7021 0
49 -7028 -7030 7022 0
49 -7028 -7031 7023 0
49 -7028 -7032 7024 0
49 -7035 7029 0
49 -7036 7030 0
49 -7033 7029 0
49 -7034 7030 0
49 -7033 -7035 7030 0
49 -7033 -7036 7031 0
49 -7034 -7035 7031 0
49 -7034 -7036 7032 0
49 -1670 7035 0
49 -1669 7035 0
49 -1669 -1670 7036 0
49 -1668 7033 0
49 -1667 7033 0
49 -1667 -1668 7034 0
49 -7039 7025 0
49 -7040 7026 0
49 -7037 7025 0
49 -7038 7026 0
49 -7037 -7039 7026 0
49 -7037 -7040 7027 0
49 -7038 -7039 7027 0
49 -7038 -7040 7028 0
49 -1666 7039 0
49 -1665 7039 0
49 -1665 -1666 7040 0
49 -1664 7037 0
49 -1663 7037 0
49 -1663 -1664 7038 0
49 -7018 0
49 1671 0
49 1672 0
49 1673 1674 0
49 -1673 -1674 0
49 1675 1676 0
49 -1675 -1676 0
49 1677 1678 1679 1680 1681 1682 1683 1684 0
49 -7053 7041 0
49 -7054 7042 0
49 -7055 7043 0
49 -7056 7044 0
49 -7049 7041 0
49 -7050 7042 0
49 -7051 7043 0
49 -7052 7044 0
49 -7049 -7053 7042 0
49 -7049 -7054 7043 0
49 -7049 -7055 7044 0
49 -7049 -7056 7045 0
49 -7050 -7053 7043 0
49 -7050 -7054 7044 0
49 -7050 -7055 7045 0
49 -7050 -7056 7046 0
49 -7051 -7053 7044 0
49 -7051 -7054 7045 0
49 -7051 -7055 7046 0
49 -7051 -7056 7047 0
49 -7052 -7053 7045 0
49 -7052 -7054 7046 0
49 -7052 -7055 7047 0
49 -7052 -7056 7048 0
49 -7059 7053 0
49 -7060 7054 0
49 -7057 7053 0
49 -7058 7054 0
49 -7057 -7059 7054 0
49 -7057 -7060 7055 0
49 -7058 -7059 7055 0
49 -7058 -7060 7056 0
49 -1684 7059 0
49 -1683 7059 0
49 -1683 -1684 7060 0
49 -1682 7057 0
49 -1681 7057 0
49 -1681 -1682 7058 0
49 -7063 7049 0
49 -7064 7050 0
49 -7061 7049 0
49 -7062 7050 0
49 -7061 -7063 7050 0
49 -7061 -7064 7051 0
49 -7062 -7063 7051 0
49 -7062 -7064 7052 0
49 -1680 7063 0
49 -1679 7063 0
49 -1679 -1680 7064 0
49 -1678 7061 0
49 -1677 7061 0
49 -1677 -1678 7062 0
49 -7042 0
49 1685 1686 1687 1688 1689 1690 1691 1692 0
49 -7077 7065 0
49 -7078 7066 0
49 -7079 7067 0
49 -7080 7068 0
49 -7073 7065 0
49 -7074 7066 0
49 -7075 7067 0
49 -7076 7068 0
49 -7073 -7077 7066 0
49 -7073 -7078 7067 0
49 -7073 -7079 7068 0
49 -7073 -7080 7069 0
49 -7074 -7077 7067 0
49 -7074 -7078 7068 0
49 -7074 -7079 7069 0
49 -7074 -7080 7070 0
49 -7075 -7077 7068 0
49 -7075 -7078 7069 0
49 -7075 -7079 7070 0
49 -7075 -7080 7071 0
49 -7076 -7077 7069 0
49 -7076 -7078 7070 0
49 -7076 -7079 7071 0
49 -7076 -7080 7072 0
49 -7083 7077 0
49 -7084 7078 0
49 -7081 7077 0
49 -7082 7078 0
49 -7081 -7083 7078 0
49 -7081 -7084 7079 0
49 -7082 -7083 7079 0
49 -7082 -7084 7080 0
49 -1692 7083 0
49 -1691 7083 0
49 -1691 -1692 7084 0
49 -1690 7081 0
49 -1689 7081 0
49 -1689 -1690 7082 0
49 -7087 7073 0
49 -7088 7074 0
49 -7085 7073 0
49 -7086 7074 0
49 -7085 -7087 7074 0
49 -7085 -7088 7075 0
49 -7086 -7087 7075 0
49 -7086 -7088 7076 0
49 -1688 7087 0
49 -1687 7087 0
49 -1687 -1688 7088 0
49 -1686 7085 0
49 -1685 7085 0
49 -1685 -1686 7086 0
49 -7066 0
49 1693 0
49 1694 0
49 1695 0
49 1696 0
49 1697 1698 0
49 -1697 -1698 0
49 1699 1700 0
49 -1699 -1700 0
49 1701 1702 1703 1704 1705 1706 1707 1708 0
49 -7101 7089 0
49 -7102 7090 0
49 -7103 7091 0
49 -7104 7092 0
49 -7097 7089 0
49 -7098 7090 0
49 -7099 7091 0
49 -7100 7092 0
49 -7097 -7101 7090 0
49 -7097 -7102 7091 0
49 -7097 -7103 7092 0
49 -7097 -7104 7093 0
49 -7098 -7101 7091 0
49 -7098 -7102 7092 0
49 -7098 -7103 7093 0
49 -7098 -7104 7094 0
49 -7099 -7101 7092 0
49 -7099 -7102 7093 0
49 -7099 -7103 7094 0
49 -7099 -7104 7095 0
49 -7100 -7101 7093 0
49 -7100 -7102 7094 0
49 -7100 -7103 7095 0
49 -7100 -7104 7096 0
49 -7107 7101 0
49 -7108 7102 0
49 -7105 7101 0
49 -7106 7102 0
49 -7105 -7107 7102 0
49 -7105 -7108 7103 0
49 -7106 -7107 7103 0
49 -7106 -7108 7104 0
49 -1708 7107 0
49 -1707 7107 0
49 -1707 -1708 7108 0
49 -1706 7105 0
49 -1705 7105 0
49 -1705 -1706 7106 0
49 -7111 7097 0
49 -7112 7098 0
49 -7109 7097 0
49 -7110 7098 0
49 -7109 -7111 7098 0
49 -7109 -7112 7099 0
49 -7110 -7111 7099 0
49 -7110 -7112 7100 0
49 -1704 7111 0
49 -1703 7111 0
49 -1703 -1704 7112 0
49 -1702 7109 0
49 -1701 7109 0
49 -1701 -1702 7110 0
49 -7090 0
49 1709 1710 1711 1712 1713 1714 1715 1716 0
49 -7125 7113 0
49 -7126 7114 0
49 -7127 7115 0
49 -7128 7116 0
49 -7121 7113 0
49 -7122 7114 0
49 -7123 7115 0
49 -7124 7116 0
49 -7121 -7125 7114 0
49 -7121 -7126 7115 0
49 -7121 -7127 7116 0
49 -7121 -7128 7117 0
49 -7122 -7125 7115 0
49 -7122 -7126 7116 0
49 -7122 -7127 7117 0
49 -7122 -7128 7118 0
49 -7123 -7125 7116 0
49 -7123 -7126 7117 0
49 -7123 -7127 7118 0
49 -7123 -7128 7119 0
49 -7124 -7125 7117 0
49 -7124 -7126 7118 0
49 -7124 -7127 7119 0
49 -7124 -7128 7120 0
49 -7131 7125 0
49 -7132 7126 0
49 -7129 7125 0
49 -7130 7126 0
49 -7129 -7131 7126 0
49 -7129 -7132 7127 0
49 -7130 -7131 7127 0
49 -7130 -7132 7128 0
49 -1716 7131 0
49 -1715 7131 0
49 -1715 -1716 7132 0
49 -1714 7129 0
49 -1713 7129 0
49 -1713 -1714 7130 0
49 -7135 7121 0
49 -7136 7122 0
49 -7133 7121 0
49 -7134 7122 0
49 -7133 -7135 7122 0
49 -7133 -7136 7123 0
49 -7134 -7135 7123 0
49 -7134 -7136 7124 0
49 -1712 7135 0
49 -1711 7135 0
49 -1711 -1712 7136 0
49 -1710 7133 0
49 -1709 7133 0
49 -1709 -1710 7134 0
49 -7114 0
49 1717 0
49 1718 0
49 1719 0
49 1720 0
49 1721 0
49 1722 0
49 1723 0
49 1724 0
49 1725 0
49 1726 0
49 1727 0
49 1728 0
49 1729 1730 1731 1732 1733 1734 1735 1736 0
49 -7149 7137 0
49 -7150 7138 0
49 -7151 7139 0
49 -7152 7140 0
49 -7145 7137 0
49 -7146 7138 0
49 -7147 7139 0
49 -7148 7140 0
49 -7145 -7149 7138 0
49 -7145 -7150 7139 0
49 -7145 -7151 7140 0
49 -7145 -7152 7141 0
49 -7146 -7149 7139 0
49 -7146 -7150 7140 0
49 -7146 -7151 7141 0
49 -7146 -7152 7142 0
49 -7147 -7149 7140 0
49 -7147 -7150 7141 0
49 -7147 -7151 7142 0
49 -7147 -7152 7143 0
49 -7148 -7149 7141 0
49 -7148 -7150 7142 0
49 -7148 -7151 7143 0
49 -7148 -7152 7144 0
49 -7155 7149 0
49 -7156 7150 0
49 -7153 7149 0
49 -7154 7150 0
49 -7153 -7155 7150 0
49 -7153 -7156 7151 0
49 -7154 -7155 7151 0
49 -7154 -7156 7152 0
49 -1736 7155 0
49 -1735 7155 0
49 -1735 -1736 7156 0
49 -1734 7153 0
49 -1733 7153 0
49 -1733 -1734 7154 0
49 -7159 7145 0
49 -7160 7146 0
49 -7157 7145 0
49 -7158 7146 0
49 -7157 -7159 7146 0
49 -7157 -7160 7147 0
49 -7158 -7159 7147 0
49 -7158 -7160 7148 0
49 -1732 7159 0
49 -1731 7159 0
49 -1731 -1732 7160 0
49 -1730 7157 0
49 -1729 7157 0
49 -1729 -1730 7158 0
49 -7138 0
49 1737 1738 1739 1740 1741 1742 1743 1744 0
49 -7173 7161 0
49 -7174 7162 0
49 -7175 7163 0
49 -7176 7164 0
49 -7169 7161 0
49 -7170 7162 0
49 -7171 7163 0
49 -7172 7164 0
49 -7169 -7173 7162 0
49 -7169 -7174 7163 0
49 -7169 -7175 7164 0
49 -7169 -7176 7165 0
49 -7170 -7173 7163 0
49 -7170 -7174 7164 0
49 -7170 -7175 7165 0
49 -7170 -7176 7166 0
49 -7171 -7173 7164 0
49 -7171 -7174 7165 0
49 -7171 -7175 7166 0
49 -7171 -7176 7167 0
49 -7172 -7173 7165 0
49 -7172 -7174 7166 0
49 -7172 -7175 7167 0
49 -7172 -7176 7168 0
49 -7179 7173 0
49 -7180 7174 0
49 -7177 7173 0
49 -7178 7174 0
49 -7177 -7179 7174 0
49 -7177 -7180 7175 0
49 -7178 -7179 7175 0
49 -7178 -7180 7176 0
49 -1744 7179 0
49 -1743 7179 0
49 -1743 -1744 7180 0
49 -1742 7177 0
49 -1741 7177 0
49 -1741 -1742 7178 0
49 -7183 7169 0
49 -7184 7170 0
49 -7181 7169 0
49 -7182 7170 0
49 -7181 -7183 7170 0
49 -7181 -7184 7171 0
49 -7182 -7183 7171 0
49 -7182 -7184 7172 0
49 -1740 7183 0
49 -1739 7183 0
49 -1739 -1740 7184 0
49 -1738 7181 0
49 -1737 7181 0
49 -1737 -1738 7182 0
49 -7162 0
49 1745 0
49 1746 0
49 1747 0
49 1748 0
49 1749 1750 1751 1752 1753 1754 1755 1756 0
49 -7197 7185 0
49 -7198 7186 0
49 -7199 7187 0
49 -7200 7188 0
49 -7193 7185 0
49 -7194 7186 0
49 -7195 7187 0
49 -7196 7188 0
49 -7193 -7197 7186 0
49 -7193 -7198 7187 0
49 -7193 -7199 7188 0
49 -7193 -7200 7189 0
49 -7194 -7197 7187 0
49 -7194 -7198 7188 0
49 -7194 -7199 7189 0
49 -7194 -7200 7190 0
49 -7195 -7197 7188 0
49 -7195 -7198 7189 0
49 -7195 -7199 7190 0
49 -7195 -7200 7191 0
49 -7196 -7197 7189 0
49 -7196 -7198 7190 0
49 -7196 -7199 7191 0
49 -7196 -7200 7192 0
49 -7203 7197 0
49 -7204 7198 0
49 -7201 7197 0
49 -7202 7198 0
49 -7201 -7203 7198 0
49 -7201 -7204 7199 0
49 -7202 -7203 7199 0
49 -7202 -7204 7200 0
49 -1756 7203 0
49 -1755 7203 0
49 -1755 -1756 7204 0
49 -1754 7201 0
49 -1753 7201 0
49 -1753 -1754 7202 0
49 -7207 7193 0
49 -7208 7194 0
49 -7205 7193 0
49 -7206 7194 0
49 -7205 -7207 7194 0
49 -7205 -7208 7195 0
49 -7206 -7207 7195 0
49 -7206 -7208 7196 0
49 -1752 7207 0
49 -1751 7207 0
49 -1751 -1752 7208 0
49 -1750 7205 0
49 -1749 7205 0
49 -1749 -1750 7206 0
49 -7186 0
49 1757 1758 1759 1760 1761 1762 1763 1764 0
49 -7221 7209 0
49 -7222 7210 0
49 -7223 7211 0
49 -7224 7212 0
49 -7217 7209 0
49 -7218 7210 0
49 -7219 7211 0
49 -7220 7212 0
49 -7217 -7221 7210 0
49 -7217 -7222 7211 0
49 -7217 -7223 7212 0
49 -7217 -7224 7213 0
49 -7218 -7221 7211 0
49 -7218 -7222 7212 0
49 -7218 -7223 7213 0
49 -7218 -7224 7214 0
49 -7219 -7221 7212 0
49 -7219 -7222 7213 0
49 -7219 -7223 7214 0
49 -7219 -7224 7215 0
49 -7220 -7221 7213 0
49 -7220 -7222 7214 0
49 -7220 -7223 7215 0
49 -7220 -7224 7216 0
49 -7227 7221 0
49 -7228 7222 0
49 -7225 7221 0
49 -7226 7222 0
49 -7225 -7227 7222 0
49 -7225 -7228 7223 0
49 -7226 -7227 7223 0
49 -7226 -7228 7224 0
49 -1764 7227 0
49 -1763 7227 0
49 -1763 -1764 7228 0
49 -1762 7225 0
49 -1761 7225 0
49 -1761 -1762 7226 0
49 -7231 7217 0
49 -7232 7218 0
49 -7229 7217 0
49 -7230 7218 0
49 -7229 -7231 7218 0
49 -7229 -7232 7219 0
49 -7230 -7231 7219 0
49 -7230 -7232 7220 0
49 -1760 7231 0
49 -1759 7231 0
49 -1759 -1760 7232 0
49 -1758 7229 0
49 -1757 7229 0
49 -1757 -1758 7230 0
49 -7210 0
49 1765 0
49 1766 0
49 1767 0
49 1768 0
49 1769 1770 0
49 -1769 -1770 0
49 1771 1772 0
49 -1771 -1772 0
49 1773 0
49 1774 0
49 1775 0
49 1776 0
49 1777 1778 1779 1780 1781 1782 1783 1784 1785 0
49 -7247 7233 0
49 -7248 7234 0
49 -7249 7235 0
49 -7250 7236 0
49 -7242 7233 0
49 -7243 7234 0
49 -7244 7235 0
49 -7245 7236 0
49 -7246 7237 0
49 -7242 -7247 7234 0
49 -7242 -7248 7235 0
49 -7242 -7249 7236 0
49 -7242 -7250 7237 0
49 -7243 -7247 7235 0
49 -7243 -7248 7236 0
49 -7243 -7249 7237 0
49 -7243 -7250 7238 0
49 -7244 -7247 7236 0
49 -7244 -7248 7237 0
49 -7244 -7249 7238 0
49 -7244 -7250 7239 0
49 -7245 -7247 7237 0
49 -7245 -7248 7238 0
49 -7245 -7249 7239 0
49 -7245 -7250 7240 0
49 -7246 -7247 7238 0
49 -7246 -7248 7239 0
49 -7246 -7249 7240 0
49 -7246 -7250 7241 0
49 -7253 7247 0
49 -7254 7248 0
49 -7251 7247 0
49 -7252 7248 0
49 -7251 -7253 7248 0
49 -7251 -7254 7249 0
49 -7252 -7253 7249 0
49 -7252 -7254 7250 0
49 -1785 7253 0
49 -1784 7253 0
49 -1784 -1785 7254 0
49 -1783 7251 0
49 -1782 7251 0
49 -1782 -1783 7252 0
49 -7258 7242 0
49 -7259 7243 0
49 -7255 7242 0
49 -7256 7243 0
49 -7257 7244 0
49 -7255 -7258 7243 0
49 -7255 -7259 7244 0
49 -7256 -7258 7244 0
49 -7256 -7259 7245 0
49 -7257 -7258 7245 0
49 -7257 -7259 7246 0
49 -1781 7258 0
49 -1780 7258 0
49 -1780 -1781 7259 0
49 -1779 7255 0
49 -7260 7255 0
49 -7261 7256 0
49 -7260 -1779 7256 0
49 -7261 -1779 7257 0
49 -1778 7260 0
49 -1777 7260 0
49 -1777 -1778 7261 0
49 -7234 0
49 1786 1787 1788 1789 1790 1791 1792 1793 1794 0
49 -7276 7262 0
49 -7277 7263 0
49 -7278 7264 0
49 -7279 7265 0
49 -7271 7262 0
49 -7272 7263 0
49 -7273 7264 0
49 -7274 7265 0
49 -7275 7266 0
49 -7271 -7276 7263 0
49 -7271 -7277 7264 0
49 -7271 -7278 7265 0
49 -7271 -7279 7266 0
49 -7272 -7276 7264 0
49 -7272 -7277 7265 0
49 -7272 -7278 7266 0
49 -7272 -7279 7267 0
49 -7273 -7276 7265 0
49 -7273 -7277 7266 0
49 -7273 -7278 7267 0
49 -7273 -7279 7268 0
49 -7274 -7276 7266 0
49 -7274 -7277 7267 0
49 -7274 -7278 7268 0
49 -7274 -7279 7269 0
49 -7275 -7276 7267 0
49 -7275 -7277 7268 0
49 -7275 -7278 7269 0
49 -7275 -7279 7270 0
49 -7282 7276 0
49 -7283 7277 0
49 -7280 7276 0
49 -7281 7277 0
49 -7280 -7282 7277 0
49 -7280 -7283 7278 0
49 -7281 -7282 7278 0
49 -7281 -7283 7279 0
49 -1794 7282 0
49 -1793 7282 0
49 -1793 -1794 7283 0
49 -1792 7280 0
49 -1791 7280 0
49 -1791 -1792 7281 0
49 -7287 7271 0
49 -7288 7272 0
49 -7284 7271 0
49 -7285 7272 0
49 -7286 7273 0
49 -7284 -7287 7272 0
49 -7284 -7288 7273 0
49 -7285 -7287 7273 0
49 -7285 -7288 7274 0
49 -7286 -7287 7274 0
49 -7286 -7288 7275 0
49 -1790 7287 0
49 -1789 7287 0
49 -1789 -1790 7288 0
49 -1788 7284 0
49 -7289 7284 0
49 -7290 7285 0
49 -7289 -1788 7285 0
49 -7290 -1788 7286 0
49 -1787 7289 0
49 -1786 7289 0
49 -1786 -1787 7290 0
49 -7263 0
49 1795 1796 1797 1798 1799 0
49 -7299 7291 0
49 -7300 7292 0
49 -7296 7291 0
49 -7297 7292 0
49 -7298 7293 0
49 -7296 -7299 7292 0
49 -7296 -7300 7293 0
49 -7297 -7299 7293 0
49 -7297 -7300 7294 0
49 -7298 -7299 7294 0
49 -7298 -7300 7295 0
49 -1799 7299 0
49 -1798 7299 0
49 -1798 -1799 7300 0
49 -1797 7296 0
49 -7301 7296 0
49 -7302 7297 0
49 -7301 -1797 7297 0
49 -7302 -1797 7298 0
49 -1796 7301 0
49 -1795 7301 0
49 -1795 -1796 7302 0
49 -7292 0
49 1800 1801 1802 1803 1804 0
49 -7311 7303 0
49 -7312 7304 0
49 -7308 7303 0
49 -7309 7304 0
49 -7310 7305 0
49 -7308 -7311 7304 0
49 -7308 -7312 7305 0
49 -7309 -7311 7305 0
49 -7309 -7312 7306 0
49 -7310 -7311 7306 0
49 -7310 -7312 7307 0
49 -1804 7311 0
49 -1803 7311 0
49 -1803 -1804 7312 0
49 -1802 7308 0
49 -7313 7308 0
49 -7314 7309 0
49 -7313 -1802 7309 0
49 -7314 -1802 7310 0
49 -1801 7313 0
49 -1800 7313 0
49 -1800 -1801 7314 0
49 -7304 0
49 1805 1806 0
49 -1805 -1806 0
49 1807 1808 0
49 -1807 -1808 0
49 1809 0
49 1810 0
49 1811 0
49 1812 0
49 1813 0
49 1814 0
49 1815 0
49 1816 0
49 1817 1818 1819 1820 1821 1822 1823 1824 1825 1826 1827 0
49 -7332 7315 0
49 -7333 7316 0
49 -7334 7317 0
49 -7335 7318 0
49 -7336 7319 0
49 -7326 7315 0
49 -7327 7316 0
49 -7328 7317 0
49 -7329 7318 0
49 -7330 7319 0
49 -7331 7320 0
49 -7326 -7332 7316 0
49 -7326 -7333 7317 0
49 -7326 -7334 7318 0
49 -7326 -7335 7319 0
49 -7326 -7336 7320 0
49 -7327 -7332 7317 0
49 -7327 -7333 7318 0
49 -7327 -7334 7319 0
49 -7327 -7335 7320 0
49 -7327 -7336 7321 0
49 -7328 -7332 7318 0
49 -7328 -7333 7319 0
49 -7328 -7334 7320 0
49 -7328 -7335 7321 0
49 -7328 -7336 7322 0
49 -7329 -7332 7319 0
49 -7329 -7333 7320 0
49 -7329 -7334 7321 0
49 -7329 -7335 7322 0
49 -7329 -7336 7323 0
49 -7330 -7332 7320 0
49 -7330 -7333 7321 0
49 -7330 -7334 7322 0
49 -7330 -7335 7323 0
49 -7330 -7336 7324 0
49 -7331 -7332 7321 0
49 -7331 -7333 7322 0
49 -7331 -7334 7323 0
49 -7331 -7335 7324 0
49 -7331 -7336 7325 0
49 -7340 7332 0
49 -7341 7333 0
49 -7337 7332 0
49 -7338 7333 0
49 -7339 7334 0
49 -7337 -7340 7333 0
49 -7337 -7341 7334 0
49 -7338 -7340 7334 0
49 -7338 -7341 7335 0
49 -7339 -7340 7335 0
49 -7339 -7341 7336 0
49 -1827 7340 0
49 -1826 7340 0
49 -1826 -1827 7341 0
49 -1825 7337 0
49 -7342 7337 0
49 -7343 7338 0
49 -7342 -1825 7338 0
49 -7343 -1825 7339 0
49 -1824 7342 0
49 -1823 7342 0
49 -1823 -1824 7343 0
49 -7347 7326 0
49 -7348 7327 0
49 -7349 7328 0
49 -7344 7326 0
49 -7345 7327 0
49 -7346 7328 0
49 -7344 -7347 7327 0
49 -7344 -7348 7328 0
49 -7344 -7349 7329 0
49 -7345 -7347 7328 0
49 -7345 -7348 7329 0
49 -7345 -7349 7330 0
49 -7346 -7347 7329 0
49 -7346 -7348 7330 0
49 -7346 -7349 7331 0
49 -1822 7347 0
49 -7350 7347 0
49 -7351 7348 0
49 -7350 -1822 7348 0
49 -7351 -1822 7349 0
49 -1821 7350 0
49 -1820 7350 0
49 -1820 -1821 7351 0
49 -1819 7344 0
49 -7352 7344 0
49 -7353 7345 0
49 -7352 -1819 7345 0
49 -7353 -1819 7346 0
49 -1818 7352 0
49 -1817 7352 0
49 -1817 -1818 7353 0
49 -7316 0
49 1828 1829 1830 1831 1832 1833 1834 1835 1836 1837 1838 0
49 -7371 7354 0
49 -7372 7355 0
49 -7373 7356 0
49 -7374 7357 0
49 -7375 7358 0
49 -7365 7354 0
49 -7366 7355 0
49 -7367 7356 0
49 -7368 7357 0
49 -7369 7358 0
49 -7370 7359 0
49 -7365 -7371 7355 0
49 -7365 -7372 7356 0
49 -7365 -7373 7357 0
49 -7365 -7374 7358 0
49 -7365 -7375 7359 0
49 -7366 -7371 7356 0
49 -7366 -7372 7357 0
49 -7366 -7373 7358 0
49 -7366 -7374 7359 0
49 -7366 -7375 7360 0
49 -7367 -7371 7357 0
49 -7367 -7372 7358 0
49 -7367 -7373 7359 0
49 -7367 -7374 7360 0
49 -7367 -7375 7361 0
49 -7368 -7371 7358 0
49 -7368 -7372 7359 0
49 -7368 -7373 7360 0
49 -7368 -7374 7361 0
49 -7368 -7375 7362 0
49 -7369 -7371 7359 0
49 -7369 -7372 7360 0
49 -7369 -7373 7361 0
49 -7369 -7374 7362 0
49 -7369 -7375 7363 0
49 -7370 -7371 7360 0
49 -7370 -7372 7361 0
49 -7370 -7373 7362 0
49 -7370 -7374 7363 0
49 -7370 -7375 7364 0
49 -7379 7371 0
49 -7380 7372 0
49 -7376 7371 0
49 -7377 7372 0
49 -7378 7373 0
49 -7376 -7379 7372 0
49 -7376 -7380 7373 0
49 -7377 -7379 7373 0
49 -7377 -7380 7374 0
49 -7378 -7379 7374 0
49 -7378 -7380 7375 0
49 -1838 7379 0
49 -1837 7379 0
49 -1837 -1838 7380 0
49 -1836 7376 0
49 -7381 7376 0
49 -7382 7377 0
49 -7381 -1836 7377 0
49 -7382 -1836 7378 0
49 -1835 7381 0
49 -1834 7381 0
49 -1834 -1835 7382 0
49 -7386 7365 0
49 -7387 7366 0
49 -7388 7367 0
49 -7383 7365 0
49 -7384 7366 0
49 -7385 7367 0
49 -7383 -7386 7366 0
49 -7383 -7387 7367 0
49 -7383 -7388 7368 0
49 -7384 -7386 7367 0
49 -7384 -7387 7368 0
49 -7384 -7388 7369 0
49 -7385 -7386 7368 0
49 -7385 -7387 7369 0
49 -7385 -7388 7370 0
49 -1833 7386 0
49 -7389 7386 0
49 -7390 7387 0
49 -7389 -1833 7387 0
49 -7390 -1833 7388 0
49 -1832 7389 0
49 -1831 7389 0
49 -1831 -1832 7390 0
49 -1830 7383 0
49 -7391 7383 0
49 -7392 7384 0
49 -7391 -1830 7384 0
49 -7392 -1830 7385 0
49 -1829 7391 0
49 -1828 7391 0
49 -1828 -1829 7392 0
49 -7355 0
49 1839 0
49 1840 0
49 1841 0
49 1842 0
49 1843 0
49 1844 0
49 1845 0
49 1846 0
49 1847 0
49 1848 0
49 1849 1850 1851 1852 1853 1854 1855 1856 0
49 -7405 7393 0
49 -7406 7394 0
49 -7407 7395 0
49 -7408 7396 0
49 -7401 7393 0
49 -7402 7394 0
49 -7403 7395 0
49 -7404 7396 0
49 -7401 -7405 7394 0
49 -7401 -7406 7395 0
49 -7401 -7407 7396 0
49 -7401 -7408 7397 0
49 -7402 -7405 7395 0
49 -7402 -7406 7396 0
49 -7402 -7407 7397 0
49 -7402 -7408 7398 0
49 -7403 -7405 7396 0
49 -7403 -7406 7397 0
49 -7403 -7407 7398 0
49 -7403 -7408 7399 0
49 -7404 -7405 7397 0
49 -7404 -7406 7398 0
49 -7404 -7407 7399 0
49 -7404 -7408 7400 0
49 -7411 7405 0
49 -7412 7406 0
49 -7409 7405 0
49 -7410 7406 0
49 -7409 -7411 7406 0
49 -7409 -7412 7407 0
49 -7410 -7411 7407 0
49 -7410 -7412 7408 0
49 -1856 7411 0
49 -1855 7411 0
49 -1855 -1856 7412 0
49 -1854 7409 0
49 -1853 7409 0
49 -1853 -1854 7410 0
49 -7415 7401 0
49 -7416 7402 0
49 -7413 7401 0
49 -7414 7402 0
49 -7413 -7415 7402 0
49 -7413 -7416 7403 0
49 -7414 -7415 7403 0
49 -7414 -7416 7404 0
49 -1852 7415 0
49 -1851 7415 0
49 -1851 -1852 7416 0
49 -1850 7413 0
49 -1849 7413 0
49 -1849 -1850 7414 0
49 -7394 0
49 1857 1858 1859 1860 1861 1862 1863 1864 0
49 -7429 7417 0
49 -7430 7418 0
49 -7431 7419 0
49 -7432 7420 0
49 -7425 7417 0
49 -7426 7418 0
49 -7427 7419 0
49 -7428 7420 0
49 -7425 -7429 7418 0
49 -7425 -7430 7419 0
49 -7425 -7431 7420 0
49 -7425 -7432 7421 0
49 -7426 -7429 7419 0
49 -7426 -7430 7420 0
49 -7426 -7431 7421 0
49 -7426 -7432 7422 0
49 -7427 -7429 7420 0
49 -7427 -7430 7421 0
49 -7427 -7431 7422 0
49 -7427 -7432 7423 0
49 -7428 -7429 7421 0
49 -7428 -7430 7422 0
49 -7428 -7431 7423 0
49 -7428 -7432 7424 0
49 -7435 7429 0
49 -7436 7430 0
49 -7433 7429 0
49 -7434 7430 0
49 -7433 -7435 7430 0
49 -7433 -7436 7431 0
49 -7434 -7435 7431 0
49 -7434 -7436 7432 0
49 -1864 7435 0
49 -1863 7435 0
49 -1863 -1864 7436 0
49 -1862 7433 0
49 -1861 7433 0
49 -1861 -1862 7434 0
49 -7439 7425 0
49 -7440 7426 0
49 -7437 7425 0
49 -7438 7426 0
49 -7437 -7439 7426 0
49 -7437 -7440 7427 0
49 -7438 -7439 7427 0
49 -7438 -7440 7428 0
49 -1860 7439 0
49 -1859 7439 0
49 -1859 -1860 7440 0
49 -1858 7437 0
49 -1857 7437 0
49 -1857 -1858 7438 0
49 -7418 0
49 1865 0
49 1866 0
49 1867 1868 1869 0
49 -1869 7441 0
49 -7444 7441 0
49 -7445 7442 0
49 -7444 -1869 7442 0
49 -7445 -1869 7443 0
49 -1868 7444 0
49 -1867 7444 0
49 -1867 -1868 7445 0
49 -7442 0
49 1870 1871 1872 0
49 -1872 7446 0
49 -7449 7446 0
49 -7450 7447 0
49 -7449 -1872 7447 0
49 -7450 -1872 7448 0
49 -1871 7449 0
49 -1870 7449 0
49 -1870 -1871 7450 0
49 -7447 0
49 1873 0
49 1874 0
49 1875 0
49 1876 0
49 1877 0
49 1878 0
49 1879 0
49 1880 0
49 1881 1882 1883 0
49 -1883 7451 0
49 -7454 7451 0
49 -7455 7452 0
49 -7454 -1883 7452 0
49 -7455 -1883 7453 0
49 -1882 7454 0
49 -1881 7454 0
49 -1881 -1882 7455 0
49 -7452 0
49 1884 1885 1886 0
49 -1886 7456 0
49 -7459 7456 0
49 -7460 7457 0
49 -7459 -1886 7457 0
49 -7460 -1886 7458 0
49 -1885 7459 0
49 -1884 7459 0
49 -1884 -1885 7460 0
49 -7457 0
49 1887 0
49 1888 0
49 1889 0
49 1890 0
49 1891 0
49 1892 0
49 1893 0
49 1894 0
49 1895 0
49 1896 0
49 1897 0
49 1898 0
49 1899 0
49 1900 0
49 1901 0
49 1902 0
49 1903 0
49 1904 0
49 1905 0
49 1906 0
49 1907 0
49 1908 0
49 1909 1910 1911 1912 1913 1914 1915 1916 1917 1918 1919 0
49 -7478 7461 0
49 -7479 7462 0
49 -7480 7463 0
49 -7481 7464 0
49 -7482 7465 0
49 -7472 7461 0
49 -7473 7462 0
49 -7474 7463 0
49 -7475 7464 0
49 -7476 7465 0
49 -7477 7466 0
49 -7472 -7478 7462 0
49 -7472 -7479 7463 0
49 -7472 -7480 7464 0
49 -7472 -7481 7465 0
49 -7472 -7482 7466 0
49 -7473 -7478 7463 0
49 -7473 -7479 7464 0
49 -7473 -7480 7465 0
49 -7473 -7481 7466 0
49 -7473 -7482 7467 0
49 -7474 -7478 7464 0
49 -7474 -7479 7465 0
49 -7474 -7480 7466 0
49 -7474 -7481 7467 0
49 -7474 -7482 7468 0
49 -7475 -7478 7465 0
49 -7475 -7479 7466 0
49 -7475 -7480 7467 0
49 -7475 -7481 7468 0
49 -7475 -7482 7469 0
49 -7476 -7478 7466 0
49 -7476 -7479 7467 0
49 -7476 -7480 7468 0
49 -7476 -7481 7469 0
49 -7476 -7482 7470 0
49 -7477 -7478 7467 0
49 -7477 -7479 7468 0
49 -7477 -7480 7469 0
49 -7477 -7481 7470 0
49 -7477 -7482 7471 0
49 -7486 7478 0
49 -7487 7479 0
49 -7483 7478 0
49 -7484 7479 0
49 -7485 7480 0
49 -7483 -7486 7479 0
49 -7483 -7487 7480 0
49 -7484 -7486 7480 0
49 -7484 -7487 7481 0
49 -7485 -7486 7481 0
49 -7485 -7487 7482 0
49 -1919 7486 0
49 -1918 7486 0
49 -1918 -1919 7487 0
49 -1917 7483 0
49 -7488 7483 0
49 -7489 7484 0
49 -7488 -1917 7484 0
49 -7489 -1917 7485 0
49 -1916 7488 0
49 -1915 7488 0
49 -1915 -1916 7489 0
49 -7493 7472 0
49 -7494 7473 0
49 -7495 7474 0
49 -7490 7472 0
49 -7491 7473 0
49 -7492 7474 0
49 -7490 -7493 7473 0
49 -7490 -7494 7474 0
49 -7490 -7495 7475 0
49 -7491 -7493 7474 0
49 -7491 -7494 7475 0
49 -7491 -7495 7476 0
49 -7492 -7493 7475 0
49 -7492 -7494 7476 0
49 -7492 -7495 7477 0
49 -1914 7493 0
49 -7496 7493 0
49 -7497 7494 0
49 -7496 -1914 7494 0
49 -7497 -1914 7495 0
49 -1913 7496 0
49 -1912 7496 0
49 -1912 -1913 7497 0
49 -1911 7490 0
49 -7498 7490 0
49 -7499 7491 0
49 -7498 -1911 7491 0
49 -7499 -1911 7492 0
49 -1910 7498 0
49 -1909 7498 0
49 -1909 -1910 7499 0
49 -7462 0
49 1920 1921 1922 1923 1924 1925 1926 1927 1928 1929 1930 0
49 -7517 7500 0
49 -7518 7501 0
49 -7519 7502 0
49 -7520 7503 0
49 -7521 7504 0
49 -7511 7500 0
49 -7512 7501 0
49 -7513 7502 0
49 -7514 7503 0
49 -7515 7504 0
49 -7516 7505 0
49 -7511 -7517 7501 0
49 -7511 -7518 7502 0
49 -7511 -7519 7503 0
49 -7511 -7520 7504 0
49 -7511 -7521 7505 0
49 -7512 -7517 7502 0
49 -7512 -7518 7503 0
49 -7512 -7519 7504 0
49 -7512 -7520 7505 0
49 -7512 -7521 7506 0
49 -7513 -7517 7503 0
49 -7513 -7518 7504 0
49 -7513 -7519 7505 0
49 -7513 -7520 7506 0
49 -7513 -7521 7507 0
49 -7514 -7517 7504 0
49 -7514 -7518 7505 0
49 -7514 -7519 7506 0
49 -7514 -7520 7507 0
49 -7514 -7521 7508 0
49 -7515 -7517 7505 0
49 -7515 -7518 7506 0
49 -7515 -7519 7507 0
49 -7515 -7520 7508 0
49 -7515 -7521 7509 0
49 -7516 -7517 7506 0
49 -7516 -7518 7507 0
49 -7516 -7519 7508 0
49 -7516 -7520 7509 0
49 -7516 -7521 7510 0
49 -7525 7517 0
49 -7526 7518 0
49 -7522 7517 0
49 -7523 7518 0
49 -7524 7519 0
49 -7522 -7525 7518 0
49 -7522 -7526 7519 0
49 -7523 -7525 7519 0
49 -7523 -7526 7520 0
49 -7524 -7525 7520 0
49 -7524 -7526 7521 0
49 -1930 7525 0
49 -1929 7525 0
49 -1929 -1930 7526 0
49 -1928 7522 0
49 -7527 7522 0
49 -7528 7523 0
49 -7527 -1928 7523 0
49 -7528 -1928 7524 0
49 -1927 7527 0
49 -1926 7527 0
49 -1926 -1927 7528 0
49 -7532 7511 0
49 -7533 7512 0
49 -7534 7513 0
49 -7529 7511 0
49 -7530 7512 0
49 -7531 7513 0
49 -7529 -7532 7512 0
49 -7529 -7533 7513 0
49 -7529 -7534 7514 0
49 -7530 -7532 7513 0
49 -7530 -7533 7514 0
49 -7530 -7534 7515 0
49 -7531 -7532 7514 0
49 -7531 -7533 7515 0
49 -7531 -7534 7516 0
49 -1925 7532 0
49 -7535 7532 0
49 -7536 7533 0
49 -7535 -1925 7533 0
49 -7536 -1925 7534 0
49 -1924 7535 0
49 -1923 7535 0
49 -1923 -1924 7536 0
49 -1922 7529 0
49 -7537 7529 0
49 -7538 7530 0
49 -7537 -1922 7530 0
49 -7538 -1922 7531 0
49 -1921 7537 0
49 -1920 7537 0
49 -1920 -1921 7538 0
49 -7501 0
49 1931 0
49 1932 0
49 1933 0
49 1934 0
49 1935 0
49 1936 0
49 1937 0
49 1938 0
49 1939 0
49 1940 0
49 1941 0
49 1942 0
49 1943 1944 1945 1946 1947 0
49 -7547 7539 0
49 -7548 7540 0
49 -7544 7539 0
49 -7545 7540 0
49 -7546 7541 0
49 -7544 -7547 7540 0
49 -7544 -7548 7541 0
49 -7545 -7547 7541 0
49 -7545 -7548 7542 0
49 -7546 -7547 7542 0
49 -7546 -7548 7543 0
49 -1947 7547 0
49 -1946 7547 0
49 -1946 -1947 7548 0
49 -1945 7544 0
49 -7549 7544 0
49 -7550 7545 0
49 -7549 -1945 7545 0
49 -7550 -1945 7546 0
49 -1944 7549 0
49 -1943 7549 0
49 -1943 -1944 7550 0
49 -7540 0
49 1948 1949 1950 1951 1952 0
49 -7559 7551 0
49 -7560 7552 0
49 -7556 7551 0
49 -7557 7552 0
49 -7558 7553 0
49 -7556 -7559 7552 0
49 -7556 -7560 7553 0
49 -7557 -7559 7553 0
49 -7557 -7560 7554 0
49 -7558 -7559 7554 0
49 -7558 -7560 7555 0
49 -1952 7559 0
49 -1951 7559 0
49 -1951 -1952 7560 0
49 -1950 7556 0
49 -7561 7556 0
49 -7562 7557 0
49 -7561 -1950 7557 0
49 -7562 -1950 7558 0
49 -1949 7561 0
49 -1948 7561 0
49 -1948 -1949 7562 0
49 -7552 0
49 1953 1954 1955 1956 1957 1958 1959 1960 0
49 -7575 7563 0
49 -7576 7564 0
49 -7577 7565 0
49 -7578 7566 0
49 -7571 7563 0
49 -7572 7564 0
49 -7573 7565 0
49 -7574 7566 0
49 -7571 -7575 7564 0
49 -7571 -7576 7565 0
49 -7571 -7577 7566 0
49 -7571 -7578 7567 0
49 -7572 -7575 7565 0
49 -7572 -7576 7566 0
49 -7572 -7577 7567 0
49 -7572 -7578 7568 0
49 -7573 -7575 7566 0
49 -7573 -7576 7567 0
49 -7573 -7577 7568 0
49 -7573 -7578 7569 0
49 -7574 -7575 7567 0
49 -7574 -7576 7568 0
49 -7574 -7577 7569 0
49 -7574 -7578 7570 0
49 -7581 7575 0
49 -7582 7576 0
49 -7579 7575 0
49 -7580 7576 0
49 -7579 -7581 7576 0
49 -7579 -7582 7577 0
49 -7580 -7581 7577 0
49 -7580 -7582 7578 0
49 -1960 7581 0
49 -1959 7581 0
49 -1959 -1960 7582 0
49 -1958 7579 0
49 -1957 7579 0
49 -1957 -1958 7580 0
49 -7585 7571 0
49 -7586 7572 0
49 -7583 7571 0
49 -7584 7572 0
49 -7583 -7585 7572 0
49 -7583 -7586 7573 0
49 -7584 -7585 7573 0
49 -7584 -7586 7574 0
49 -1956 7585 0
49 -1955 7585 0
49 -1955 -1956 7586 0
49 -1954 7583 0
49 -1953 7583 0
49 -1953 -1954 7584 0
49 -7564 0
49 1961 1962 1963 1964 1965 1966 1967 1968 0
49 -7599 7587 0
49 -7600 7588 0
49 -7601 7589 0
49 -7602 7590 0
49 -7595 7587 0
49 -7596 7588 0
49 -7597 7589 0
49 -7598 7590 0
49 -7595 -7599 7588 0
49 -7595 -7600 7589 0
49 -7595 -7601 7590 0
49 -7595 -7602 7591 0
49 -7596 -7599 7589 0
49 -7596 -7600 7590 0
49 -7596 -7601 7591 0
49 -7596 -7602 7592 0
49 -7597 -7599 7590 0
49 -7597 -7600 7591 0
49 -7597 -7601 7592 0
49 -7597 -7602 7593 0
49 -7598 -7599 7591 0
49 -7598 -7600 7592 0
49 -7598 -7601 7593 0
49 -7598 -7602 7594 0
49 -7605 7599 0
49 -7606 7600 0
49 -7603 7599 0
49 -7604 7600 0
49 -7603 -7605 7600 0
49 -7603 -7606 7601 0
49 -7604 -7605 7601 0
49 -7604 -7606 7602 0
49 -1968 7605 0
49 -1967 7605 0
49 -1967 -1968 7606 0
49 -1966 7603 0
49 -1965 7603 0
49 -1965 -1966 7604 0
49 -7609 7595 0
49 -7610 7596 0
49 -7607 7595 0
49 -7608 7596 0
49 -7607 -7609 7596 0
49 -7607 -7610 7597 0
49 -7608 -7609 7597 0
49 -7608 -7610 7598 0
49 -1964 7609 0
49 -1963 7609 0
49 -1963 -1964 7610 0
49 -1962 7607 0
49 -1961 7607 0
49 -1961 -1962 7608 0
49 -7588 0
49 1969 1970 1971 0
49 -1971 7611 0
49 -7614 7611 0
49 -7615 7612 0
49 -7614 -1971 7612 0
49 -7615 -1971 7613 0
49 -1970 7614 0
49 -1969 7614 0
49 -1969 -1970 7615 0
49 -7612 0
49 1972 1973 1974 0
49 -1974 7616 0
49 -7619 7616 0
49 -7620 7617 0
49 -7619 -1974 7617 0
49 -7620 -1974 7618 0
49 -1973 7619 0
49 -1972 7619 0
49 -1972 -1973 7620 0
49 -7617 0
49 1975 0
49 1976 0
49 1977 0
49 1978 0
49 1979 1980 1981 1982 1983 1984 1985 1986 0
49 -7633 7621 0
49 -7634 7622 0
49 -7635 7623 0
49 -7636 7624 0
49 -7629 7621 0
49 -7630 7622 0
49 -7631 7623 0
49 -7632 7624 0
49 -7629 -7633 7622 0
49 -7629 -7634 7623 0
49 -7629 -7635 7624 0
49 -7629 -7636 7625 0
49 -7630 -7633 7623 0
49 -7630 -7634 7624 0
49 -7630 -7635 7625 0
49 -7630 -7636 7626 0
49 -7631 -7633 7624 0
49 -7631 -7634 7625 0
49 -7631 -7635 7626 0
49 -7631 -7636 7627 0
49 -7632 -7633 7625 0
49 -7632 -7634 7626 0
49 -7632 -7635 7627 0
49 -7632 -7636 7628 0
49 -7639 7633 0
49 -7640 7634 0
49 -7637 7633 0
49 -7638 7634 0
49 -7637 -7639 7634 0
49 -7637 -7640 7635 0
49 -7638 -7639 7635 0
49 -7638 -7640 7636 0
49 -1986 7639 0
49 -1985 7639 0
49 -1985 -1986 7640 0
49 -1984 7637 0
49 -1983 7637 0
49 -1983 -1984 7638 0
49 -7643 7629 0
49 -7644 7630 0
49 -7641 7629 0
49 -7642 7630 0
49 -7641 -7643 7630 0
49 -7641 -7644 7631 0
49 -7642 -7643 7631 0
49 -7642 -7644 7632 0
49 -1982 7643 0
49 -1981 7643 0
49 -1981 -1982 7644 0
49 -1980 7641 0
49 -1979 7641 0
49 -1979 -1980 7642 0
49 -7622 0
49 1987 1988 1989 1990 1991 1992 1993 1994 0
49 -7657 7645 0
49 -7658 7646 0
49 -7659 7647 0
49 -7660 7648 0
49 -7653 7645 0
49 -7654 7646 0
49 -7655 7647 0
49 -7656 7648 0
49 -7653 -7657 7646 0
49 -7653 -7658 7647 0
49 -7653 -7659 7648 0
49 -7653 -7660 7649 0
49 -7654 -7657 7647 0
49 -7654 -7658 7648 0
49 -7654 -7659 7649 0
49 -7654 -7660 7650 0
49 -7655 -7657 7648 0
49 -7655 -7658 7649 0
49 -7655 -7659 7650 0
49 -7655 -7660 7651 0
49 -7656 -7657 7649 0
49 -7656 -7658 7650 0
49 -7656 -7659 7651 0
49 -7656 -7660 7652 0
49 -7663 7657 0
49 -7664 7658 0
49 -7661 7657 0
49 -7662 7658 0
49 -7661 -7663 7658 0
49 -7661 -7664 7659 0
49 -7662 -7663 7659 0
49 -7662 -7664 7660 0
49 -1994 7663 0
49 -1993 7663 0
49 -1993 -1994 7664 0
49 -1992 7661 0
49 -1991 7661 0
49 -1991 -1992 7662 0
49 -7667 7653 0
49 -7668 7654 0
49 -7665 7653 0
49 -7666 7654 0
49 -7665 -7667 7654 0
49 -7665 -7668 7655 0
49 -7666 -7667 7655 0
49 -7666 -7668 7656 0
49 -1990 7667 0
49 -1989 7667 0
49 -1989 -1990 7668 0
49 -1988 7665 0
49 -1987 7665 0
49 -1987 -1988 7666 0
49 -7646 0
49 1995 0
49 1996 0
49 1997 1998 1999 2000 2001 2002 2003 2004 2005 2006 2007 2008 2009 2010 0
49 -7690 7669 0
49 -7691 7670 0
49 -7692 7671 0
49 -7693 7672 0
49 -7694 7673 0
49 -7695 7674 0
49 -7696 7675 0
49 -7683 7669 0
49 -7684 7670 0
49 -7685 7671 0
49 -7686 7672 0
49 -7687 7673 0
49 -7688 7674 0
49 -7689 7675 0
49 -7683 -7690 7670 0
49 -7683 -7691 7671 0
49 -7683 -7692 7672 0
49 -7683 -7693 7673 0
49 -7683 -7694 7674 0
49 -7683 -7695 7675 0
49 -7683 -7696 7676 0
49 -7684 -7690 7671 0
49 -7684 -7691 7672 0
49 -7684 -7692 7673 0
49 -7684 -7693 7674 0
49 -7684 -7694 7675 0
49 -7684 -7695 7676 0
49 -7684 -7696 7677 0
49 -7685 -7690 7672 0
49 -7685 -7691 7673 0
49 -7685 -7692 7674 0
49 -7685 -7693 7675 0
49 -7685 -7694 7676 0
49 -7685 -7695 7677 0
49 -7685 -7696 7678 0
49 -7686 -7690 7673 0
49 -7686 -7691 7674 0
49 -7686 -7692 7675 0
49 -7686 -7693 7676 0
49 -7686 -7694 7677 0
49 -7686 -7695 7678 0
49 -7686 -7696 7679 0
49 -7687 -7690 7674 0
49 -7687 -7691 7675 0
49 -7687 -7692 7676 0
49 -7687 -7693 7677 0
49 -7687 -7694 7678 0
49 -7687 -7695 7679 0
49 -7687 -7696 7680 0
49 -7688 -7690 7675 0
49 -7688 -7691 7676 0
49 -7688 -7692 7677 0
49 -7688 -7693 7678 0
49 -7688 -7694 7679 0
49 -7688 -7695 7680 0
49 -7688 -7696 7681 0
49 -7689 -7690 7676 0
49 -7689 -7691 7677 0
49 -7689 -7692 7678 0
49 -7689 -7693 7679 0
49 -7689 -7694 7680 0
49 -7689 -7695 7681 0
49 -7689 -7696 7682 0
49 -7701 7690 0
49 -7702 7691 0
49 -7703 7692 0
49 -7697 7690 0
49 -7698 7691 0
49 -7699 7692 0
49 -7700 7693 0
49 -7697 -7701 7691 0
49 -7697 -7702 7692 0
49 -7697 -7703 7693 0
49 -7698 -7701 7692 0
49 -7698 -7702 7693 0
49 -7698 -7703 7694 0
49 -7699 -7701 7693 0
49 -7699 -7702 7694 0
49 -7699 -7703 7695 0
49 -7700 -7701 7694 0
49 -7700 -7702 7695 0
49 -7700 -7703 7696 0
49 -2010 7701 0
49 -7704 7701 0
49 -7705 7702 0
49 -7704 -2010 7702 0
49 -7705 -2010 7703 0
49 -2009 7704 0
49 -2008 7704 0
49 -2008 -2009 7705 0
49 -7708 7697 0
49 -7709 7698 0
49 -7706 7697 0
49 -7707 7698 0
49 -7706 -7708 7698 0
49 -7706 -7709 7699 0
49 -7707 -7708 7699 0
49 -7707 -7709 7700 0
49 -2007 7708 0
49 -2006 7708 0
49 -2006 -2007 7709 0
49 -2005 7706 0
49 -2004 7706 0
49 -2004 -2005 7707 0
49 -7714 7683 0
49 -7715 7684 0
49 -7716 7685 0
49 -7710 7683 0
49 -7711 7684 0
49 -7712 7685 0
49 -7713 7686 0
49 -7710 -7714 7684 0
49 -7710 -7715 7685 0
49 -7710 -7716 7686 0
49 -7711 -7714 7685 0
49 -7711 -7715 7686 0
49 -7711 -7716 7687 0
49 -7712 -7714 7686 0
49 -7712 -7715 7687 0
49 -7712 -7716 7688 0
49 -7713 -7714 7687 0
49 -7713 -7715 7688 0
49 -7713 -7716 7689 0
49 -2003 7714 0
49 -7717 7714 0
49 -7718 7715 0
49 -7717 -2003 7715 0
49 -7718 -2003 7716 0
49 -2002 7717 0
49 -2001 7717 0
49 -2001 -2002 7718 0
49 -7721 7710 0
49 -7722 7711 0
49 -7719 7710 0
49 -7720 7711 0
49 -7719 -7721 7711 0
49 -7719 -7722 7712 0
49 -7720 -7721 7712 0
49 -7720 -7722 7713 0
49 -2000 7721 0
49 -1999 7721 0
49 -1999 -2000 7722 0
49 -1998 7719 0
49 -1997 7719 0
49 -1997 -1998 7720 0
49 -7670 0
49 2011 2012 2013 2014 2015 2016 2017 2018 2019 2020 2021 2022 2023 2024 0
49 -7744 7723 0
49 -7745 7724 0
49 -7746 7725 0
49 -7747 7726 0
49 -7748 7727 0
49 -7749 7728 0
49 -7750 7729 0
49 -7737 7723 0
49 -7738 7724 0
49 -7739 7725 0
49 -7740 7726 0
49 -7741 7727 0
49 -7742 7728 0
49 -7743 7729 0
49 -7737 -7744 7724 0
49 -7737 -7745 7725 0
49 -7737 -7746 7726 0
49 -7737 -7747 7727 0
49 -7737 -7748 7728 0
49 -7737 -7749 7729 0
49 -7737 -7750 7730 0
49 -7738 -7744 7725 0
49 -7738 -7745 7726 0
49 -7738 -7746 7727 0
49 -7738 -7747 7728 0
49 -7738 -7748 7729 0
49 -7738 -7749 7730 0
49 -7738 -7750 7731 0
49 -7739 -7744 7726 0
49 -7739 -7745 7727 0
49 -7739 -7746 7728 0
49 -7739 -7747 7729 0
49 -7739 -7748 7730 0
49 -7739 -7749 7731 0
49 -7739 -7750 7732 0
49 -7740 -7744 7727 0
49 -7740 -7745 7728 0
49 -7740 -7746 7729 0
49 -7740 -7747 7730 0
49 -7740 -7748 7731 0
49 -7740 -7749 7732 0
49 -7740 -7750 7733 0
49 -7741 -7744 7728 0
49 -7741 -7745 7729 0
49 -7741 -7746 7730 0
49 -7741 -7747 7731 0
49 -7741 -7748 7732 0
49 -7741 -7749 7733 0
49 -7741 -7750 7734 0
49 -7742 -7744 7729 0
49 -7742 -7745 7730 0
49 -7742 -7746 7731 0
49 -7742 -7747 7732 0
49 -7742 -7748 7733 0
49 -7742 -7749 7734 0
49 -7742 -7750 7735 0
49 -7743 -7744 7730 0
49 -7743 -7745 7731 0
49 -7743 -7746 7732 0
49 -7743 -7747 7733 0
49 -7743 -7748 7734 0
49 -7743 -7749 7735 0
49 -7743 -7750 7736 0
49 -7755 7744 0
49 -7756 7745 0
49 -7757 7746 0
49 -7751 7744 0
49 -7752 7745 0
49 -7753 7746 0
49 -7754 7747 0
49 -7751 -7755 7745 0
49 -7751 -7756 7746 0
49 -7751 -7757 7747 0
49 -7752 -7755 7746 0
49 -7752 -7756 7747 0
49 -7752 -7757 7748 0
49 -7753 -7755 7747 0
49 -7753 -7756 7748 0
49 -7753 -7757 7749 0
49 -7754 -7755 7748 0
49 -7754 -7756 7749 0
49 -7754 -7757 7750 0
49 -2024 7755 0
49 -7758 7755 0
49 -7759 7756 0
49 -7758 -2024 7756 0
49 -7759 -2024 7757 0
49 -2023 7758 0
49 -2022 7758 0
49 -2022 -2023 7759 0
49 -7762 7751 0
49 -7763 7752 0
49 -7760 7751 0
49 -7761 7752 0
49 -7760 -7762 7752 0
49 -7760 -7763 7753 0
49 -7761 -7762 7753 0
49 -7761 -7763 7754 0
49 -2021 7762 0
49 -2020 7762 0
49 -2020 -2021 7763 0
49 -2019 7760 0
49 -2018 7760 0
49 -2018 -2019 7761 0
49 -7768 7737 0
49 -7769 7738 0
49 -7770 7739 0
49 -7764 7737 0
49 -7765 7738 0
49 -7766 7739 0
49 -7767 7740 0
49 -7764 -7768 7738 0
49 -7764 -7769 7739 0
49 -7764 -7770 7740 0
49 -7765 -7768 7739 0
49 -7765 -7769 7740 0
49 -7765 -7770 7741 0
49 -7766 -7768 7740 0
49 -7766 -7769 7741 0
49 -7766 -7770 7742 0
49 -7767 -7768 7741 0
49 -7767 -7769 7742 0
49 -7767 -7770 7743 0
49 -2017 7768 0
49 -7771 7768 0
49 -7772 7769 0
49 -7771 -2017 7769 0
49 -7772 -2017 7770 0
49 -2016 7771 0
49 -2015 7771 0
49 -2015 -2016 7772 0
49 -7775 7764 0
49 -7776 7765 0
49 -7773 7764 0
49 -7774 7765 0
49 -7773 -7775 7765 0
49 -7773 -7776 7766 0
49 -7774 -7775 7766 0
49 -7774 -7776 7767 0
49 -2014 7775 0
49 -2013 7775 0
49 -2013 -2014 7776 0
49 -2012 7773 0
49 -2011 7773 0
49 -2011 -2012 7774 0
49 -7724 0
49 2025 0
49 2026 0
49 2027 2028 2029 2030 2031 2032 2033 2034 0
49 -7789 7777 0
49 -7790 7778 0
49 -7791 7779 0
49 -7792 7780 0
49 -7785 7777 0
49 -7786 7778 0
49 -7787 7779 0
49 -7788 7780 0
49 -7785 -7789 7778 0
49 -7785 -7790 7779 0
49 -7785 -7791 7780 0
49 -7785 -7792 7781 0
49 -7786 -7789 7779 0
49 -7786 -7790 7780 0
49 -7786 -7791 7781 0
49 -7786 -7792 7782 0
49 -7787 -7789 7780 0
49 -7787 -7790 7781 0
49 -7787 -7791 7782 0
49 -7787 -7792 7783 0
49 -7788 -7789 7781 0
49 -7788 -7790 7782 0
49 -7788 -7791 7783 0
49 -7788 -7792 7784 0
49 -7795 7789 0
49 -7796 7790 0
49 -7793 7789 0
49 -7794 7790 0
49 -7793 -7795 7790 0
49 -7793 -7796 7791 0
49 -7794 -7795 7791 0
49 -7794 -7796 7792 0
49 -2034 7795 0
49 -2033 7795 0
49 -2033 -2034 7796 0
49 -2032 7793 0
49 -2031 7793 0
49 -2031 -2032 7794 0
49 -7799 7785 0
49 -7800 7786 0
49 -7797 7785 0
49 -7798 7786 0
49 -7797 -7799 7786 0
49 -7797 -7800 7787 0
49 -7798 -7799 7787 0
49 -7798 -7800 7788 0
49 -2030 7799 0
49 -2029 7799 0
49 -2029 -2030 7800 0
49 -2028 7797 0
49 -2027 7797 0
49 -2027 -2028 7798 0
49 -7778 0
49 2035 2036 2037 2038 2039 2040 2041 2042 0
49 -7813 7801 0
49 -7814 7802 0
49 -7815 7803 0
49 -7816 7804 0
49 -7809 7801 0
49 -7810 7802 0
49 -7811 7803 0
49 -7812 7804 0
49 -7809 -7813 7802 0
49 -7809 -7814 7803 0
49 -7809 -7815 7804 0
49 -7809 -7816 7805 0
49 -7810 -7813 7803 0
49 -7810 -7814 7804 0
49 -7810 -7815 7805 0
49 -7810 -7816 7806 0
49 -7811 -7813 7804 0
49 -7811 -7814 7805 0
49 -7811 -7815 7806 0
49 -7811 -7816 7807 0
49 -7812 -7813 7805 0
49 -7812 -7814 7806 0
49 -7812 -7815 7807 0
49 -7812 -7816 7808 0
49 -7819 7813 0
49 -7820 7814 0
49 -7817 7813 0
49 -7818 7814 0
49 -7817 -7819 7814 0
49 -7817 -7820 7815 0
49 -7818 -7819 7815 0
49 -7818 -7820 7816 0
49 -2042 7819 0
49 -2041 7819 0
49 -2041 -2042 7820 0
49 -2040 7817 0
49 -2039 7817 0
49 -2039 -2040 7818 0
49 -7823 7809 0
49 -7824 7810 0
49 -7821 7809 0
49 -7822 7810 0
49 -7821 -7823 7810 0
49 -7821 -7824 7811 0
49 -7822 -7823 7811 0
49 -7822 -7824 7812 0
49 -2038 7823 0
49 -2037 7823 0
49 -2037 -2038 7824 0
49 -2036 7821 0
49 -2035 7821 0
49 -2035 -2036 7822 0
49 -7802 0
49 2043 0
49 2044 0
49 2045 2046 2047 2048 0
49 -7831 7825 0
49 -7832 7826 0
49 -7829 7825 0
49 -7830 7826 0
49 -7829 -7831 7826 0
49 -7829 -7832 7827 0
49 -7830 -7831 7827 0
49 -7830 -7832 7828 0
49 -2048 7831 0
49 -2047 7831 0
49 -2047 -2048 7832 0
49 -2046 7829 0
49 -2045 7829 0
49 -2045 -2046 7830 0
49 -7826 0
49 2049 2050 2051 2052 0
49 -7839 7833 0
49 -7840 7834 0
49 -7837 7833 0
49 -7838 7834 0
49 -7837 -7839 7834 0
49 -7837 -7840 7835 0
49 -7838 -7839 7835 0
49 -7838 -7840 7836 0
49 -2052 7839 0
49 -2051 7839 0
49 -2051 -2052 7840 0
49 -2050 7837 0
49 -2049 7837 0
49 -2049 -2050 7838 0
49 -7834 0
49 2053 0
49 2054 0
49 2055 0
49 2056 0
49 2057 0
49 2058 0
49 2059 0
49 2060 0
49 2061 0
49 2062 0
49 2063 0
49 2064 0
49 2065 2066 2067 2068 2069 2070 2071 2072 2073 0
49 -7855 7841 0
49 -7856 7842 0
49 -7857 7843 0
49 -7858 7844 0
49 -7850 7841 0
49 -7851 7842 0
49 -7852 7843 0
49 -7853 7844 0
49 -7854 7845 0
49 -7850 -7855 7842 0
49 -7850 -7856 7843 0
49 -7850 -7857 7844 0
49 -7850 -7858 7845 0
49 -7851 -7855 7843 0
49 -7851 -7856 7844 0
49 -7851 -7857 7845 0
49 -7851 -7858 7846 0
49 -7852 -7855 7844 0
49 -7852 -7856 7845 0
49 -7852 -7857 7846 0
49 -7852 -7858 7847 0
49 -7853 -7855 7845 0
49 -7853 -7856 7846 0
49 -7853 -7857 7847 0
49 -7853 -7858 7848 0
49 -7854 -7855 7846 0
49 -7854 -7856 7847 0
49 -7854 -7857 7848 0
49 -7854 -7858 7849 0
49 -7861 7855 0
49 -7862 7856 0
49 -7859 7855 0
49 -7860 7856 0
49 -7859 -7861 7856 0
49 -7859 -7862 7857 0
49 -7860 -7861 7857 0
49 -7860 -7862 7858 0
49 -2073 7861 0
49 -2072 7861 0
49 -2072 -2073 7862 0
49 -2071 7859 0
49 -2070 7859 0
49 -2070 -2071 7860 0
49 -7866 7850 0
49 -7867 7851 0
49 -7863 7850 0
49 -7864 7851 0
49 -7865 7852 0
49 -7863 -7866 7851 0
49 -7863 -7867 7852 0
49 -7864 -7866 7852 0
49 -7864 -7867 7853 0
49 -7865 -7866 7853 0
49 -7865 -7867 7854 0
49 -2069 7866 0
49 -2068 7866 0
49 -2068 -2069 7867 0
49 -2067 7863 0
49 -7868 7863 0
49 -7869 7864 0
49 -7868 -2067 7864 0
49 -7869 -2067 7865 0
49 -2066 7868 0
49 -2065 7868 0
49 -2065 -2066 7869 0
49 -7842 0
49 2074 2075 2076 2077 2078 2079 2080 2081 2082 0
49 -7884 7870 0
49 -7885 7871 0
49 -7886 7872 0
49 -7887 7873 0
49 -7879 7870 0
49 -7880 7871 0
49 -7881 7872 0
49 -7882 7873 0
49 -7883 7874 0
49 -7879 -7884 7871 0
49 -7879 -7885 7872 0
49 -7879 -7886 7873 0
49 -7879 -7887 7874 0
49 -7880 -7884 7872 0
49 -7880 -7885 7873 0
49 -7880 -7886 7874 0
49 -7880 -7887 7875 0
49 -7881 -7884 7873 0
49 -7881 -7885 7874 0
49 -7881 -7886 7875 0
49 -7881 -7887 7876 0
49 -7882 -7884 7874 0
49 -7882 -7885 7875 0
49 -7882 -7886 7876 0
49 -7882 -7887 7877 0
49 -7883 -7884 7875 0
49 -7883 -7885 7876 0
49 -7883 -7886 7877 0
49 -7883 -7887 7878 0
49 -7890 7884 0
49 -7891 7885 0
49 -7888 7884 0
49 -7889 7885 0
49 -7888 -7890 7885 0
49 -7888 -7891 7886 0
49 -7889 -7890 7886 0
49 -7889 -7891 7887 0
49 -2082 7890 0
49 -2081 7890 0
49 -2081 -2082 7891 0
49 -2080 7888 0
49 -2079 7888 0
49 -2079 -2080 7889 0
49 -7895 7879 0
49 -7896 7880 0
49 -7892 7879 0
49 -7893 7880 0
49 -7894 7881 0
49 -7892 -7895 7880 0
49 -7892 -7896 7881 0
49 -7893 -7895 7881 0
49 -7893 -7896 7882 0
49 -7894 -7895 7882 0
49 -7894 -7896 7883 0
49 -2078 7895 0
49 -2077 7895 0
49 -2077 -2078 7896 0
49 -2076 7892 0
49 -7897 7892 0
49 -7898 7893 0
49 -7897 -2076 7893 0
49 -7898 -2076 7894 0
49 -2075 7897 0
49 -2074 7897 0
49 -2074 -2075 7898 0
49 -7871 0
49 2083 0
49 2084 0
49 2085 0
49 2086 0
49 2087 2088 2089 2090 2091 2092 2093 2094 0
49 -7911 7899 0
49 -7912 7900 0
49 -7913 7901 0
49 -7914 7902 0
49 -7907 7899 0
49 -7908 7900 0
49 -7909 7901 0
49 -7910 7902 0
49 -7907 -7911 7900 0
49 -7907 -7912 7901 0
49 -7907 -7913 7902 0
49 -7907 -7914 7903 0
49 -7908 -7911 7901 0
49 -7908 -7912 7902 0
49 -7908 -7913 7903 0
49 -7908 -7914 7904 0
49 -7909 -7911 7902 0
49 -7909 -7912 7903 0
49 -7909 -7913 7904 0
49 -7909 -7914 7905 0
49 -7910 -7911 7903 0
49 -7910 -7912 7904 0
49 -7910 -7913 7905 0
49 -7910 -7914 7906 0
49 -7917 7911 0
49 -7918 7912 0
49 -7915 7911 0
49 -7916 7912 0
49 -7915 -7917 7912 0
49 -7915 -7918 7913 0
49 -7916 -7917 7913 0
49 -7916 -7918 7914 0
49 -2094 7917 0
49 -2093 7917 0
49 -2093 -2094 7918 0
49 -2092 7915 0
49 -2091 7915 0
49 -2091 -2092 7916 0
49 -7921 7907 0
49 -7922 7908 0
49 -7919 7907 0
49 -7920 7908 0
49 -7919 -7921 7908 0
49 -7919 -7922 7909 0
49 -7920 -7921 7909 0
49 -7920 -7922 7910 0
49 -2090 7921 0
49 -2089 7921 0
49 -2089 -2090 7922 0
49 -2088 7919 0
49 -2087 7919 0
49 -2087 -2088 7920 0
49 -7900 0
49 2095 2096 2097 2098 2099 2100 2101 2102 0
49 -7935 7923 0
49 -7936 7924 0
49 -7937 7925 0
49 -7938 7926 0
49 -7931 7923 0
49 -7932 7924 0
49 -7933 7925 0
49 -7934 7926 0
49 -7931 -7935 7924 0
49 -7931 -7936 7925 0
49 -7931 -7937 7926 0
49 -7931 -7938 7927 0
49 -7932 -7935 7925 0
49 -7932 -7936 7926 0
49 -7932 -7937 7927 0
49 -7932 -7938 7928 0
49 -7933 -7935 7926 0
49 -7933 -7936 7927 0
49 -7933 -7937 7928 0
49 -7933 -7938 7929 0
49 -7934 -7935 7927 0
49 -7934 -7936 7928 0
49 -7934 -7937 7929 0
49 -7934 -7938 7930 0
49 -7941 7935 0
49 -7942 7936 0
49 -7939 7935 0
49 -7940 7936 0
49 -7939 -7941 7936 0
49 -7939 -7942 7937 0
49 -7940 -7941 7937 0
49 -7940 -7942 7938 0
49 -2102 7941 0
49 -2101 7941 0
49 -2101 -2102 7942 0
49 -2100 7939 0
49 -2099 7939 0
49 -2099 -2100 7940 0
49 -7945 7931 0
49 -7946 7932 0
49 -7943 7931 0
49 -7944 7932 0
49 -7943 -7945 7932 0
49 -7943 -7946 7933 0
49 -7944 -7945 7933 0
49 -7944 -7946 7934 0
49 -2098 7945 0
49 -2097 7945 0
49 -2097 -2098 7946 0
49 -2096 7943 0
49 -2095 7943 0
49 -2095 -2096 7944 0
49 -7924 0
49 2103 0
49 2104 0
49 2105 0
49 2106 0
49 2107 0
49 2108 0
49 2109 0
49 2110 0
49 2111 2112 2113 2114 2115 2116 2117 0
49 -7958 7947 0
49 -7959 7948 0
49 -7960 7949 0
49 -7954 7947 0
49 -7955 7948 0
49 -7956 7949 0
49 -7957 7950 0
49 -7954 -7958 7948 0
49 -7954 -7959 7949 0
49 -7954 -7960 7950 0
49 -7955 -7958 7949 0
49 -7955 -7959 7950 0
49 -7955 -7960 7951 0
49 -7956 -7958 7950 0
49 -7956 -7959 7951 0
49 -7956 -7960 7952 0
49 -7957 -7958 7951 0
49 -7957 -7959 7952 0
49 -7957 -7960 7953 0
49 -2117 7958 0
49 -7961 7958 0
49 -7962 7959 0
49 -7961 -2117 7959 0
49 -7962 -2117 7960 0
49 -2116 7961 0
49 -2115 7961 0
49 -2115 -2116 7962 0
49 -7965 7954 0
49 -7966 7955 0
49 -7963 7954 0
49 -7964 7955 0
49 -7963 -7965 7955 0
49 -7963 -7966 7956 0
49 -7964 -7965 7956 0
49 -7964 -7966 7957 0
49 -2114 7965 0
49 -2113 7965 0
49 -2113 -2114 7966 0
49 -2112 7963 0
49 -2111 7963 0
49 -2111 -2112 7964 0
49 -7948 0
49 2118 2119 2120 2121 2122 2123 2124 0
49 -7978 7967 0
49 -7979 7968 0
49 -7980 7969 0
49 -7974 7967 0
49 -7975 7968 0
49 -7976 7969 0
49 -7977 7970 0
49 -7974 -7978 7968 0
49 -7974 -7979 7969 0
49 -7974 -7980 7970 0
49 -7975 -7978 7969 0
49 -7975 -7979 7970 0
49 -7975 -7980 7971 0
49 -7976 -7978 7970 0
49 -7976 -7979 7971 0
49 -7976 -7980 7972 0
49 -7977 -7978 7971 0
49 -7977 -7979 7972 0
49 -7977 -7980 7973 0
49 -2124 7978 0
49 -7981 7978 0
49 -7982 7979 0
49 -7981 -2124 7979 0
49 -7982 -2124 7980 0
49 -2123 7981 0
49 -2122 7981 0
49 -2122 -2123 7982 0
49 -7985 7974 0
49 -7986 7975 0
49 -7983 7974 0
49 -7984 7975 0
49 -7983 -7985 7975 0
49 -7983 -7986 7976 0
49 -7984 -7985 7976 0
49 -7984 -7986 7977 0
49 -2121 7985 0
49 -2120 7985 0
49 -2120 -2121 7986 0
49 -2119 7983 0
49 -2118 7983 0
49 -2118 -2119 7984 0
49 -7968 0
49 2125 2126 2127 2128 0
49 -7993 7987 0
49 -7994 7988 0
49 -7991 7987 0
49 -7992 7988 0
49 -7991 -7993 7988 0
49 -7991 -7994 7989 0
49 -7992 -7993 7989 0
49 -7992 -7994 7990 0
49 -2128 7993 0
49 -2127 7993 0
49 -2127 -2128 7994 0
49 -2126 7991 0
49 -2125 7991 0
49 -2125 -2126 7992 0
49 -7988 0
49 2129 2130 2131 2132 0
49 -8001 7995 0
49 -8002 7996 0
49 -7999 7995 0
49 -8000 7996 0
49 -7999 -8001 7996 0
49 -7999 -8002 7997 0
49 -8000 -8001 7997 0
49 -8000 -8002 7998 0
49 -2132 8001 0
49 -2131 8001 0
49 -2131 -2132 8002 0
49 -2130 7999 0
49 -2129 7999 0
49 -2129 -2130 8000 0
49 -7996 0
49 2133 2134 2135 2136 2137 2138 2139 2140 0
49 -8015 8003 0
49 -8016 8004 0
49 -8017 8005 0
49 -8018 8006 0
49 -8011 8003 0
49 -8012 8004 0
49 -8013 8005 0
49 -8014 8006 0
49 -8011 -8015 8004 0
49 -8011 -8016 8005 0
49 -8011 -8017 8006 0
49 -8011 -8018 8007 0
49 -8012 -8015 8005 0
49 -8012 -8016 8006 0
49 -8012 -8017 8007 0
49 -8012 -8018 8008 0
49 -8013 -8015 8006 0
49 -8013 -8016 8007 0
49 -8013 -8017 8008 0
49 -8013 -8018 8009 0
49 -8014 -8015 8007 0
49 -8014 -8016 8008 0
49 -8014 -8017 8009 0
49 -8014 -8018 8010 0
49 -8021 8015 0
49 -8022 8016 0
49 -8019 8015 0
49 -8020 8016 0
49 -8019 -8021 8016 0
49 -8019 -8022 8017 0
49 -8020 -8021 8017 0
49 -8020 -8022 8018 0
49 -2140 8021 0
49 -2139 8021 0
49 -2139 -2140 8022 0
49 -2138 8019 0
49 -2137 8019 0
49 -2137 -2138 8020 0
49 -8025 8011 0
49 -8026 8012 0
49 -8023 8011 0
49 -8024 8012 0
49 -8023 -8025 8012 0
49 -8023 -8026 8013 0
49 -8024 -8025 8013 0
49 -8024 -8026 8014 0
49 -2136 8025 0
49 -2135 8025 0
49 -2135 -2136 8026 0
49 -2134 8023 0
49 -2133 8023 0
49 -2133 -2134 8024 0
49 -8004 0
49 2141 2142 2143 2144 2145 2146 2147 2148 0
49 -8039 8027 0
49 -8040 8028 0
49 -8041 8029 0
49 -8042 8030 0
49 -8035 8027 0
49 -8036 8028 0
49 -8037 8029 0
49 -8038 8030 0
49 -8035 -8039 8028 0
49 -8035 -8040 8029 0
49 -8035 -8041 8030 0
49 -8035 -8042 8031 0
49 -8036 -8039 8029 0
49 -8036 -8040 8030 0
49 -8036 -8041 8031 0
49 -8036 -8042 8032 0
49 -8037 -8039 8030 0
49 -8037 -8040 8031 0
49 -8037 -8041 8032 0
49 -8037 -8042 8033 0
49 -8038 -8039 8031 0
49 -8038 -8040 8032 0
49 -8038 -8041 8033 0
49 -8038 -8042 8034 0
49 -8045 8039 0
49 -8046 8040 0
49 -8043 8039 0
49 -8044 8040 0
49 -8043 -8045 8040 0
49 -8043 -8046 8041 0
49 -8044 -8045 8041 0
49 -8044 -8046 8042 0
49 -2148 8045 0
49 -2147 8045 0
49 -2147 -2148 8046 0
49 -2146 8043 0
49 -2145 8043 0
49 -2145 -2146 8044 0
49 -8049 8035 0
49 -8050 8036 0
49 -8047 8035 0
49 -8048 8036 0
49 -8047 -8049 8036 0
49 -8047 -8050 8037 0
49 -8048 -8049 8037 0
49 -8048 -8050 8038 0
49 -2144 8049 0
49 -2143 8049 0
49 -2143 -2144 8050 0
49 -2142 8047 0
49 -2141 8047 0
49 -2141 -2142 8048 0
49 -8028 0
49 2149 0
49 2150 0
49 2151 0
49 2152 0
49 2153 0
49 2154 0
49 2155 0
49 2156 0
49 2157 0
49 2158 0
49 2159 0
49 2160 0
49 2161 0
49 2162 0
49 2163 2164 2165 2166 2167 2168 2169 2170 0
49 -8063 8051 0
49 -8064 8052 0
49 -8065 8053 0
49 -8066 8054 0
49 -8059 8051 0
49 -8060 8052 0
49 -8061 8053 0
49 -8062 8054 0
49 -8059 -8063 8052 0
49 -8059 -8064 8053 0
49 -8059 -8065 8054 0
49 -8059 -8066 8055 0
49 -8060 -8063 8053 0
49 -8060 -8064 8054 0
49 -8060 -8065 8055 0
49 -8060 -8066 8056 0
49 -8061 -8063 8054 0
49 -8061 -8064 8055 0
49 -8061 -8065 8056 0
49 -8061 -8066 8057 0
49 -8062 -8063 8055 0
49 -8062 -8064 8056 0
49 -8062 -8065 8057 0
49 -8062 -8066 8058 0
49 -8069 8063 0
49 -8070 8064 0
49 -8067 8063 0
49 -8068 8064 0
49 -8067 -8069 8064 0
49 -8067 -8070 8065 0
49 -8068 -8069 8065 0
49 -8068 -8070 8066 0
49 -2170 8069 0
49 -2169 8069 0
49 -2169 -2170 8070 0
49 -2168 8067 0
49 -2167 8067 0
49 -2167 -2168 8068 0
49 -8073 8059 0
49 -8074 8060 0
49 -8071 8059 0
49 -8072 8060 0
49 -8071 -8073 8060 0
49 -8071 -8074 8061 0
49 -8072 -8073 8061 0
49 -8072 -8074 8062 0
49 -2166 8073 0
49 -2165 8073 0
49 -2165 -2166 8074 0
49 -2164 8071 0
49 -2163 8071 0
49 -2163 -2164 8072 0
49 -8052 0
49 2171 2172 2173 2174 2175 2176 2177 2178 0
49 -8087 8075 0
49 -8088 8076 0
49 -8089 8077 0
49 -8090 8078 0
49 -8083 8075 0
49 -8084 8076 0
49 -8085 8077 0
49 -8086 8078 0
49 -8083 -8087 8076 0
49 -8083 -8088 8077 0
49 -8083 -8089 8078 0
49 -8083 -8090 8079 0
49 -8084 -8087 8077 0
49 -8084 -8088 8078 0
49 -8084 -8089 8079 0
49 -8084 -8090 8080 0
49 -8085 -8087 8078 0
49 -8085 -8088 8079 0
49 -8085 -8089 8080 0
49 -8085 -8090 8081 0
49 -8086 -8087 8079 0
49 -8086 -8088 8080 0
49 -8086 -8089 8081 0
49 -8086 -8090 8082 0
49 -8093 8087 0
49 -8094 8088 0
49 -8091 8087 0
49 -8092 8088 0
49 -8091 -8093 8088 0
49 -8091 -8094 8089 0
49 -8092 -8093 8089 0
49 -8092 -8094 8090 0
49 -2178 8093 0
49 -2177 8093 0
49 -2177 -2178 8094 0
49 -2176 8091 0
49 -2175 8091 0
49 -2175 -2176 8092 0
49 -8097 8083 0
49 -8098 8084 0
49 -8095 8083 0
49 -8096 8084 0
49 -8095 -8097 8084 0
49 -8095 -8098 8085 0
49 -8096 -8097 8085 0
49 -8096 -8098 8086 0
49 -2174 8097 0
49 -2173 8097 0
49 -2173 -2174 8098 0
49 -2172 8095 0
49 -2171 8095 0
49 -2171 -2172 8096 0
49 -8076 0
49 2179 0
49 2180 0
49 2181 0
49 2182 0
49 2183 2184 2185 0
49 -2185 8099 0
49 -8102 8099 0
49 -8103 8100 0
49 -8102 -2185 8100 0
49 -8103 -2185 8101 0
49 -2184 8102 0
49 -2183 8102 0
49 -2183 -2184 8103 0
49 -8100 0
49 2186 2187 2188 0
49 -2188 8104 0
49 -8107 8104 0
49 -8108 8105 0
49 -8107 -2188 8105 0
49 -8108 -2188 8106 0
49 -2187 8107 0
49 -2186 8107 0
49 -2186 -2187 8108 0
49 -8105 0
49 2189 0
49 2190 0
49 2191 0
49 2192 0
49 2193 0
49 2194 0
49 2195 0
49 2196 0
49 2197 2198 2199 2200 2201 2202 0
49 -8118 8109 0
49 -8119 8110 0
49 -8120 8111 0
49 -8115 8109 0
49 -8116 8110 0
49 -8117 8111 0
49 -8115 -8118 8110 0
49 -8115 -8119 8111 0
49 -8115 -8120 8112 0
49 -8116 -8118 8111 0
49 -8116 -8119 8112 0
49 -8116 -8120 8113 0
49 -8117 -8118 8112 0
49 -8117 -8119 8113 0
49 -8117 -8120 8114 0
49 -2202 8118 0
49 -8121 8118 0
49 -8122 8119 0
49 -8121 -2202 8119 0
49 -8122 -2202 8120 0
49 -2201 8121 0
49 -2200 8121 0
49 -2200 -2201 8122 0
49 -2199 8115 0
49 -8123 8115 0
49 -8124 8116 0
49 -8123 -2199 8116 0
49 -8124 -2199 8117 0
49 -2198 8123 0
49 -2197 8123 0
49 -2197 -2198 8124 0
49 -8110 0
49 2203 2204 2205 2206 2207 2208 0
49 -8134 8125 0
49 -8135 8126 0
49 -8136 8127 0
49 -8131 8125 0
49 -8132 8126 0
49 -8133 8127 0
49 -8131 -8134 8126 0
49 -8131 -8135 8127 0
49 -8131 -8136 8128 0
49 -8132 -8134 8127 0
49 -8132 -8135 8128 0
49 -8132 -8136 8129 0
49 -8133 -8134 8128 0
49 -8133 -8135 8129 0
49 -8133 -8136 8130 0
49 -2208 8134 0
49 -8137 8134 0
49 -8138 8135 0
49 -8137 -2208 8135 0
49 -8138 -2208 8136 0
49 -2207 8137 0
49 -2206 8137 0
49 -2206 -2207 8138 0
49 -2205 8131 0
49 -8139 8131 0
49 -8140 8132 0
49 -8139 -2205 8132 0
49 -8140 -2205 8133 0
49 -2204 8139 0
49 -2203 8139 0
49 -2203 -2204 8140 0
49 -8126 0
49 2209 0
49 2210 0
49 2211 0
49 2212 0
49 2213 0
49 2214 0
49 2215 2216 2217 2218 2219 2220 2221 2222 0
49 -8153 8141 0
49 -8154 8142 0
49 -8155 8143 0
49 -8156 8144 0
49 -8149 8141 0
49 -8150 8142 0
49 -8151 8143 0
49 -8152 8144 0
49 -8149 -8153 8142 0
49 -8149 -8154 8143 0
49 -8149 -8155 8144 0
49 -8149 -8156 8145 0
49 -8150 -8153 8143 0
49 -8150 -8154 8144 0
49 -8150 -8155 8145 0
49 -8150 -8156 8146 0
49 -8151 -8153 8144 0
49 -8151 -8154 8145 0
49 -8151 -8155 8146 0
49 -8151 -8156 8147 0
49 -8152 -8153 8145 0
49 -8152 -8154 8146 0
49 -8152 -8155 8147 0
49 -8152 -8156 8148 0
49 -8159 8153 0
49 -8160 8154 0
49 -8157 8153 0
49 -8158 8154 0
49 -8157 -8159 8154 0
49 -8157 -8160 8155 0
49 -8158 -8159 8155 0
49 -8158 -8160 8156 0
49 -2222 8159 0
49 -2221 8159 0
49 -2221 -2222 8160 0
49 -2220 8157 0
49 -2219 8157 0
49 -2219 -2220 8158 0
49 -8163 8149 0
49 -8164 8150 0
49 -8161 8149 0
49 -8162 8150 0
49 -8161 -8163 8150 0
49 -8161 -8164 8151 0
49 -8162 -8163 8151 0
49 -8162 -8164 8152 0
49 -2218 8163 0
49 -2217 8163 0
49 -2217 -2218 8164 0
49 -2216 8161 0
49 -2215 8161 0
49 -2215 -2216 8162 0
49 -8142 0
49 2223 2224 2225 2226 2227 2228 2229 2230 0
49 -8177 8165 0
49 -8178 8166 0
49 -8179 8167 0
49 -8180 8168 0
49 -8173 8165 0
49 -8174 8166 0
49 -8175 8167 0
49 -8176 8168 0
49 -8173 -8177 8166 0
49 -8173 -8178 8167 0
49 -8173 -8179 8168 0
49 -8173 -8180 8169 0
49 -8174 -8177 8167 0
49 -8174 -8178 8168 0
49 -8174 -8179 8169 0
49 -8174 -8180 8170 0
49 -8175 -8177 8168 0
49 -8175 -8178 8169 0
49 -8175 -8179 8170 0
49 -8175 -8180 8171 0
49 -8176 -8177 8169 0
49 -8176 -8178 8170 0
49 -8176 -8179 8171 0
49 -8176 -8180 8172 0
49 -8183 8177 0
49 -8184 8178 0
49 -8181 8177 0
49 -8182 8178 0
49 -8181 -8183 8178 0
49 -8181 -8184 8179 0
49 -8182 -8183 8179 0
49 -8182 -8184 8180 0
49 -2230 8183 0
49 -2229 8183 0
49 -2229 -2230 8184 0
49 -2228 8181 0
49 -2227 8181 0
49 -2227 -2228 8182 0
49 -8187 8173 0
49 -8188 8174 0
49 -8185 8173 0
49 -8186 8174 0
49 -8185 -8187 8174 0
49 -8185 -8188 8175 0
49 -8186 -8187 8175 0
49 -8186 -8188 8176 0
49 -2226 8187 0
49 -2225 8187 0
49 -2225 -2226 8188 0
49 -2224 8185 0
49 -2223 8185 0
49 -2223 -2224 8186 0
49 -8166 0
49 2231 0
49 2232 0
49 2233 0
49 2234 0
49 2235 0
49 2236 0
49 2237 2238 2239 2240 2241 2242 2243 2244 0
49 -8201 8189 0
49 -8202 8190 0
49 -8203 8191 0
49 -8204 8192 0
49 -8197 8189 0
49 -8198 8190 0
49 -8199 8191 0
49 -8200 8192 0
49 -8197 -8201 8190 0
49 -8197 -8202 8191 0
49 -8197 -8203 8192 0
49 -8197 -8204 8193 0
49 -8198 -8201 8191 0
49 -8198 -8202 8192 0
49 -8198 -8203 8193 0
49 -8198 -8204 8194 0
49 -8199 -8201 8192 0
49 -8199 -8202 8193 0
49 -8199 -8203 8194 0
49 -8199 -8204 8195 0
49 -8200 -8201 8193 0
49 -8200 -8202 8194 0
49 -8200 -8203 8195 0
49 -8200 -8204 8196 0
49 -8207 8201 0
49 -8208 8202 0
49 -8205 8201 0
49 -8206 8202 0
49 -8205 -8207 8202 0
49 -8205 -8208 8203 0
49 -8206 -8207 8203 0
49 -8206 -8208 8204 0
49 -2244 8207 0
49 -2243 8207 0
49 -2243 -2244 8208 0
49 -2242 8205 0
49 -2241 8205 0
49 -2241 -2242 8206 0
49 -8211 8197 0
49 -8212 8198 0
49 -8209 8197 0
49 -8210 8198 0
49 -8209 -8211 8198 0
49 -8209 -8212 8199 0
49 -8210 -8211 8199 0
49 -8210 -8212 8200 0
49 -2240 8211 0
49 -2239 8211 0
49 -2239 -2240 8212 0
49 -2238 8209 0
49 -2237 8209 0
49 -2237 -2238 8210 0
49 -8190 0
49 2245 2246 2247 2248 2249 2250 2251 2252 0
49 -8225 8213 0
49 -8226 8214 0
49 -8227 8215 0
49 -8228 8216 0
49 -8221 8213 0
49 -8222 8214 0
49 -8223 8215 0
49 -8224 8216 0
49 -8221 -8225 8214 0
49 -8221 -8226 8215 0
49 -8221 -8227 8216 0
49 -8221 -8228 8217 0
49 -8222 -8225 8215 0
49 -8222 -8226 8216 0
49 -8222 -8227 8217 0
49 -8222 -8228 8218 0
49 -8223 -8225 8216 0
49 -8223 -8226 8217 0
49 -8223 -8227 8218 0
49 -8223 -8228 8219 0
49 -8224 -8225 8217 0
49 -8224 -8226 8218 0
49 -8224 -8227 8219 0
49 -8224 -8228 8220 0
49 -8231 8225 0
49 -8232 8226 0
49 -8229 8225 0
49 -8230 8226 0
49 -8229 -8231 8226 0
49 -8229 -8232 8227 0
49 -8230 -8231 8227 0
49 -8230 -8232 8228 0
49 -2252 8231 0
49 -2251 8231 0
49 -2251 -2252 8232 0
49 -2250 8229 0
49 -2249 8229 0
49 -2249 -2250 8230 0
49 -8235 8221 0
49 -8236 8222 0
49 -8233 8221 0
49 -8234 8222 0
49 -8233 -8235 8222 0
49 -8233 -8236 8223 0
49 -8234 -8235 8223 0
49 -8234 -8236 8224 0
49 -2248 8235 0
49 -2247 8235 0
49 -2247 -2248 8236 0
49 -2246 8233 0
49 -2245 8233 0
49 -2245 -2246 8234 0
49 -8214 0
49 2253 0
49 2254 0
49 2255 0
49 2256 0
49 2257 0
49 2258 0
49 2259 0
49 2260 0
49 2261 0
49 2262 0
49 2263 2264 2265 2266 2267 2268 2269 2270 0
49 -8249 8237 0
49 -8250 8238 0
49 -8251 8239 0
49 -8252 8240 0
49 -8245 8237 0
49 -8246 8238 0
49 -8247 8239 0
49 -8248 8240 0
49 -8245 -8249 8238 0
49 -8245 -8250 8239 0
49 -8245 -8251 8240 0
49 -8245 -8252 8241 0
49 -8246 -8249 8239 0
49 -8246 -8250 8240 0
49 -8246 -8251 8241 0
49 -8246 -8252 8242 0
49 -8247 -8249 8240 0
49 -8247 -8250 8241 0
49 -8247 -8251 8242 0
49 -8247 -8252 8243 0
49 -8248 -8249 8241 0
49 -8248 -8250 8242 0
49 -8248 -8251 8243 0
49 -8248 -8252 8244 0
49 -8255 8249 0
49 -8256 8250 0
49 -8253 8249 0
49 -8254 8250 0
49 -8253 -8255 8250 0
49 -8253 -8256 8251 0
49 -8254 -8255 8251 0
49 -8254 -8256 8252 0
49 -2270 8255 0
49 -2269 8255 0
49 -2269 -2270 8256 0
49 -2268 8253 0
49 -2267 8253 0
49 -2267 -2268 8254 0
49 -8259 8245 0
49 -8260 8246 0
49 -8257 8245 0
49 -8258 8246 0
49 -8257 -8259 8246 0
49 -8257 -8260 8247 0
49 -8258 -8259 8247 0
49 -8258 -8260 8248 0
49 -2266 8259 0
49 -2265 8259 0
49 -2265 -2266 8260 0
49 -2264 8257 0
49 -2263 8257 0
49 -2263 -2264 8258 0
49 -8238 0
49 2271 2272 2273 2274 2275 2276 2277 2278 0
49 -8273 8261 0
49 -8274 8262 0
49 -8275 8263 0
49 -8276 8264 0
49 -8269 8261 0
49 -8270 8262 0
49 -8271 8263 0
49 -8272 8264 0
49 -8269 -8273 8262 0
49 -8269 -8274 8263 0
49 -8269 -8275 8264 0
49 -8269 -8276 8265 0
49 -8270 -8273 8263 0
49 -8270 -8274 8264 0
49 -8270 -8275 8265 0
49 -8270 -8276 8266 0
49 -8271 -8273 8264 0
49 -8271 -8274 8265 0
49 -8271 -8275 8266 0
49 -8271 -8276 8267 0
49 -8272 -8273 8265 0
49 -8272 -8274 8266 0
49 -8272 -8275 8267 0
49 -8272 -8276 8268 0
49 -8279 8273 0
49 -8280 8274 0
49 -8277 8273 0
49 -8278 8274 0
49 -8277 -8279 8274 0
49 -8277 -8280 8275 0
49 -8278 -8279 8275 0
49 -8278 -8280 8276 0
49 -2278 8279 0
49 -2277 8279 0
49 -2277 -2278 8280 0
49 -2276 8277 0
49 -2275 8277 0
49 -2275 -2276 8278 0
49 -8283 8269 0
49 -8284 8270 0
49 -8281 8269 0
49 -8282 8270 0
49 -8281 -8283 8270 0
49 -8281 -8284 8271 0
49 -8282 -8283 8271 0
49 -8282 -8284 8272 0
49 -2274 8283 0
49 -2273 8283 0
49 -2273 -2274 8284 0
49 -2272 8281 0
49 -2271 8281 0
49 -2271 -2272 8282 0
49 -8262 0
49 2279 2280 0
49 -2279 -2280 0
49 2281 2282 0
49 -2281 -2282 0
49 2283 0
49 2284 0
49 2285 0
49 2286 0
49 2287 0
49 2288 0
49 2289 0
49 2290 0
49 2291 0
49 2292 0
49 2293 0
49 2294 0
49 2295 2296 2297 2298 2299 2300 2301 2302 2303 0
49 -8299 8285 0
49 -8300 8286 0
49 -8301 8287 0
49 -8302 8288 0
49 -8294 8285 0
49 -8295 8286 0
49 -8296 8287 0
49 -8297 8288 0
49 -8298 8289 0
49 -8294 -8299 8286 0
49 -8294 -8300 8287 0
49 -8294 -8301 8288 0
49 -8294 -8302 8289 0
49 -8295 -8299 8287 0
49 -8295 -8300 8288 0
49 -8295 -8301 8289 0
49 -8295 -8302 8290 0
49 -8296 -8299 8288 0
49 -8296 -8300 8289 0
49 -8296 -8301 8290 0
49 -8296 -8302 8291 0
49 -8297 -8299 8289 0
49 -8297 -8300 8290 0
49 -8297 -8301 8291 0
49 -8297 -8302 8292 0
49 -8298 -8299 8290 0
49 -8298 -8300 8291 0
49 -8298 -8301 8292 0
49 -8298 -8302 8293 0
49 -8305 8299 0
49 -8306 8300 0
49 -8303 8299 0
49 -8304 8300 0
49 -8303 -8305 8300 0
49 -8303 -8306 8301 0
49 -8304 -8305 8301 0
49 -8304 -8306 8302 0
49 -2303 8305 0
49 -2302 8305 0
49 -2302 -2303 8306 0
49 -2301 8303 0
49 -2300 8303 0
49 -2300 -2301 8304 0
49 -8310 8294 0
49 -8311 8295 0
49 -8307 8294 0
49 -8308 8295 0
49 -8309 8296 0
49 -8307 -8310 8295 0
49 -8307 -8311 8296 0
49 -8308 -8310 8296 0
49 -8308 -8311 8297 0
49 -8309 -8310 8297 0
49 -8309 -8311 8298 0
49 -2299 8310 0
49 -2298 8310 0
49 -2298 -2299 8311 0
49 -2297 8307 0
49 -8312 8307 0
49 -8313 8308 0
49 -8312 -2297 8308 0
49 -8313 -2297 8309 0
49 -2296 8312 0
49 -2295 8312 0
49 -2295 -2296 8313 0
49 -8286 0
49 2304 2305 2306 2307 2308 2309 2310 2311 2312 0
49 -8328 8314 0
49 -8329 8315 0
49 -8330 8316 0
49 -8331 8317 0
49 -8323 8314 0
49 -8324 8315 0
49 -8325 8316 0
49 -8326 8317 0
49 -8327 8318 0
49 -8323 -8328 8315 0
49 -8323 -8329 8316 0
49 -8323 -8330 8317 0
49 -8323 -8331 8318 0
49 -8324 -8328 8316 0
49 -8324 -8329 8317 0
49 -8324 -8330 8318 0
49 -8324 -8331 8319 0
49 -8325 -8328 8317 0
49 -8325 -8329 8318 0
49 -8325 -8330 8319 0
49 -8325 -8331 8320 0
49 -8326 -8328 8318 0
49 -8326 -8329 8319 0
49 -8326 -8330 8320 0
49 -8326 -8331 8321 0
49 -8327 -8328 8319 0
49 -8327 -8329 8320 0
49 -8327 -8330 8321 0
49 -8327 -8331 8322 0
49 -8334 8328 0
49 -8335 8329 0
49 -8332 8328 0
49 -8333 8329 0
49 -8332 -8334 8329 0
49 -8332 -8335 8330 0
49 -8333 -8334 8330 0
49 -8333 -8335 8331 0
49 -2312 8334 0
49 -2311 8334 0
49 -2311 -2312 8335 0
49 -2310 8332 0
49 -2309 8332 0
49 -2309 -2310 8333 0
49 -8339 8323 0
49 -8340 8324 0
49 -8336 8323 0
49 -8337 8324 0
49 -8338 8325 0
49 -8336 -8339 8324 0
49 -8336 -8340 8325 0
49 -8337 -8339 8325 0
49 -8337 -8340 8326 0
49 -8338 -8339 8326 0
49 -8338 -8340 8327 0
49 -2308 8339 0
49 -2307 8339 0
49 -2307 -2308 8340 0
49 -2306 8336 0
49 -8341 8336 0
49 -8342 8337 0
49 -8341 -2306 8337 0
49 -8342 -2306 8338 0
49 -2305 8341 0
49 -2304 8341 0
49 -2304 -2305 8342 0
49 -8315 0
49 2313 0
49 2314 0
49 2315 0
49 2316 0
49 2317 2318 2319 2320 2321 2322 2323 2324 0
49 -8355 8343 0
49 -8356 8344 0
49 -8357 8345 0
49 -8358 8346 0
49 -8351 8343 0
49 -8352 8344 0
49 -8353 8345 0
49 -8354 8346 0
49 -8351 -8355 8344 0
49 -8351 -8356 8345 0
49 -8351 -8357 8346 0
49 -8351 -8358 8347 0
49 -8352 -8355 8345 0
49 -8352 -8356 8346 0
49 -8352 -8357 8347 0
49 -8352 -8358 8348 0
49 -8353 -8355 8346 0
49 -8353 -8356 8347 0
49 -8353 -8357 8348 0
49 -8353 -8358 8349 0
49 -8354 -8355 8347 0
49 -8354 -8356 8348 0
49 -8354 -8357 8349 0
49 -8354 -8358 8350 0
49 -8361 8355 0
49 -8362 8356 0
49 -8359 8355 0
49 -8360 8356 0
49 -8359 -8361 8356 0
49 -8359 -8362 8357 0
49 -8360 -8361 8357 0
49 -8360 -8362 8358 0
49 -2324 8361 0
49 -2323 8361 0
49 -2323 -2324 8362 0
49 -2322 8359 0
49 -2321 8359 0
49 -2321 -2322 8360 0
49 -8365 8351 0
49 -8366 8352 0
49 -8363 8351 0
49 -8364 8352 0
49 -8363 -8365 8352 0
49 -8363 -8366 8353 0
49 -8364 -8365 8353 0
49 -8364 -8366 8354 0
49 -2320 8365 0
49 -2319 8365 0
49 -2319 -2320 8366 0
49 -2318 8363 0
49 -2317 8363 0
49 -2317 -2318 8364 0
49 -8344 0
49 2325 2326 2327 2328 2329 2330 2331 2332 0
49 -8379 8367 0
49 -8380 8368 0
49 -8381 8369 0
49 -8382 8370 0
49 -8375 8367 0
49 -8376 8368 0
49 -8377 8369 0
49 -8378 8370 0
49 -8375 -8379 8368 0
49 -8375 -8380 8369 0
49 -8375 -8381 8370 0
49 -8375 -8382 8371 0
49 -8376 -8379 8369 0
49 -8376 -8380 8370 0
49 -8376 -8381 8371 0
49 -8376 -8382 8372 0
49 -8377 -8379 8370 0
49 -8377 -8380 8371 0
49 -8377 -8381 8372 0
49 -8377 -8382 8373 0
49 -8378 -8379 8371 0
49 -8378 -8380 8372 0
49 -8378 -8381 8373 0
49 -8378 -8382 8374 0
49 -8385 8379 0
49 -8386 8380 0
49 -8383 8379 0
49 -8384 8380 0
49 -8383 -8385 8380 0
49 -8383 -8386 8381 0
49 -8384 -8385 8381 0
49 -8384 -8386 8382 0
49 -2332 8385 0
49 -2331 8385 0
49 -2331 -2332 8386 0
49 -2330 8383 0
49 -2329 8383 0
49 -2329 -2330 8384 0
49 -8389 8375 0
49 -8390 8376 0
49 -8387 8375 0
49 -8388 8376 0
49 -8387 -8389 8376 0
49 -8387 -8390 8377 0
49 -8388 -8389 8377 0
49 -8388 -8390 8378 0
49 -2328 8389 0
49 -2327 8389 0
49 -2327 -2328 8390 0
49 -2326 8387 0
49 -2325 8387 0
49 -2325 -2326 8388 0
49 -8368 0
49 2333 0
49 2334 0
49 2335 2336 2337 2338 2339 2340 2341 2342 0
49 -8403 8391 0
49 -8404 8392 0
49 -8405 8393 0
49 -8406 8394 0
49 -8399 8391 0
49 -8400 8392 0
49 -8401 8393 0
49 -8402 8394 0
49 -8399 -8403 8392 0
49 -8399 -8404 8393 0
49 -8399 -8405 8394 0
49 -8399 -8406 8395 0
49 -8400 -8403 8393 0
49 -8400 -8404 8394 0
49 -8400 -8405 8395 0
49 -8400 -8406 8396 0
49 -8401 -8403 8394 0
49 -8401 -8404 8395 0
49 -8401 -8405 8396 0
49 -8401 -8406 8397 0
49 -8402 -8403 8395 0
49 -8402 -8404 8396 0
49 -8402 -8405 8397 0
49 -8402 -8406 8398 0
49 -8409 8403 0
49 -8410 8404 0
49 -8407 8403 0
49 -8408 8404 0
49 -8407 -8409 8404 0
49 -8407 -8410 8405 0
49 -8408 -8409 8405 0
49 -8408 -8410 8406 0
49 -2342 8409 0
49 -2341 8409 0
49 -2341 -2342 8410 0
49 -2340 8407 0
49 -2339 8407 0
49 -2339 -2340 8408 0
49 -8413 8399 0
49 -8414 8400 0
49 -8411 8399 0
49 -8412 8400 0
49 -8411 -8413 8400 0
49 -8411 -8414 8401 0
49 -8412 -8413 8401 0
49 -8412 -8414 8402 0
49 -2338 8413 0
49 -2337 8413 0
49 -2337 -2338 8414 0
49 -2336 8411 0
49 -2335 8411 0
49 -2335 -2336 8412 0
49 -8392 0
49 2343 2344 2345 2346 2347 2348 2349 2350 0
49 -8427 8415 0
49 -8428 8416 0
49 -8429 8417 0
49 -8430 8418 0
49 -8423 8415 0
49 -8424 8416 0
49 -8425 8417 0
49 -8426 8418 0
49 -8423 -8427 8416 0
49 -8423 -8428 8417 0
49 -8423 -8429 8418 0
49 -8423 -8430 8419 0
49 -8424 -8427 8417 0
49 -8424 -8428 8418 0
49 -8424 -8429 8419 0
49 -8424 -8430 8420 0
49 -8425 -8427 8418 0
49 -8425 -8428 8419 0
49 -8425 -8429 8420 0
49 -8425 -8430 8421 0
49 -8426 -8427 8419 0
49 -8426 -8428 8420 0
49 -8426 -8429 8421 0
49 -8426 -8430 8422 0
49 -8433 8427 0
49 -8434 8428 0
49 -8431 8427 0
49 -8432 8428 0
49 -8431 -8433 8428 0
49 -8431 -8434 8429 0
49 -8432 -8433 8429 0
49 -8432 -8434 8430 0
49 -2350 8433 0
49 -2349 8433 0
49 -2349 -2350 8434 0
49 -2348 8431 0
49 -2347 8431 0
49 -2347 -2348 8432 0
49 -8437 8423 0
49 -8438 8424 0
49 -8435 8423 0
49 -8436 8424 0
49 -8435 -8437 8424 0
49 -8435 -8438 8425 0
49 -8436 -8437 8425 0
49 -8436 -8438 8426 0
49 -2346 8437 0
49 -2345 8437 0
49 -2345 -2346 8438 0
49 -2344 8435 0
49 -2343 8435 0
49 -2343 -2344 8436 0
49 -8416 0
49 2351 0
49 2352 0
49 2353 0
49 2354 0
49 2355 0
49 2356 0
49 2357 2358 2359 2360 2361 2362 2363 2364 0
49 -8451 8439 0
49 -8452 8440 0
49 -8453 8441 0
49 -8454 8442 0
49 -8447 8439 0
49 -8448 8440 0
49 -8449 8441 0
49 -8450 8442 0
49 -8447 -8451 8440 0
49 -8447 -8452 8441 0
49 -8447 -8453 8442 0
49 -8447 -8454 8443 0
49 -8448 -8451 8441 0
49 -8448 -8452 8442 0
49 -8448 -8453 8443 0
49 -8448 -8454 8444 0
49 -8449 -8451 8442 0
49 -8449 -8452 8443 0
49 -8449 -8453 8444 0
49 -8449 -8454 8445 0
49 -8450 -8451 8443 0
49 -8450 -8452 8444 0
49 -8450 -8453 8445 0
49 -8450 -8454 8446 0
49 -8457 8451 0
49 -8458 8452 0
49 -8455 8451 0
49 -8456 8452 0
49 -8455 -8457 8452 0
49 -8455 -8458 8453 0
49 -8456 -8457 8453 0
49 -8456 -8458 8454 0
49 -2364 8457 0
49 -2363 8457 0
49 -2363 -2364 8458 0
49 -2362 8455 0
49 -2361 8455 0
49 -2361 -2362 8456 0
49 -8461 8447 0
49 -8462 8448 0
49 -8459 8447 0
49 -8460 8448 0
49 -8459 -8461 8448 0
49 -8459 -8462 8449 0
49 -8460 -8461 8449 0
49 -8460 -8462 8450 0
49 -2360 8461 0
49 -2359 8461 0
49 -2359 -2360 8462 0
49 -2358 8459 0
49 -2357 8459 0
49 -2357 -2358 8460 0
49 -8440 0
49 2365 2366 2367 2368 2369 2370 2371 2372 0
49 -8475 8463 0
49 -8476 8464 0
49 -8477 8465 0
49 -8478 8466 0
49 -8471 8463 0
49 -8472 8464 0
49 -8473 8465 0
49 -8474 8466 0
49 -8471 -8475 8464 0
49 -8471 -8476 8465 0
49 -8471 -8477 8466 0
49 -8471 -8478 8467 0
49 -8472 -8475 8465 0
49 -8472 -8476 8466 0
49 -8472 -8477 8467 0
49 -8472 -8478 8468 0
49 -8473 -8475 8466 0
49 -8473 -8476 8467 0
49 -8473 -8477 8468 0
49 -8473 -8478 8469 0
49 -8474 -8475 8467 0
49 -8474 -8476 8468 0
49 -8474 -8477 8469 0
49 -8474 -8478 8470 0
49 -8481 8475 0
49 -8482 8476 0
49 -8479 8475 0
49 -8480 8476 0
49 -8479 -8481 8476 0
49 -8479 -8482 8477 0
49 -8480 -8481 8477 0
49 -8480 -8482 8478 0
49 -2372 8481 0
49 -2371 8481 0
49 -2371 -2372 8482 0
49 -2370 8479 0
49 -2369 8479 0
49 -2369 -2370 8480 0
49 -8485 8471 0
49 -8486 8472 0
49 -8483 8471 0
49 -8484 8472 0
49 -8483 -8485 8472 0
49 -8483 -8486 8473 0
49 -8484 -8485 8473 0
49 -8484 -8486 8474 0
49 -2368 8485 0
49 -2367 8485 0
49 -2367 -2368 8486 0
49 -2366 8483 0
49 -2365 8483 0
49 -2365 -2366 8484 0
49 -8464 0
49 2373 0
49 2374 0
49 2375 0
49 2376 0
49 2377 2378 2379 2380 2381 2382 2383 2384 0
49 -8499 8487 0
49 -8500 8488 0
49 -8501 8489 0
49 -8502 8490 0
49 -8495 8487 0
49 -8496 8488 0
49 -8497 8489 0
49 -8498 8490 0
49 -8495 -8499 8488 0
49 -8495 -8500 8489 0
49 -8495 -8501 8490 0
49 -8495 -8502 8491 0
49 -8496 -8499 8489 0
49 -8496 -8500 8490 0
49 -8496 -8501 8491 0
49 -8496 -8502 8492 0
49 -8497 -8499 8490 0
49 -8497 -8500 8491 0
49 -8497 -8501 8492 0
49 -8497 -8502 8493 0
49 -8498 -8499 8491 0
49 -8498 -8500 8492 0
49 -8498 -8501 8493 0
49 -8498 -8502 8494 0
49 -8505 8499 0
49 -8506 8500 0
49 -8503 8499 0
49 -8504 8500 0
49 -8503 -8505 8500 0
49 -8503 -8506 8501 0
49 -8504 -8505 8501 0
49 -8504 -8506 8502 0
49 -2384 8505 0
49 -2383 8505 0
49 -2383 -2384 8506 0
49 -2382 8503 0
49 -2381 8503 0
49 -2381 -2382 8504 0
49 -8509 8495 0
49 -8510 8496 0
49 -8507 8495 0
49 -8508 8496 0
49 -8507 -8509 8496 0
49 -8507 -8510 8497 0
49 -8508 -8509 8497 0
49 -8508 -8510 8498 0
49 -2380 8509 0
49 -2379 8509 0
49 -2379 -2380 8510 0
49 -2378 8507 0
49 -2377 8507 0
49 -2377 -2378 8508 0
49 -8488 0
49 2385 2386 2387 2388 2389 2390 2391 2392 0
49 -8523 8511 0
49 -8524 8512 0
49 -8525 8513 0
49 -8526 8514 0
49 -8519 8511 0
49 -8520 8512 0
49 -8521 8513 0
49 -8522 8514 0
49 -8519 -8523 8512 0
49 -8519 -8524 8513 0
49 -8519 -8525 8514 0
49 -8519 -8526 8515 0
49 -8520 -8523 8513 0
49 -8520 -8524 8514 0
49 -8520 -8525 8515 0
49 -8520 -8526 8516 0
49 -8521 -8523 8514 0
49 -8521 -8524 8515 0
49 -8521 -8525 8516 0
49 -8521 -8526 8517 0
49 -8522 -8523 8515 0
49 -8522 -8524 8516 0
49 -8522 -8525 8517 0
49 -8522 -8526 8518 0
49 -8529 8523 0
49 -8530 8524 0
49 -8527 8523 0
49 -8528 8524 0
49 -8527 -8529 8524 0
49 -8527 -8530 8525 0
49 -8528 -8529 8525 0
49 -8528 -8530 8526 0
49 -2392 8529 0
49 -2391 8529 0
49 -2391 -2392 8530 0
49 -2390 8527 0
49 -2389 8527 0
49 -2389 -2390 8528 0
49 -8533 8519 0
49 -8534 8520 0
49 -8531 8519 0
49 -8532 8520 0
49 -8531 -8533 8520 0
49 -8531 -8534 8521 0
49 -8532 -8533 8521 0
49 -8532 -8534 8522 0
49 -2388 8533 0
49 -2387 8533 0
49 -2387 -2388 8534 0
49 -2386 8531 0
49 -2385 8531 0
49 -2385 -2386 8532 0
49 -8512 0
49 2393 0
49 2394 0
49 2395 0
49 2396 0
49 2397 2398 2399 2400 2401 2402 0
49 -8544 8535 0
49 -8545 8536 0
49 -8546 8537 0
49 -8541 8535 0
49 -8542 8536 0
49 -8543 8537 0
49 -8541 -8544 8536 0
49 -8541 -8545 8537 0
49 -8541 -8546 8538 0
49 -8542 -8544 8537 0
49 -8542 -8545 8538 0
49 -8542 -8546 8539 0
49 -8543 -8544 8538 0
49 -8543 -8545 8539 0
49 -8543 -8546 8540 0
49 -2402 8544 0
49 -8547 8544 0
49 -8548 8545 0
49 -8547 -2402 8545 0
49 -8548 -2402 8546 0
49 -2401 8547 0
49 -2400 8547 0
49 -2400 -2401 8548 0
49 -2399 8541 0
49 -8549 8541 0
49 -8550 8542 0
49 -8549 -2399 8542 0
49 -8550 -2399 8543 0
49 -2398 8549 0
49 -2397 8549 0
49 -2397 -2398 8550 0
49 -8536 0
49 2403 2404 2405 2406 2407 2408 0
49 -8560 8551 0
49 -8561 8552 0
49 -8562 8553 0
49 -8557 8551 0
49 -8558 8552 0
49 -8559 8553 0
49 -8557 -8560 8552 0
49 -8557 -8561 8553 0
49 -8557 -8562 8554 0
49 -8558 -8560 8553 0
49 -8558 -8561 8554 0
49 -8558 -8562 8555 0
49 -8559 -8560 8554 0
49 -8559 -8561 8555 0
49 -8559 -8562 8556 0
49 -2408 8560 0
49 -8563 8560 0
49 -8564 8561 0
49 -8563 -2408 8561 0
49 -8564 -2408 8562 0
49 -2407 8563 0
49 -2406 8563 0
49 -2406 -2407 8564 0
49 -2405 8557 0
49 -8565 8557 0
49 -8566 8558 0
49 -8565 -2405 8558 0
49 -8566 -2405 8559 0
49 -2404 8565 0
49 -2403 8565 0
49 -2403 -2404 8566 0
49 -8552 0
49 2409 0
49 2410 0
49 2411 0
49 2412 0
49 2413 0
49 2414 0
49 2415 2416 2417 2418 2419 2420 2421 2422 0
49 -8579 8567 0
49 -8580 8568 0
49 -8581 8569 0
49 -8582 8570 0
49 -8575 8567 0
49 -8576 8568 0
49 -8577 8569 0
49 -8578 8570 0
49 -8575 -8579 8568 0
49 -8575 -8580 8569 0
49 -8575 -8581 8570 0
49 -8575 -8582 8571 0
49 -8576 -8579 8569 0
49 -8576 -8580 8570 0
49 -8576 -8581 8571 0
49 -8576 -8582 8572 0
49 -8577 -8579 8570 0
49 -8577 -8580 8571 0
49 -8577 -8581 8572 0
49 -8577 -8582 8573 0
49 -8578 -8579 8571 0
49 -8578 -8580 8572 0
49 -8578 -8581 8573 0
49 -8578 -8582 8574 0
49 -8585 8579 0
49 -8586 8580 0
49 -8583 8579 0
49 -8584 8580 0
49 -8583 -8585 8580 0
49 -8583 -8586 8581 0
49 -8584 -8585 8581 0
49 -8584 -8586 8582 0
49 -2422 8585 0
49 -2421 8585 0
49 -2421 -2422 8586 0
49 -2420 8583 0
49 -2419 8583 0
49 -2419 -2420 8584 0
49 -8589 8575 0
49 -8590 8576 0
49 -8587 8575 0
49 -8588 8576 0
49 -8587 -8589 8576 0
49 -8587 -8590 8577 0
49 -8588 -8589 8577 0
49 -8588 -8590 8578 0
49 -2418 8589 0
49 -2417 8589 0
49 -2417 -2418 8590 0
49 -2416 8587 0
49 -2415 8587 0
49 -2415 -2416 8588 0
49 -8568 0
49 2423 2424 2425 2426 2427 2428 2429 2430 0
49 -8603 8591 0
49 -8604 8592 0
49 -8605 8593 0
49 -8606 8594 0
49 -8599 8591 0
49 -8600 8592 0
49 -8601 8593 0
49 -8602 8594 0
49 -8599 -8603 8592 0
49 -8599 -8604 8593 0
49 -8599 -8605 8594 0
49 -8599 -8606 8595 0
49 -8600 -8603 8593 0
49 -8600 -8604 8594 0
49 -8600 -8605 8595 0
49 -8600 -8606 8596 0
49 -8601 -8603 8594 0
49 -8601 -8604 8595 0
49 -8601 -8605 8596 0
49 -8601 -8606 8597 0
49 -8602 -8603 8595 0
49 -8602 -8604 8596 0
49 -8602 -8605 8597 0
49 -8602 -8606 8598 0
49 -8609 8603 0
49 -8610 8604 0
49 -8607 8603 0
49 -8608 8604 0
49 -8607 -8609 8604 0
49 -8607 -8610 8605 0
49 -8608 -8609 8605 0
49 -8608 -8610 8606 0
49 -2430 8609 0
49 -2429 8609 0
49 -2429 -2430 8610 0
49 -2428 8607 0
49 -2427 8607 0
49 -2427 -2428 8608 0
49 -8613 8599 0
49 -8614 8600 0
49 -8611 8599 0
49 -8612 8600 0
49 -8611 -8613 8600 0
49 -8611 -8614 8601 0
49 -8612 -8613 8601 0
49 -8612 -8614 8602 0
49 -2426 8613 0
49 -2425 8613 0
49 -2425 -2426 8614 0
49 -2424 8611 0
49 -2423 8611 0
49 -2423 -2424 8612 0
49 -8592 0
49 2431 0
49 2432 0
49 2433 2434 2435 2436 0
49 -8621 8615 0
49 -8622 8616 0
49 -8619 8615 0
49 -8620 8616 0
49 -8619 -8621 8616 0
49 -8619 -8622 8617 0
49 -8620 -8621 8617 0
49 -8620 -8622 8618 0
49 -2436 8621 0
49 -2435 8621 0
49 -2435 -2436 8622 0
49 -2434 8619 0
49 -2433 8619 0
49 -2433 -2434 8620 0
49 -8616 0
49 2437 2438 2439 2440 0
49 -8629 8623 0
49 -8630 8624 0
49 -8627 8623 0
49 -8628 8624 0
49 -8627 -8629 8624 0
49 -8627 -8630 8625 0
49 -8628 -8629 8625 0
49 -8628 -8630 8626 0
49 -2440 8629 0
49 -2439 8629 0
49 -2439 -2440 8630 0
49 -2438 8627 0
49 -2437 8627 0
49 -2437 -2438 8628 0
49 -8624 0
49 2441 0
49 2442 0
49 2443 0
49 2444 0
49 2445 0
49 2446 0
49 2447 0
49 2448 0
49 2449 2450 2451 2452 2453 2454 2455 2456 0
49 -8643 8631 0
49 -8644 8632 0
49 -8645 8633 0
49 -8646 8634 0
49 -8639 8631 0
49 -8640 8632 0
49 -8641 8633 0
49 -8642 8634 0
49 -8639 -8643 8632 0
49 -8639 -8644 8633 0
49 -8639 -8645 8634 0
49 -8639 -8646 8635 0
49 -8640 -8643 8633 0
49 -8640 -8644 8634 0
49 -8640 -8645 8635 0
49 -8640 -8646 8636 0
49 -8641 -8643 8634 0
49 -8641 -8644 8635 0
49 -8641 -8645 8636 0
49 -8641 -8646 8637 0
49 -8642 -8643 8635 0
49 -8642 -8644 8636 0
49 -8642 -8645 8637 0
49 -8642 -8646 8638 0
49 -8649 8643 0
49 -8650 8644 0
49 -8647 8643 0
49 -8648 8644 0
49 -8647 -8649 8644 0
49 -8647 -8650 8645 0
49 -8648 -8649 8645 0
49 -8648 -8650 8646 0
49 -2456 8649 0
49 -2455 8649 0
49 -2455 -2456 8650 0
49 -2454 8647 0
49 -2453 8647 0
49 -2453 -2454 8648 0
49 -8653 8639 0
49 -8654 8640 0
49 -8651 8639 0
49 -8652 8640 0
49 -8651 -8653 8640 0
49 -8651 -8654 8641 0
49 -8652 -8653 8641 0
49 -8652 -8654 8642 0
49 -2452 8653 0
49 -2451 8653 0
49 -2451 -2452 8654 0
49 -2450 8651 0
49 -2449 8651 0
49 -2449 -2450 8652 0
49 -8632 0
49 2457 2458 2459 2460 2461 2462 2463 2464 0
49 -8667 8655 0
49 -8668 8656 0
49 -8669 8657 0
49 -8670 8658 0
49 -8663 8655 0
49 -8664 8656 0
49 -8665 8657 0
49 -8666 8658 0
49 -8663 -8667 8656 0
49 -8663 -8668 8657 0
49 -8663 -8669 8658 0
49 -8663 -8670 8659 0
49 -8664 -8667 8657 0
49 -8664 -8668 8658 0
49 -8664 -8669 8659 0
49 -8664 -8670 8660 0
49 -8665 -8667 8658 0
49 -8665 -8668 8659 0
49 -8665 -8669 8660 0
49 -8665 -8670 8661 0
49 -8666 -8667 8659 0
49 -8666 -8668 8660 0
49 -8666 -8669 8661 0
49 -8666 -8670 8662 0
49 -8673 8667 0
49 -8674 8668 0
49 -8671 8667 0
49 -8672 8668 0
49 -8671 -8673 8668 0
49 -8671 -8674 8669 0
49 -8672 -8673 8669 0
49 -8672 -8674 8670 0
49 -2464 8673 0
49 -2463 8673 0
49 -2463 -2464 8674 0
49 -2462 8671 0
49 -2461 8671 0
49 -2461 -2462 8672 0
49 -8677 8663 0
49 -8678 8664 0
49 -8675 8663 0
49 -8676 8664 0
49 -8675 -8677 8664 0
49 -8675 -8678 8665 0
49 -8676 -8677 8665 0
49 -8676 -8678 8666 0
49 -2460 8677 0
49 -2459 8677 0
49 -2459 -2460 8678 0
49 -2458 8675 0
49 -2457 8675 0
49 -2457 -2458 8676 0
49 -8656 0
49 2465 0
49 2466 0
49 2467 0
49 2468 0
49 2469 2470 0
49 -2469 -2470 0
49 2471 2472 0
49 -2471 -2472 0
49 2473 2474 2475 2476 2477 2478 2479 2480 0
49 -8691 8679 0
49 -8692 8680 0
49 -8693 8681 0
49 -8694 8682 0
49 -8687 8679 0
49 -8688 8680 0
49 -8689 8681 0
49 -8690 8682 0
49 -8687 -8691 8680 0
49 -8687 -8692 8681 0
49 -8687 -8693 8682 0
49 -8687 -8694 8683 0
49 -8688 -8691 8681 0
49 -8688 -8692 8682 0
49 -8688 -8693 8683 0
49 -8688 -8694 8684 0
49 -8689 -8691 8682 0
49 -8689 -8692 8683 0
49 -8689 -8693 8684 0
49 -8689 -8694 8685 0
49 -8690 -8691 8683 0
49 -8690 -8692 8684 0
49 -8690 -8693 8685 0
49 -8690 -8694 8686 0
49 -8697 8691 0
49 -8698 8692 0
49 -8695 8691 0
49 -8696 8692 0
49 -8695 -8697 8692 0
49 -8695 -8698 8693 0
49 -8696 -8697 8693 0
49 -8696 -8698 8694 0
49 -2480 8697 0
49 -2479 8697 0
49 -2479 -2480 8698 0
49 -2478 8695 0
49 -2477 8695 0
49 -2477 -2478 8696 0
49 -8701 8687 0
49 -8702 8688 0
49 -8699 8687 0
49 -8700 8688 0
49 -8699 -8701 8688 0
49 -8699 -8702 8689 0
49 -8700 -8701 8689 0
49 -8700 -8702 8690 0
49 -2476 8701 0
49 -2475 8701 0
49 -2475 -2476 8702 0
49 -2474 8699 0
49 -2473 8699 0
49 -2473 -2474 8700 0
49 -8680 0
49 2481 2482 2483 2484 2485 2486 2487 2488 0
49 -8715 8703 0
49 -8716 8704 0
49 -8717 8705 0
49 -8718 8706 0
49 -8711 8703 0
49 -8712 8704 0
49 -8713 8705 0
49 -8714 8706 0
49 -8711 -8715 8704 0
49 -8711 -8716 8705 0
49 -8711 -8717 8706 0
49 -8711 -8718 8707 0
49 -8712 -8715 8705 0
49 -8712 -8716 8706 0
49 -8712 -8717 8707 0
49 -8712 -8718 8708 0
49 -8713 -8715 8706 0
49 -8713 -8716 8707 0
49 -8713 -8717 8708 0
49 -8713 -8718 8709 0
49 -8714 -8715 8707 0
49 -8714 -8716 8708 0
49 -8714 -8717 8709 0
49 -8714 -8718 8710 0
49 -8721 8715 0
49 -8722 8716 0
49 -8719 8715 0
49 -8720 8716 0
49 -8719 -8721 8716 0
49 -8719 -8722 8717 0
49 -8720 -8721 8717 0
49 -8720 -8722 8718 0
49 -2488 8721 0
49 -2487 8721 0
49 -2487 -2488 8722 0
49 -2486 8719 0
49 -2485 8719 0
49 -2485 -2486 8720 0
49 -8725 8711 0
49 -8726 8712 0
49 -8723 8711 0
49 -8724 8712 0
49 -8723 -8725 8712 0
49 -8723 -8726 8713 0
49 -8724 -8725 8713 0
49 -8724 -8726 8714 0
49 -2484 8725 0
49 -2483 8725 0
49 -2483 -2484 8726 0
49 -2482 8723 0
49 -2481 8723 0
49 -2481 -2482 8724 0
49 -8704 0
49 2489 2490 2491 2492 2493 2494 2495 2496 2497 2498 2499 0
49 -8744 8727 0
49 -8745 8728 0
49 -8746 8729 0
49 -8747 8730 0
49 -8748 8731 0
49 -8738 8727 0
49 -8739 8728 0
49 -8740 8729 0
49 -8741 8730 0
49 -8742 8731 0
49 -8743 8732 0
49 -8738 -8744 8728 0
49 -8738 -8745 8729 0
49 -8738 -8746 8730 0
49 -8738 -8747 8731 0
49 -8738 -8748 8732 0
49 -8739 -8744 8729 0
49 -8739 -8745 8730 0
49 -8739 -8746 8731 0
49 -8739 -8747 8732 0
49 -8739 -8748 8733 0
49 -8740 -8744 8730 0
49 -8740 -8745 8731 0
49 -8740 -8746 8732 0
49 -8740 -8747 8733 0
49 -8740 -8748 8734 0
49 -8741 -8744 8731 0
49 -8741 -8745 8732 0
49 -8741 -8746 8733 0
49 -8741 -8747 8734 0
49 -8741 -8748 8735 0
49 -8742 -8744 8732 0
49 -8742 -8745 8733 0
49 -8742 -8746 8734 0
49 -8742 -8747 8735 0
49 -8742 -8748 8736 0
49 -8743 -8744 8733 0
49 -8743 -8745 8734 0
49 -8743 -8746 8735 0
49 -8743 -8747 8736 0
49 -8743 -8748 8737 0
49 -8752 8744 0
49 -8753 8745 0
49 -8749 8744 0
49 -8750 8745 0
49 -8751 8746 0
49 -8749 -8752 8745 0
49 -8749 -8753 8746 0
49 -8750 -8752 8746 0
49 -8750 -8753 8747 0
49 -8751 -8752 8747 0
49 -8751 -8753 8748 0
49 -2499 8752 0
49 -2498 8752 0
49 -2498 -2499 8753 0
49 -2497 8749 0
49 -8754 8749 0
49 -8755 8750 0
49 -8754 -2497 8750 0
49 -8755 -2497 8751 0
49 -2496 8754 0
49 -2495 8754 0
49 -2495 -2496 8755 0
49 -8759 8738 0
49 -8760 8739 0
49 -8761 8740 0
49 -8756 8738 0
49 -8757 8739 0
49 -8758 8740 0
49 -8756 -8759 8739 0
49 -8756 -8760 8740 0
49 -8756 -8761 8741 0
49 -8757 -8759 8740 0
49 -8757 -8760 8741 0
49 -8757 -8761 8742 0
49 -8758 -8759 8741 0
49 -8758 -8760 8742 0
49 -8758 -8761 8743 0
49 -2494 8759 0
49 -8762 8759 0
49 -8763 8760 0
49 -8762 -2494 8760 0
49 -8763 -2494 8761 0
49 -2493 8762 0
49 -2492 8762 0
49 -2492 -2493 8763 0
49 -2491 8756 0
49 -8764 8756 0
49 -8765 8757 0
49 -8764 -2491 8757 0
49 -8765 -2491 8758 0
49 -2490 8764 0
49 -2489 8764 0
49 -2489 -2490 8765 0
49 -8728 0
49 2500 2501 2502 2503 2504 2505 2506 2507 2508 2509 2510 0
49 -8783 8766 0
49 -8784 8767 0
49 -8785 8768 0
49 -8786 8769 0
49 -8787 8770 0
49 -8777 8766 0
49 -8778 8767 0
49 -8779 8768 0
49 -8780 8769 0
49 -8781 8770 0
49 -8782 8771 0
49 -8777 -8783 8767 0
49 -8777 -8784 8768 0
49 -8777 -8785 8769 0
49 -8777 -8786 8770 0
49 -8777 -8787 8771 0
49 -8778 -8783 8768 0
49 -8778 -8784 8769 0
49 -8778 -8785 8770 0
49 -8778 -8786 8771 0
49 -8778 -8787 8772 0
49 -8779 -8783 8769 0
49 -8779 -8784 8770 0
49 -8779 -8785 8771 0
49 -8779 -8786 8772 0
49 -8779 -8787 8773 0
49 -8780 -8783 8770 0
49 -8780 -8784 8771 0
49 -8780 -8785 8772 0
49 -8780 -8786 8773 0
49 -8780 -8787 8774 0
49 -8781 -8783 8771 0
49 -8781 -8784 8772 0
49 -8781 -8785 8773 0
49 -8781 -8786 8774 0
49 -8781 -8787 8775 0
49 -8782 -8783 8772 0
49 -8782 -8784 8773 0
49 -8782 -8785 8774 0
49 -8782 -8786 8775 0
49 -8782 -8787 8776 0
49 -8791 8783 0
49 -8792 8784 0
49 -8788 8783 0
49 -8789 8784 0
49 -8790 8785 0
49 -8788 -8791 8784 0
49 -8788 -8792 8785 0
49 -8789 -8791 8785 0
49 -8789 -8792 8786 0
49 -8790 -8791 8786 0
49 -8790 -8792 8787 0
49 -2510 8791 0
49 -2509 8791 0
49 -2509 -2510 8792 0
49 -2508 8788 0
49 -8793 8788 0
49 -8794 8789 0
49 -8793 -2508 8789 0
49 -8794 -2508 8790 0
49 -2507 8793 0
49 -2506 8793 0
49 -2506 -2507 8794 0
49 -8798 8777 0
49 -8799 8778 0
49 -8800 8779 0
49 -8795 8777 0
49 -8796 8778 0
49 -8797 8779 0
49 -8795 -8798 8778 0
49 -8795 -8799 8779 0
49 -8795 -8800 8780 0
49 -8796 -8798 8779 0
49 -8796 -8799 8780 0
49 -8796 -8800 8781 0
49 -8797 -8798 8780 0
49 -8797 -8799 8781 0
49 -8797 -8800 8782 0
49 -2505 8798 0
49 -8801 8798 0
49 -8802 8799 0
49 -8801 -2505 8799 0
49 -8802 -2505 8800 0
49 -2504 8801 0
49 -2503 8801 0
49 -2503 -2504 8802 0
49 -2502 8795 0
49 -8803 8795 0
49 -8804 8796 0
49 -8803 -2502 8796 0
49 -8804 -2502 8797 0
49 -2501 8803 0
49 -2500 8803 0
49 -2500 -2501 8804 0
49 -8767 0
49 2511 0
49 2512 0
49 2513 0
49 2514 0
49 2515 0
49 2516 0
49 2517 2518 2519 2520 2521 2522 2523 2524 0
49 -8817 8805 0
49 -8818 8806 0
49 -8819 8807 0
49 -8820 8808 0
49 -8813 8805 0
49 -8814 8806 0
49 -8815 8807 0
49 -8816 8808 0
49 -8813 -8817 8806 0
49 -8813 -8818 8807 0
49 -8813 -8819 8808 0
49 -8813 -8820 8809 0
49 -8814 -8817 8807 0
49 -8814 -8818 8808 0
49 -8814 -8819 8809 0
49 -8814 -8820 8810 0
49 -8815 -8817 8808 0
49 -8815 -8818 8809 0
49 -8815 -8819 8810 0
49 -8815 -8820 8811 0
49 -8816 -8817 8809 0
49 -8816 -8818 8810 0
49 -8816 -8819 8811 0
49 -8816 -8820 8812 0
49 -8823 8817 0
49 -8824 8818 0
49 -8821 8817 0
49 -8822 8818 0
49 -8821 -8823 8818 0
49 -8821 -8824 8819 0
49 -8822 -8823 8819 0
49 -8822 -8824 8820 0
49 -2524 8823 0
49 -2523 8823 0
49 -2523 -2524 8824 0
49 -2522 8821 0
49 -2521 8821 0
49 -2521 -2522 8822 0
49 -8827 8813 0
49 -8828 8814 0
49 -8825 8813 0
49 -8826 8814 0
49 -8825 -8827 8814 0
49 -8825 -8828 8815 0
49 -8826 -8827 8815 0
49 -8826 -8828 8816 0
49 -2520 8827 0
49 -2519 8827 0
49 -2519 -2520 8828 0
49 -2518 8825 0
49 -2517 8825 0
49 -2517 -2518 8826 0
49 -8806 0
49 2525 2526 2527 2528 2529 2530 2531 2532 0
49 -8841 8829 0
49 -8842 8830 0
49 -8843 8831 0
49 -8844 8832 0
49 -8837 8829 0
49 -8838 8830 0
49 -8839 8831 0
49 -8840 8832 0
49 -8837 -8841 8830 0
49 -8837 -8842 8831 0
49 -8837 -8843 8832 0
49 -8837 -8844 8833 0
49 -8838 -8841 8831 0
49 -8838 -8842 8832 0
49 -8838 -8843 8833 0
49 -8838 -8844 8834 0
49 -8839 -8841 8832 0
49 -8839 -8842 8833 0
49 -8839 -8843 8834 0
49 -8839 -8844 8835 0
49 -8840 -8841 8833 0
49 -8840 -8842 8834 0
49 -8840 -8843 8835 0
49 -8840 -8844 8836 0
49 -8847 8841 0
49 -8848 8842 0
49 -8845 8841 0
49 -8846 8842 0
49 -8845 -8847 8842 0
49 -8845 -8848 8843 0
49 -8846 -8847 8843 0
49 -8846 -8848 8844 0
49 -2532 8847 0
49 -2531 8847 0
49 -2531 -2532 8848 0
49 -2530 8845 0
49 -2529 8845 0
49 -2529 -2530 8846 0
49 -8851 8837 0
49 -8852 8838 0
49 -8849 8837 0
49 -8850 8838 0
49 -8849 -8851 8838 0
49 -8849 -8852 8839 0
49 -8850 -8851 8839 0
49 -8850 -8852 8840 0
49 -2528 8851 0
49 -2527 8851 0
49 -2527 -2528 8852 0
49 -2526 8849 0
49 -2525 8849 0
49 -2525 -2526 8850 0
49 -8830 0
49 2533 0
49 2534 0
49 2535 0
49 2536 0
49 2537 2538 2539 2540 0
49 -8859 8853 0
49 -8860 8854 0
49 -8857 8853 0
49 -8858 8854 0
49 -8857 -8859 8854 0
49 -8857 -8860 8855 0
49 -8858 -8859 8855 0
49 -8858 -8860 8856 0
49 -2540 8859 0
49 -2539 8859 0
49 -2539 -2540 8860 0
49 -2538 8857 0
49 -2537 8857 0
49 -2537 -2538 8858 0
49 -8854 0
49 2541 2542 2543 2544 0
49 -8867 8861 0
49 -8868 8862 0
49 -8865 8861 0
49 -8866 8862 0
49 -8865 -8867 8862 0
49 -8865 -8868 8863 0
49 -8866 -8867 8863 0
49 -8866 -8868 8864 0
49 -2544 8867 0
49 -2543 8867 0
49 -2543 -2544 8868 0
49 -2542 8865 0
49 -2541 8865 0
49 -2541 -2542 8866 0
49 -8862 0
49 2545 0
49 2546 0
49 2547 2548 2549 0
49 -2549 8869 0
49 -8872 8869 0
49 -8873 8870 0
49 -8872 -2549 8870 0
49 -8873 -2549 8871 0
49 -2548 8872 0
49 -2547 8872 0
49 -2547 -2548 8873 0
49 -8870 0
49 2550 2551 2552 0
49 -2552 8874 0
49 -8877 8874 0
49 -8878 8875 0
49 -8877 -2552 8875 0
49 -8878 -2552 8876 0
49 -2551 8877 0
49 -2550 8877 0
49 -2550 -2551 8878 0
49 -8875 0
49 2553 0
49 2554 0
49 2555 0
49 2556 0
49 2557 0
49 2558 0
49 2559 2560 2561 2562 2563 2564 2565 2566 0
49 -8891 8879 0
49 -8892 8880 0
49 -8893 8881 0
49 -8894 8882 0
49 -8887 8879 0
49 -8888 8880 0
49 -8889 8881 0
49 -8890 8882 0
49 -8887 -8891 8880 0
49 -8887 -8892 8881 0
49 -8887 -8893 8882 0
49 -8887 -8894 8883 0
49 -8888 -8891 8881 0
49 -8888 -8892 8882 0
49 -8888 -8893 8883 0
49 -8888 -8894 8884 0
49 -8889 -8891 8882 0
49 -8889 -8892 8883 0
49 -8889 -8893 8884 0
49 -8889 -8894 8885 0
49 -8890 -8891 8883 0
49 -8890 -8892 8884 0
49 -8890 -8893 8885 0
49 -8890 -8894 8886 0
49 -8897 8891 0
49 -8898 8892 0
49 -8895 8891 0
49 -8896 8892 0
49 -8895 -8897 8892 0
49 -8895 -8898 8893 0
49 -8896 -8897 8893 0
49 -8896 -8898 8894 0
49 -2566 8897 0
49 -2565 8897 0
49 -2565 -2566 8898 0
49 -2564 8895 0
49 -2563 8895 0
49 -2563 -2564 8896 0
49 -8901 8887 0
49 -8902 8888 0
49 -8899 8887 0
49 -8900 8888 0
49 -8899 -8901 8888 0
49 -8899 -8902 8889 0
49 -8900 -8901 8889 0
49 -8900 -8902 8890 0
49 -2562 8901 0
49 -2561 8901 0
49 -2561 -2562 8902 0
49 -2560 8899 0
49 -2559 8899 0
49 -2559 -2560 8900 0
49 -8880 0
49 2567 2568 2569 2570 2571 2572 2573 2574 0
49 -8915 8903 0
49 -8916 8904 0
49 -8917 8905 0
49 -8918 8906 0
49 -8911 8903 0
49 -8912 8904 0
49 -8913 8905 0
49 -8914 8906 0
49 -8911 -8915 8904 0
49 -8911 -8916 8905 0
49 -8911 -8917 8906 0
49 -8911 -8918 8907 0
49 -8912 -8915 8905 0
49 -8912 -8916 8906 0
49 -8912 -8917 8907 0
49 -8912 -8918 8908 0
49 -8913 -8915 8906 0
49 -8913 -8916 8907 0
49 -8913 -8917 8908 0
49 -8913 -8918 8909 0
49 -8914 -8915 8907 0
49 -8914 -8916 8908 0
49 -8914 -8917 8909 0
49 -8914 -8918 8910 0
49 -8921 8915 0
49 -8922 8916 0
49 -8919 8915 0
49 -8920 8916 0
49 -8919 -8921 8916 0
49 -8919 -8922 8917 0
49 -8920 -8921 8917 0
49 -8920 -8922 8918 0
49 -2574 8921 0
49 -2573 8921 0
49 -2573 -2574 8922 0
49 -2572 8919 0
49 -2571 8919 0
49 -2571 -2572 8920 0
49 -8925 8911 0
49 -8926 8912 0
49 -8923 8911 0
49 -8924 8912 0
49 -8923 -8925 8912 0
49 -8923 -8926 8913 0
49 -8924 -8925 8913 0
49 -8924 -8926 8914 0
49 -2570 8925 0
49 -2569 8925 0
49 -2569 -2570 8926 0
49 -2568 8923 0
49 -2567 8923 0
49 -2567 -2568 8924 0
49 -8904 0
49 2575 0
49 2576 0
49 2577 0
49 2578 0
49 2579 0
49 2580 0
49 2581 0
49 2582 0
49 2583 0
49 2584 0
49 2585 0
49 2586 0
49 2587 2588 2589 2590 2591 2592 2593 2594 0
49 -8939 8927 0
49 -8940 8928 0
49 -8941 8929 0
49 -8942 8930 0
49 -8935 8927 0
49 -8936 8928 0
49 -8937 8929 0
49 -8938 8930 0
49 -8935 -8939 8928 0
49 -8935 -8940 8929 0
49 -8935 -8941 8930 0
49 -8935 -8942 8931 0
49 -8936 -8939 8929 0
49 -8936 -8940 8930 0
49 -8936 -8941 8931 0
49 -8936 -8942 8932 0
49 -8937 -8939 8930 0
49 -8937 -8940 8931 0
49 -8937 -8941 8932 0
49 -8937 -8942 8933 0
49 -8938 -8939 8931 0
49 -8938 -8940 8932 0
49 -8938 -8941 8933 0
49 -8938 -8942 8934 0
49 -8945 8939 0
49 -8946 8940 0
49 -8943 8939 0
49 -8944 8940 0
49 -8943 -8945 8940 0
49 -8943 -8946 8941 0
49 -8944 -8945 8941 0
49 -8944 -8946 8942 0
49 -2594 8945 0
49 -2593 8945 0
49 -2593 -2594 8946 0
49 -2592 8943 0
49 -2591 8943 0
49 -2591 -2592 8944 0
49 -8949 8935 0
49 -8950 8936 0
49 -8947 8935 0
49 -8948 8936 0
49 -8947 -8949 8936 0
49 -8947 -8950 8937 0
49 -8948 -8949 8937 0
49 -8948 -8950 8938 0
49 -2590 8949 0
49 -2589 8949 0
49 -2589 -2590 8950 0
49 -2588 8947 0
49 -2587 8947 0
49 -2587 -2588 8948 0
49 -8928 0
49 2595 2596 2597 2598 2599 2600 2601 2602 0
49 -8963 8951 0
49 -8964 8952 0
49 -8965 8953 0
49 -8966 8954 0
49 -8959 8951 0
49 -8960 8952 0
49 -8961 8953 0
49 -8962 8954 0
49 -8959 -8963 8952 0
49 -8959 -8964 8953 0
49 -8959 -8965 8954 0
49 -8959 -8966 8955 0
49 -8960 -8963 8953 0
49 -8960 -8964 8954 0
49 -8960 -8965 8955 0
49 -8960 -8966 8956 0
49 -8961 -8963 8954 0
49 -8961 -8964 8955 0
49 -8961 -8965 8956 0
49 -8961 -8966 8957 0
49 -8962 -8963 8955 0
49 -8962 -8964 8956 0
49 -8962 -8965 8957 0
49 -8962 -8966 8958 0
49 -8969 8963 0
49 -8970 8964 0
49 -8967 8963 0
49 -8968 8964 0
49 -8967 -8969 8964 0
49 -8967 -8970 8965 0
49 -8968 -8969 8965 0
49 -8968 -8970 8966 0
49 -2602 8969 0
49 -2601 8969 0
49 -2601 -2602 8970 0
49 -2600 8967 0
49 -2599 8967 0
49 -2599 -2600 8968 0
49 -8973 8959 0
49 -8974 8960 0
49 -8971 8959 0
49 -8972 8960 0
49 -8971 -8973 8960 0
49 -8971 -8974 8961 0
49 -8972 -8973 8961 0
49 -8972 -8974 8962 0
49 -2598 8973 0
49 -2597 8973 0
49 -2597 -2598 8974 0
49 -2596 8971 0
49 -2595 8971 0
49 -2595 -2596 8972 0
49 -8952 0
49 2603 0
49 2604 0
49 2605 0
49 2606 0
49 2607 2608 2609 2610 2611 2612 2613 2614 2615 2616 0
49 -8990 8975 0
49 -8991 8976 0
49 -8992 8977 0
49 -8993 8978 0
49 -8994 8979 0
49 -8985 8975 0
49 -8986 8976 0
49 -8987 8977 0
49 -8988 8978 0
49 -8989 8979 0
49 -8985 -8990 8976 0
49 -8985 -8991 8977 0
49 -8985 -8992 8978 0
49 -8985 -8993 8979 0
49 -8985 -8994 8980 0
49 -8986 -8990 8977 0
49 -8986 -8991 8978 0
49 -8986 -8992 8979 0
49 -8986 -8993 8980 0
49 -8986 -8994 8981 0
49 -8987 -8990 8978 0
49 -8987 -8991 8979 0
49 -8987 -8992 8980 0
49 -8987 -8993 8981 0
49 -8987 -8994 8982 0
49 -8988 -8990 8979 0
49 -8988 -8991 8980 0
49 -8988 -8992 8981 0
49 -8988 -8993 8982 0
49 -8988 -8994 8983 0
49 -8989 -8990 8980 0
49 -8989 -8991 8981 0
49 -8989 -8992 8982 0
49 -8989 -8993 8983 0
49 -8989 -8994 8984 0
49 -8998 8990 0
49 -8999 8991 0
49 -8995 8990 0
49 -8996 8991 0
49 -8997 8992 0
49 -8995 -8998 8991 0
49 -8995 -8999 8992 0
49 -8996 -8998 8992 0
49 -8996 -8999 8993 0
49 -8997 -8998 8993 0
49 -8997 -8999 8994 0
49 -2616 8998 0
49 -2615 8998 0
49 -2615 -2616 8999 0
49 -2614 8995 0
49 -9000 8995 0
49 -9001 8996 0
49 -9000 -2614 8996 0
49 -9001 -2614 8997 0
49 -2613 9000 0
49 -2612 9000 0
49 -2612 -2613 9001 0
49 -9005 8985 0
49 -9006 8986 0
49 -9002 8985 0
49 -9003 8986 0
49 -9004 8987 0
49 -9002 -9005 8986 0
49 -9002 -9006 8987 0
49 -9003 -9005 8987 0
49 -9003 -9006 8988 0
49 -9004 -9005 8988 0
49 -9004 -9006 8989 0
49 -2611 9005 0
49 -2610 9005 0
49 -2610 -2611 9006 0
49 -2609 9002 0
49 -9007 9002 0
49 -9008 9003 0
49 -9007 -2609 9003 0
49 -9008 -2609 9004 0
49 -2608 9007 0
49 -2607 9007 0
49 -2607 -2608 9008 0
49 -8976 0
49 2617 2618 2619 2620 2621 2622 2623 2624 2625 2626 0
49 -9024 9009 0
49 -9025 9010 0
49 -9026 9011 0
49 -9027 9012 0
49 -9028 9013 0
49 -9019 9009 0
49 -9020 9010 0
49 -9021 9011 0
49 -9022 9012 0
49 -9023 9013 0
49 -9019 -9024 9010 0
49 -9019 -9025 9011 0
49 -9019 -9026 9012 0
49 -9019 -9027 9013 0
49 -9019 -9028 9014 0
49 -9020 -9024 9011 0
49 -9020 -9025 9012 0
49 -9020 -9026 9013 0
49 -9020 -9027 9014 0
49 -9020 -9028 9015 0
49 -9021 -9024 9012 0
49 -9021 -9025 9013 0
49 -9021 -9026 9014 0
49 -9021 -9027 9015 0
49 -9021 -9028 9016 0
49 -9022 -9024 9013 0
49 -9022 -9025 9014 0
49 -9022 -9026 9015 0
49 -9022 -9027 9016 0
49 -9022 -9028 9017 0
49 -9023 -9024 9014 0
49 -9023 -9025 9015 0
49 -9023 -9026 9016 0
49 -9023 -9027 9017 0
49 -9023 -9028 9018 0
49 -9032 9024 0
49 -9033 9025 0
49 -9029 9024 0
49 -9030 9025 0
49 -9031 9026 0
49 -9029 -9032 9025 0
49 -9029 -9033 9026 0
49 -9030 -9032 9026 0
49 -9030 -9033 9027 0
49 -9031 -9032 9027 0
49 -9031 -9033 9028 0
49 -2626 9032 0
49 -2625 9032 0
49 -2625 -2626 9033 0
49 -2624 9029 0
49 -9034 9029 0
49 -9035 9030 0
49 -9034 -2624 9030 0
49 -9035 -2624 9031 0
49 -2623 9034 0
49 -2622 9034 0
49 -2622 -2623 9035 0
49 -9039 9019 0
49 -9040 9020 0
49 -9036 9019 0
49 -9037 9020 0
49 -9038 9021 0
49 -9036 -9039 9020 0
49 -9036 -9040 9021 0
49 -9037 -9039 9021 0
49 -9037 -9040 9022 0
49 -9038 -9039 9022 0
49 -9038 -9040 9023 0
49 -2621 9039 0
49 -2620 9039 0
49 -2620 -2621 9040 0
49 -2619 9036 0
49 -9041 9036 0
49 -9042 9037 0
49 -9041 -2619 9037 0
49 -9042 -2619 9038 0
49 -2618 9041 0
49 -2617 9041 0
49 -2617 -2618 9042 0
49 -9010 0
49 2627 2628 2629 2630 2631 2632 2633 2634 0
49 -9055 9043 0
49 -9056 9044 0
49 -9057 9045 0
49 -9058 9046 0
49 -9051 9043 0
49 -9052 9044 0
49 -9053 9045 0
49 -9054 9046 0
49 -9051 -9055 9044 0
49 -9051 -9056 9045 0
49 -9051 -9057 9046 0
49 -9051 -9058 9047 0
49 -9052 -9055 9045 0
49 -9052 -9056 9046 0
49 -9052 -9057 9047 0
49 -9052 -9058 9048 0
49 -9053 -9055 9046 0
49 -9053 -9056 9047 0
49 -9053 -9057 9048 0
49 -9053 -9058 9049 0
49 -9054 -9055 9047 0
49 -9054 -9056 9048 0
49 -9054 -9057 9049 0
49 -9054 -9058 9050 0
49 -9061 9055 0
49 -9062 9056 0
49 -9059 9055 0
49 -9060 9056 0
49 -9059 -9061 9056 0
49 -9059 -9062 9057 0
49 -9060 -9061 9057 0
49 -9060 -9062 9058 0
49 -2634 9061 0
49 -2633 9061 0
49 -2633 -2634 9062 0
49 -2632 9059 0
49 -2631 9059 0
49 -2631 -2632 9060 0
49 -9065 9051 0
49 -9066 9052 0
49 -9063 9051 0
49 -9064 9052 0
49 -9063 -9065 9052 0
49 -9063 -9066 9053 0
49 -9064 -9065 9053 0
49 -9064 -9066 9054 0
49 -2630 9065 0
49 -2629 9065 0
49 -2629 -2630 9066 0
49 -2628 9063 0
49 -2627 9063 0
49 -2627 -2628 9064 0
49 -9044 0
49 2635 2636 2637 2638 2639 2640 2641 2642 0
49 -9079 9067 0
49 -9080 9068 0
49 -9081 9069 0
49 -9082 9070 0
49 -9075 9067 0
49 -9076 9068 0
49 -9077 9069 0
49 -9078 9070 0
49 -9075 -9079 9068 0
49 -9075 -9080 9069 0
49 -9075 -9081 9070 0
49 -9075 -9082 9071 0
49 -9076 -9079 9069 0
49 -9076 -9080 9070 0
49 -9076 -9081 9071 0
49 -9076 -9082 9072 0
49 -9077 -9079 9070 0
49 -9077 -9080 9071 0
49 -9077 -9081 9072 0
49 -9077 -9082 9073 0
49 -9078 -9079 9071 0
49 -9078 -9080 9072 0
49 -9078 -9081 9073 0
49 -9078 -9082 9074 0
49 -9085 9079 0
49 -9086 9080 0
49 -9083 9079 0
49 -9084 9080 0
49 -9083 -9085 9080 0
49 -9083 -9086 9081 0
49 -9084 -9085 9081 0
49 -9084 -9086 9082 0
49 -2642 9085 0
49 -2641 9085 0
49 -2641 -2642 9086 0
49 -2640 9083 0
49 -2639 9083 0
49 -2639 -2640 9084 0
49 -9089 9075 0
49 -9090 9076 0
49 -9087 9075 0
49 -9088 9076 0
49 -9087 -9089 9076 0
49 -9087 -9090 9077 0
49 -9088 -9089 9077 0
49 -9088 -9090 9078 0
49 -2638 9089 0
49 -2637 9089 0
49 -2637 -2638 9090 0
49 -2636 9087 0
49 -2635 9087 0
49 -2635 -2636 9088 0
49 -9068 0
49 2643 2644 2645 2646 2647 2648 2649 2650 0
49 -9103 9091 0
49 -9104 9092 0
49 -9105 9093 0
49 -9106 9094 0
49 -9099 9091 0
49 -9100 9092 0
49 -9101 9093 0
49 -9102 9094 0
49 -9099 -9103 9092 0
49 -9099 -9104 9093 0
49 -9099 -9105 9094 0
49 -9099 -9106 9095 0
49 -9100 -9103 9093 0
49 -9100 -9104 9094 0
49 -9100 -9105 9095 0
49 -9100 -9106 9096 0
49 -9101 -9103 9094 0
49 -9101 -9104 9095 0
49 -9101 -9105 9096 0
49 -9101 -9106 9097 0
49 -9102 -9103 9095 0
49 -9102 -9104 9096 0
49 -9102 -9105 9097 0
49 -9102 -9106 9098 0
49 -9109 9103 0
49 -9110 9104 0
49 -9107 9103 0
49 -9108 9104 0
49 -9107 -9109 9104 0
49 -9107 -9110 9105 0
49 -9108 -9109 9105 0
49 -9108 -9110 9106 0
49 -2650 9109 0
49 -2649 9109 0
49 -2649 -2650 9110 0
49 -2648 9107 0
49 -2647 9107 0
49 -2647 -2648 9108 0
49 -9113 9099 0
49 -9114 9100 0
49 -9111 9099 0
49 -9112 9100 0
49 -9111 -9113 9100 0
49 -9111 -9114 9101 0
49 -9112 -9113 9101 0
49 -9112 -9114 9102 0
49 -2646 9113 0
49 -2645 9113 0
49 -2645 -2646 9114 0
49 -2644 9111 0
49 -2643 9111 0
49 -2643 -2644 9112 0
49 -9092 0
49 2651 2652 2653 2654 2655 2656 2657 2658 0
49 -9127 9115 0
49 -9128 9116 0
49 -9129 9117 0
49 -9130 9118 0
49 -9123 9115 0
49 -9124 9116 0
49 -9125 9117 0
49 -9126 9118 0
49 -9123 -9127 9116 0
49 -9123 -9128 9117 0
49 -9123 -9129 9118 0
49 -9123 -9130 9119 0
49 -9124 -9127 9117 0
49 -9124 -9128 9118 0
49 -9124 -9129 9119 0
49 -9124 -9130 9120 0
49 -9125 -9127 9118 0
49 -9125 -9128 9119 0
49 -9125 -9129 9120 0
49 -9125 -9130 9121 0
49 -9126 -9127 9119 0
49 -9126 -9128 9120 0
49 -9126 -9129 9121 0
49 -9126 -9130 9122 0
49 -9133 9127 0
49 -9134 9128 0
49 -9131 9127 0
49 -9132 9128 0
49 -9131 -9133 9128 0
49 -9131 -9134 9129 0
49 -9132 -9133 9129 0
49 -9132 -9134 9130 0
49 -2658 9133 0
49 -2657 9133 0
49 -2657 -2658 9134 0
49 -2656 9131 0
49 -2655 9131 0
49 -2655 -2656 9132 0
49 -9137 9123 0
49 -9138 9124 0
49 -9135 9123 0
49 -9136 9124 0
49 -9135 -9137 9124 0
49 -9135 -9138 9125 0
49 -9136 -9137 9125 0
49 -9136 -9138 9126 0
49 -2654 9137 0
49 -2653 9137 0
49 -2653 -2654 9138 0
49 -2652 9135 0
49 -2651 9135 0
49 -2651 -2652 9136 0
49 -9116 0
49 2659 0
49 2660 0
49 2661 0
49 2662 0
49 2663 0
49 2664 0
49 2665 2666 2667 2668 2669 2670 2671 2672 2673 2674 2675 2676 0
49 -9157 9139 0
49 -9158 9140 0
49 -9159 9141 0
49 -9160 9142 0
49 -9161 9143 0
49 -9162 9144 0
49 -9151 9139 0
49 -9152 9140 0
49 -9153 9141 0
49 -9154 9142 0
49 -9155 9143 0
49 -9156 9144 0
49 -9151 -9157 9140 0
49 -9151 -9158 9141 0
49 -9151 -9159 9142 0
49 -9151 -9160 9143 0
49 -9151 -9161 9144 0
49 -9151 -9162 9145 0
49 -9152 -9157 9141 0
49 -9152 -9158 9142 0
49 -9152 -9159 9143 0
49 -9152 -9160 9144 0
49 -9152 -9161 9145 0
49 -9152 -9162 9146 0
49 -9153 -9157 9142 0
49 -9153 -9158 9143 0
49 -9153 -9159 9144 0
49 -9153 -9160 9145 0
49 -9153 -9161 9146 0
49 -9153 -9162 9147 0
49 -9154 -9157 9143 0
49 -9154 -9158 9144 0
49 -9154 -9159 9145 0
49 -9154 -9160 9146 0
49 -9154 -9161 9147 0
49 -9154 -9162 9148 0
49 -9155 -9157 9144 0
49 -9155 -9158 9145 0
49 -9155 -9159 9146 0
49 -9155 -9160 9147 0
49 -9155 -9161 9148 0
49 -9155 -9162 9149 0
49 -9156 -9157 9145 0
49 -9156 -9158 9146 0
49 -9156 -9159 9147 0
49 -9156 -9160 9148 0
49 -9156 -9161 9149 0
49 -9156 -9162 9150 0
49 -9166 9157 0
49 -9167 9158 0
49 -9168 9159 0
49 -9163 9157 0
49 -9164 9158 0
49 -9165 9159 0
49 -9163 -9166 9158 0
49 -9163 -9167 9159 0
49 -9163 -9168 9160 0
49 -9164 -9166 9159 0
49 -9164 -9167 9160 0
49 -9164 -9168 9161 0
49 -9165 -9166 9160 0
49 -9165 -9167 9161 0
49 -9165 -9168 9162 0
49 -2676 9166 0
49 -9169 9166 0
49 -9170 9167 0
49 -9169 -2676 9167 0
49 -9170 -2676 9168 0
49 -2675 9169 0
49 -2674 9169 0
49 -2674 -2675 9170 0
49 -2673 9163 0
49 -9171 9163 0
49 -9172 9164 0
49 -9171 -2673 9164 0
49 -9172 -2673 9165 0
49 -2672 9171 0
49 -2671 9171 0
49 -2671 -2672 9172 0
49 -9176 9151 0
49 -9177 9152 0
49 -9178 9153 0
49 -9173 9151 0
49 -9174 9152 0
49 -9175 9153 0
49 -9173 -9176 9152 0
49 -9173 -9177 9153 0
49 -9173 -9178 9154 0
49 -9174 -9176 9153 0
49 -9174 -9177 9154 0
49 -9174 -9178 9155 0
49 -9175 -9176 9154 0
49 -9175 -9177 9155 0
49 -9175 -9178 9156 0
49 -2670 9176 0
49 -9179 9176 0
49 -9180 9177 0
49 -9179 -2670 9177 0
49 -9180 -2670 9178 0
49 -2669 9179 0
49 -2668 9179 0
49 -2668 -2669 9180 0
49 -2667 9173 0
49 -9181 9173 0
49 -9182 9174 0
49 -9181 -2667 9174 0
49 -9182 -2667 9175 0
49 -2666 9181 0
49 -2665 9181 0
49 -2665 -2666 9182 0
49 -9140 0
49 2677 2678 2679 2680 2681 2682 2683 2684 2685 2686 2687 2688 0
49 -9201 9183 0
49 -9202 9184 0
49 -9203 9185 0
49 -9204 9186 0
49 -9205 9187 0
49 -9206 9188 0
49 -9195 9183 0
49 -9196 9184 0
49 -9197 9185 0
49 -9198 9186 0
49 -9199 9187 0
49 -9200 9188 0
49 -9195 -9201 9184 0
49 -9195 -9202 9185 0
49 -9195 -9203 9186 0
49 -9195 -9204 9187 0
49 -9195 -9205 9188 0
49 -9195 -9206 9189 0
49 -9196 -9201 9185 0
49 -9196 -9202 9186 0
49 -9196 -9203 9187 0
49 -9196 -9204 9188 0
49 -9196 -9205 9189 0
49 -9196 -9206 9190 0
49 -9197 -9201 9186 0
49 -9197 -9202 9187 0
49 -9197 -9203 9188 0
49 -9197 -9204 9189 0
49 -9197 -9205 9190 0
49 -9197 -9206 9191 0
49 -9198 -9201 9187 0
49 -9198 -9202 9188 0
49 -9198 -9203 9189 0
49 -9198 -9204 9190 0
49 -9198 -9205 9191 0
49 -9198 -9206 9192 0
49 -9199 -9201 9188 0
49 -9199 -9202 9189 0
49 -9199 -9203 9190 0
49 -9199 -9204 9191 0
49 -9199 -9205 9192 0
49 -9199 -9206 9193 0
49 -9200 -9201 9189 0
49 -9200 -9202 9190 0
49 -9200 -9203 9191 0
49 -9200 -9204 9192 0
49 -9200 -9205 9193 0
49 -9200 -9206 9194 0
49 -9210 9201 0
49 -9211 9202 0
49 -9212 9203 0
49 -9207 9201 0
49 -9208 9202 0
49 -9209 9203 0
49 -9207 -9210 9202 0
49 -9207 -9211 9203 0
49 -9207 -9212 9204 0
49 -9208 -9210 9203 0
49 -9208 -9211 9204 0
49 -9208 -9212 9205 0
49 -9209 -9210 9204 0
49 -9209 -9211 9205 0
49 -9209 -9212 9206 0
49 -2688 9210 0
49 -9213 9210 0
49 -9214 9211 0
49 -9213 -2688 9211 0
49 -9214 -2688 9212 0
49 -2687 9213 0
49 -2686 9213 0
49 -2686 -2687 9214 0
49 -2685 9207 0
49 -9215 9207 0
49 -9216 9208 0
49 -9215 -2685 9208 0
49 -9216 -2685 9209 0
49 -2684 9215 0
49 -2683 9215 0
49 -2683 -2684 9216 0
49 -9220 9195 0
49 -9221 9196 0
49 -9222 9197 0
49 -9217 9195 0
49 -9218 9196 0
49 -9219 9197 0
49 -9217 -9220 9196 0
49 -9217 -9221 9197 0
49 -9217 -9222 9198 0
49 -9218 -9220 9197 0
49 -9218 -9221 9198 0
49 -9218 -9222 9199 0
49 -9219 -9220 9198 0
49 -9219 -9221 9199 0
49 -9219 -9222 9200 0
49 -2682 9220 0
49 -9223 9220 0
49 -9224 9221 0
49 -9223 -2682 9221 0
49 -9224 -2682 9222 0
49 -2681 9223 0
49 -2680 9223 0
49 -2680 -2681 9224 0
49 -2679 9217 0
49 -9225 9217 0
49 -9226 9218 0
49 -9225 -2679 9218 0
49 -9226 -2679 9219 0
49 -2678 9225 0
49 -2677 9225 0
49 -2677 -2678 9226 0
49 -9184 0
49 2689 2690 2691 2692 2693 2694 2695 2696 0
49 -9239 9227 0
49 -9240 9228 0
49 -9241 9229 0
49 -9242 9230 0
49 -9235 9227 0
49 -9236 9228 0
49 -9237 9229 0
49 -9238 9230 0
49 -9235 -9239 9228 0
49 -9235 -9240 9229 0
49 -9235 -9241 9230 0
49 -9235 -9242 9231 0
49 -9236 -9239 9229 0
49 -9236 -9240 9230 0
49 -9236 -9241 9231 0
49 -9236 -9242 9232 0
49 -9237 -9239 9230 0
49 -9237 -9240 9231 0
49 -9237 -9241 9232 0
49 -9237 -9242 9233 0
49 -9238 -9239 9231 0
49 -9238 -9240 9232 0
49 -9238 -9241 9233 0
49 -9238 -9242 9234 0
49 -9245 9239 0
49 -9246 9240 0
49 -9243 9239 0
49 -9244 9240 0
49 -9243 -9245 9240 0
49 -9243 -9246 9241 0
49 -9244 -9245 9241 0
49 -9244 -9246 9242 0
49 -2696 9245 0
49 -2695 9245 0
49 -2695 -2696 9246 0
49 -2694 9243 0
49 -2693 9243 0
49 -2693 -2694 9244 0
49 -9249 9235 0
49 -9250 9236 0
49 -9247 9235 0
49 -9248 9236 0
49 -9247 -9249 9236 0
49 -9247 -9250 9237 0
49 -9248 -9249 9237 0
49 -9248 -9250 9238 0
49 -2692 9249 0
49 -2691 9249 0
49 -2691 -2692 9250 0
49 -2690 9247 0
49 -2689 9247 0
49 -2689 -2690 9248 0
49 -9228 0
49 2697 2698 2699 2700 2701 2702 2703 2704 0
49 -9263 9251 0
49 -9264 9252 0
49 -9265 9253 0
49 -9266 9254 0
49 -9259 9251 0
49 -9260 9252 0
49 -9261 9253 0
49 -9262 9254 0
49 -9259 -9263 9252 0
49 -9259 -9264 9253 0
49 -9259 -9265 9254 0
49 -9259 -9266 9255 0
49 -9260 -9263 9253 0
49 -9260 -9264 9254 0
49 -9260 -9265 9255 0
49 -9260 -9266 9256 0
49 -9261 -9263 9254 0
49 -9261 -9264 9255 0
49 -9261 -9265 9256 0
49 -9261 -9266 9257 0
49 -9262 -9263 9255 0
49 -9262 -9264 9256 0
49 -9262 -9265 9257 0
49 -9262 -9266 9258 0
49 -9269 9263 0
49 -9270 9264 0
49 -9267 9263 0
49 -9268 9264 0
49 -9267 -9269 9264 0
49 -9267 -9270 9265 0
49 -9268 -9269 9265 0
49 -9268 -9270 9266 0
49 -2704 9269 0
49 -2703 9269 0
49 -2703 -2704 9270 0
49 -2702 9267 0
49 -2701 9267 0
49 -2701 -2702 9268 0
49 -9273 9259 0
49 -9274 9260 0
49 -9271 9259 0
49 -9272 9260 0
49 -9271 -9273 9260 0
49 -9271 -9274 9261 0
49 -9272 -9273 9261 0
49 -9272 -9274 9262 0
49 -2700 9273 0
49 -2699 9273 0
49 -2699 -2700 9274 0
49 -2698 9271 0
49 -2697 9271 0
49 -2697 -2698 9272 0
49 -9252 0
49 2705 0
49 2706 0
49 2707 2708 2709 2710 2711 2712 2713 0
49 -9286 9275 0
49 -9287 9276 0
49 -9288 9277 0
49 -9282 9275 0
49 -9283 9276 0
49 -9284 9277 0
49 -9285 9278 0
49 -9282 -9286 9276 0
49 -9282 -9287 9277 0
49 -9282 -9288 9278 0
49 -9283 -9286 9277 0
49 -9283 -9287 9278 0
49 -9283 -9288 9279 0
49 -9284 -9286 9278 0
49 -9284 -9287 9279 0
49 -9284 -9288 9280 0
49 -9285 -9286 9279 0
49 -9285 -9287 9280 0
49 -9285 -9288 9281 0
49 -2713 9286 0
49 -9289 9286 0
49 -9290 9287 0
49 -9289 -2713 9287 0
49 -9290 -2713 9288 0
49 -2712 9289 0
49 -2711 9289 0
49 -2711 -2712 9290 0
49 -9293 9282 0
49 -9294 9283 0
49 -9291 9282 0
49 -9292 9283 0
49 -9291 -9293 9283 0
49 -9291 -9294 9284 0
49 -9292 -9293 9284 0
49 -9292 -9294 9285 0
49 -2710 9293 0
49 -2709 9293 0
49 -2709 -2710 9294 0
49 -2708 9291 0
49 -2707 9291 0
49 -2707 -2708 9292 0
49 -9276 0
49 2714 2715 2716 2717 2718 2719 2720 0
49 -9306 9295 0
49 -9307 9296 0
49 -9308 9297 0
49 -9302 9295 0
49 -9303 9296 0
49 -9304 9297 0
49 -9305 9298 0
49 -9302 -9306 9296 0
49 -9302 -9307 9297 0
49 -9302 -9308 9298 0
49 -9303 -9306 9297 0
49 -9303 -9307 9298 0
49 -9303 -9308 9299 0
49 -9304 -9306 9298 0
49 -9304 -9307 9299 0
49 -9304 -9308 9300 0
49 -9305 -9306 9299 0
49 -9305 -9307 9300 0
49 -9305 -9308 9301 0
49 -2720 9306 0
49 -9309 9306 0
49 -9310 9307 0
49 -9309 -2720 9307 0
49 -9310 -2720 9308 0
49 -2719 9309 0
49 -2718 9309 0
49 -2718 -2719 9310 0
49 -9313 9302 0
49 -9314 9303 0
49 -9311 9302 0
49 -9312 9303 0
49 -9311 -9313 9303 0
49 -9311 -9314 9304 0
49 -9312 -9313 9304 0
49 -9312 -9314 9305 0
49 -2717 9313 0
49 -2716 9313 0
49 -2716 -2717 9314 0
49 -2715 9311 0
49 -2714 9311 0
49 -2714 -2715 9312 0
49 -9296 0
49 2721 0
49 2722 0
49 2723 0
49 2724 0
49 2725 0
49 2726 0
49 2727 2728 2729 2730 2731 2732 2733 2734 0
49 -9327 9315 0
49 -9328 9316 0
49 -9329 9317 0
49 -9330 9318 0
49 -9323 9315 0
49 -9324 9316 0
49 -9325 9317 0
49 -9326 9318 0
49 -9323 -9327 9316 0
49 -9323 -9328 9317 0
49 -9323 -9329 9318 0
49 -9323 -9330 9319 0
49 -9324 -9327 9317 0
49 -9324 -9328 9318 0
49 -9324 -9329 9319 0
49 -9324 -9330 9320 0
49 -9325 -9327 9318 0
49 -9325 -9328 9319 0
49 -9325 -9329 9320 0
49 -9325 -9330 9321 0
49 -9326 -9327 9319 0
49 -9326 -9328 9320 0
49 -9326 -9329 9321 0
49 -9326 -9330 9322 0
49 -9333 9327 0
49 -9334 9328 0
49 -9331 9327 0
49 -9332 9328 0
49 -9331 -9333 9328 0
49 -9331 -9334 9329 0
49 -9332 -9333 9329 0
49 -9332 -9334 9330 0
49 -2734 9333 0
49 -2733 9333 0
49 -2733 -2734 9334 0
49 -2732 9331 0
49 -2731 9331 0
49 -2731 -2732 9332 0
49 -9337 9323 0
49 -9338 9324 0
49 -9335 9323 0
49 -9336 9324 0
49 -9335 -9337 9324 0
49 -9335 -9338 9325 0
49 -9336 -9337 9325 0
49 -9336 -9338 9326 0
49 -2730 9337 0
49 -2729 9337 0
49 -2729 -2730 9338 0
49 -2728 9335 0
49 -2727 9335 0
49 -2727 -2728 9336 0
49 -9316 0
49 2735 2736 2737 2738 2739 2740 2741 2742 0
49 -9351 9339 0
49 -9352 9340 0
49 -9353 9341 0
49 -9354 9342 0
49 -9347 9339 0
49 -9348 9340 0
49 -9349 9341 0
49 -9350 9342 0
49 -9347 -9351 9340 0
49 -9347 -9352 9341 0
49 -9347 -9353 9342 0
49 -9347 -9354 9343 0
49 -9348 -9351 9341 0
49 -9348 -9352 9342 0
49 -9348 -9353 9343 0
49 -9348 -9354 9344 0
49 -9349 -9351 9342 0
49 -9349 -9352 9343 0
49 -9349 -9353 9344 0
49 -9349 -9354 9345 0
49 -9350 -9351 9343 0
49 -9350 -9352 9344 0
49 -9350 -9353 9345 0
49 -9350 -9354 9346 0
49 -9357 9351 0
49 -9358 9352 0
49 -9355 9351 0
49 -9356 9352 0
49 -9355 -9357 9352 0
49 -9355 -9358 9353 0
49 -9356 -9357 9353 0
49 -9356 -9358 9354 0
49 -2742 9357 0
49 -2741 9357 0
49 -2741 -2742 9358 0
49 -2740 9355 0
49 -2739 9355 0
49 -2739 -2740 9356 0
49 -9361 9347 0
49 -9362 9348 0
49 -9359 9347 0
49 -9360 9348 0
49 -9359 -9361 9348 0
49 -9359 -9362 9349 0
49 -9360 -9361 9349 0
49 -9360 -9362 9350 0
49 -2738 9361 0
49 -2737 9361 0
49 -2737 -2738 9362 0
49 -2736 9359 0
49 -2735 9359 0
49 -2735 -2736 9360 0
49 -9340 0
49 2743 2744 2745 2746 2747 2748 2749 2750 0
49 -9375 9363 0
49 -9376 9364 0
49 -9377 9365 0
49 -9378 9366 0
49 -9371 9363 0
49 -9372 9364 0
49 -9373 9365 0
49 -9374 9366 0
49 -9371 -9375 9364 0
49 -9371 -9376 9365 0
49 -9371 -9377 9366 0
49 -9371 -9378 9367 0
49 -9372 -9375 9365 0
49 -9372 -9376 9366 0
49 -9372 -9377 9367 0
49 -9372 -9378 9368 0
49 -9373 -9375 9366 0
49 -9373 -9376 9367 0
49 -9373 -9377 9368 0
49 -9373 -9378 9369 0
49 -9374 -9375 9367 0
49 -9374 -9376 9368 0
49 -9374 -9377 9369 0
49 -9374 -9378 9370 0
49 -9381 9375 0
49 -9382 9376 0
49 -9379 9375 0
49 -9380 9376 0
49 -9379 -9381 9376 0
49 -9379 -9382 9377 0
49 -9380 -9381 9377 0
49 -9380 -9382 9378 0
49 -2750 9381 0
49 -2749 9381 0
49 -2749 -2750 9382 0
49 -2748 9379 0
49 -2747 9379 0
49 -2747 -2748 9380 0
49 -9385 9371 0
49 -9386 9372 0
49 -9383 9371 0
49 -9384 9372 0
49 -9383 -9385 9372 0
49 -9383 -9386 9373 0
49 -9384 -9385 9373 0
49 -9384 -9386 9374 0
49 -2746 9385 0
49 -2745 9385 0
49 -2745 -2746 9386 0
49 -2744 9383 0
49 -2743 9383 0
49 -2743 -2744 9384 0
49 -9364 0
49 2751 2752 2753 2754 2755 2756 2757 2758 0
49 -9399 9387 0
49 -9400 9388 0
49 -9401 9389 0
49 -9402 9390 0
49 -9395 9387 0
49 -9396 9388 0
49 -9397 9389 0
49 -9398 9390 0
49 -9395 -9399 9388 0
49 -9395 -9400 9389 0
49 -9395 -9401 9390 0
49 -9395 -9402 9391 0
49 -9396 -9399 9389 0
49 -9396 -9400 9390 0
49 -9396 -9401 9391 0
49 -9396 -9402 9392 0
49 -9397 -9399 9390 0
49 -9397 -9400 9391 0
49 -9397 -9401 9392 0
49 -9397 -9402 9393 0
49 -9398 -9399 9391 0
49 -9398 -9400 9392 0
49 -9398 -9401 9393 0
49 -9398 -9402 9394 0
49 -9405 9399 0
49 -9406 9400 0
49 -9403 9399 0
49 -9404 9400 0
49 -9403 -9405 9400 0
49 -9403 -9406 9401 0
49 -9404 -9405 9401 0
49 -9404 -9406 9402 0
49 -2758 9405 0
49 -2757 9405 0
49 -2757 -2758 9406 0
49 -2756 9403 0
49 -2755 9403 0
49 -2755 -2756 9404 0
49 -9409 9395 0
49 -9410 9396 0
49 -9407 9395 0
49 -9408 9396 0
49 -9407 -9409 9396 0
49 -9407 -9410 9397 0
49 -9408 -9409 9397 0
49 -9408 -9410 9398 0
49 -2754 9409 0
49 -2753 9409 0
49 -2753 -2754 9410 0
49 -2752 9407 0
49 -2751 9407 0
49 -2751 -2752 9408 0
49 -9388 0
49 2759 2760 2761 2762 2763 0
49 -9419 9411 0
49 -9420 9412 0
49 -9416 9411 0
49 -9417 9412 0
49 -9418 9413 0
49 -9416 -9419 9412 0
49 -9416 -9420 9413 0
49 -9417 -9419 9413 0
49 -9417 -9420 9414 0
49 -9418 -9419 9414 0
49 -9418 -9420 9415 0
49 -2763 9419 0
49 -2762 9419 0
49 -2762 -2763 9420 0
49 -2761 9416 0
49 -9421 9416 0
49 -9422 9417 0
49 -9421 -2761 9417 0
49 -9422 -2761 9418 0
49 -2760 9421 0
49 -2759 9421 0
49 -2759 -2760 9422 0
49 -9412 0
49 2764 2765 2766 2767 2768 0
49 -9431 9423 0
49 -9432 9424 0
49 -9428 9423 0
49 -9429 9424 0
49 -9430 9425 0
49 -9428 -9431 9424 0
49 -9428 -9432 9425 0
49 -9429 -9431 9425 0
49 -9429 -9432 9426 0
49 -9430 -9431 9426 0
49 -9430 -9432 9427 0
49 -2768 9431 0
49 -2767 9431 0
49 -2767 -2768 9432 0
49 -2766 9428 0
49 -9433 9428 0
49 -9434 9429 0
49 -9433 -2766 9429 0
49 -9434 -2766 9430 0
49 -2765 9433 0
49 -2764 9433 0
49 -2764 -2765 9434 0
49 -9424 0
49 2769 0
49 2770 0
49 2771 0
49 2772 0
49 2773 0
49 2774 0
49 2775 0
49 2776 0
49 2777 0
49 2778 0
49 2779 0
49 2780 0
49 2781 2782 2783 0
49 -2783 9435 0
49 -9438 9435 0
49 -9439 9436 0
49 -9438 -2783 9436 0
49 -9439 -2783 9437 0
49 -2782 9438 0
49 -2781 9438 0
49 -2781 -2782 9439 0
49 -9436 0
49 2784 2785 2786 0
49 -2786 9440 0
49 -9443 9440 0
49 -9444 9441 0
49 -9443 -2786 9441 0
49 -9444 -2786 9442 0
49 -2785 9443 0
49 -2784 9443 0
49 -2784 -2785 9444 0
49 -9441 0
49 2787 0
49 2788 0
49 2789 0
49 2790 0
49 2791 0
49 2792 0
49 2793 2794 2795 2796 2797 2798 2799 2800 0
49 -9457 9445 0
49 -9458 9446 0
49 -9459 9447 0
49 -9460 9448 0
49 -9453 9445 0
49 -9454 9446 0
49 -9455 9447 0
49 -9456 9448 0
49 -9453 -9457 9446 0
49 -9453 -9458 9447 0
49 -9453 -9459 9448 0
49 -9453 -9460 9449 0
49 -9454 -9457 9447 0
49 -9454 -9458 9448 0
49 -9454 -9459 9449 0
49 -9454 -9460 9450 0
49 -9455 -9457 9448 0
49 -9455 -9458 9449 0
49 -9455 -9459 9450 0
49 -9455 -9460 9451 0
49 -9456 -9457 9449 0
49 -9456 -9458 9450 0
49 -9456 -9459 9451 0
49 -9456 -9460 9452 0
49 -9463 9457 0
49 -9464 9458 0
49 -9461 9457 0
49 -9462 9458 0
49 -9461 -9463 9458 0
49 -9461 -9464 9459 0
49 -9462 -9463 9459 0
49 -9462 -9464 9460 0
49 -2800 9463 0
49 -2799 9463 0
49 -2799 -2800 9464 0
49 -2798 9461 0
49 -2797 9461 0
49 -2797 -2798 9462 0
49 -9467 9453 0
49 -9468 9454 0
49 -9465 9453 0
49 -9466 9454 0
49 -9465 -9467 9454 0
49 -9465 -9468 9455 0
49 -9466 -9467 9455 0
49 -9466 -9468 9456 0
49 -2796 9467 0
49 -2795 9467 0
49 -2795 -2796 9468 0
49 -2794 9465 0
49 -2793 9465 0
49 -2793 -2794 9466 0
49 -9446 0
49 2801 2802 2803 2804 2805 2806 2807 2808 0
49 -9481 9469 0
49 -9482 9470 0
49 -9483 9471 0
49 -9484 9472 0
49 -9477 9469 0
49 -9478 9470 0
49 -9479 9471 0
49 -9480 9472 0
49 -9477 -9481 9470 0
49 -9477 -9482 9471 0
49 -9477 -9483 9472 0
49 -9477 -9484 9473 0
49 -9478 -9481 9471 0
49 -9478 -9482 9472 0
49 -9478 -9483 9473 0
49 -9478 -9484 9474 0
49 -9479 -9481 9472 0
49 -9479 -9482 9473 0
49 -9479 -9483 9474 0
49 -9479 -9484 9475 0
49 -9480 -9481 9473 0
49 -9480 -9482 9474 0
49 -9480 -9483 9475 0
49 -9480 -9484 9476 0
49 -9487 9481 0
49 -9488 9482 0
49 -9485 9481 0
49 -9486 9482 0
49 -9485 -9487 9482 0
49 -9485 -9488 9483 0
49 -9486 -9487 9483 0
49 -9486 -9488 9484 0
49 -2808 9487 0
49 -2807 9487 0
49 -2807 -2808 9488 0
49 -2806 9485 0
49 -2805 9485 0
49 -2805 -2806 9486 0
49 -9491 9477 0
49 -9492 9478 0
49 -9489 9477 0
49 -9490 9478 0
49 -9489 -9491 9478 0
49 -9489 -9492 9479 0
49 -9490 -9491 9479 0
49 -9490 -9492 9480 0
49 -2804 9491 0
49 -2803 9491 0
49 -2803 -2804 9492 0
49 -2802 9489 0
49 -2801 9489 0
49 -2801 -2802 9490 0
49 -9470 0
49 2809 0
49 2810 0
49 2811 2812 2813 2814 2815 2816 2817 2818 0
49 -9505 9493 0
49 -9506 9494 0
49 -9507 9495 0
49 -9508 9496 0
49 -9501 9493 0
49 -9502 9494 0
49 -9503 9495 0
49 -9504 9496 0
49 -9501 -9505 9494 0
49 -9501 -9506 9495 0
49 -9501 -9507 9496 0
49 -9501 -9508 9497 0
49 -9502 -9505 9495 0
49 -9502 -9506 9496 0
49 -9502 -9507 9497 0
49 -9502 -9508 9498 0
49 -9503 -9505 9496 0
49 -9503 -9506 9497 0
49 -9503 -9507 9498 0
49 -9503 -9508 9499 0
49 -9504 -9505 9497 0
49 -9504 -9506 9498 0
49 -9504 -9507 9499 0
49 -9504 -9508 9500 0
49 -9511 9505 0
49 -9512 9506 0
49 -9509 9505 0
49 -9510 9506 0
49 -9509 -9511 9506 0
49 -9509 -9512 9507 0
49 -9510 -9511 9507 0
49 -9510 -9512 9508 0
49 -2818 9511 0
49 -2817 9511 0
49 -2817 -2818 9512 0
49 -2816 9509 0
49 -2815 9509 0
49 -2815 -2816 9510 0
49 -9515 9501 0
49 -9516 9502 0
49 -9513 9501 0
49 -9514 9502 0
49 -9513 -9515 9502 0
49 -9513 -9516 9503 0
49 -9514 -9515 9503 0
49 -9514 -9516 9504 0
49 -2814 9515 0
49 -2813 9515 0
49 -2813 -2814 9516 0
49 -2812 9513 0
49 -2811 9513 0
49 -2811 -2812 9514 0
49 -9494 0
49 2819 2820 2821 2822 2823 2824 2825 2826 0
49 -9529 9517 0
49 -9530 9518 0
49 -9531 9519 0
49 -9532 9520 0
49 -9525 9517 0
49 -9526 9518 0
49 -9527 9519 0
49 -9528 9520 0
49 -9525 -9529 9518 0
49 -9525 -9530 9519 0
49 -9525 -9531 9520 0
49 -9525 -9532 9521 0
49 -9526 -9529 9519 0
49 -9526 -9530 9520 0
49 -9526 -9531 9521 0
49 -9526 -9532 9522 0
49 -9527 -9529 9520 0
49 -9527 -9530 9521 0
49 -9527 -9531 9522 0
49 -9527 -9532 9523 0
49 -9528 -9529 9521 0
49 -9528 -9530 9522 0
49 -9528 -9531 9523 0
49 -9528 -9532 9524 0
49 -9535 9529 0
49 -9536 9530 0
49 -9533 9529 0
49 -9534 9530 0
49 -9533 -9535 9530 0
49 -9533 -9536 9531 0
49 -9534 -9535 9531 0
49 -9534 -9536 9532 0
49 -2826 9535 0
49 -2825 9535 0
49 -2825 -2826 9536 0
49 -2824 9533 0
49 -2823 9533 0
49 -2823 -2824 9534 0
49 -9539 9525 0
49 -9540 9526 0
49 -9537 9525 0
49 -9538 9526 0
49 -9537 -9539 9526 0
49 -9537 -9540 9527 0
49 -9538 -9539 9527 0
49 -9538 -9540 9528 0
49 -2822 9539 0
49 -2821 9539 0
49 -2821 -2822 9540 0
49 -2820 9537 0
49 -2819 9537 0
49 -2819 -2820 9538 0
49 -9518 0
49 2827 2828 2829 2830 2831 2832 2833 2834 0
49 -9553 9541 0
49 -9554 9542 0
49 -9555 9543 0
49 -9556 9544 0
49 -9549 9541 0
49 -9550 9542 0
49 -9551 9543 0
49 -9552 9544 0
49 -9549 -9553 9542 0
49 -9549 -9554 9543 0
49 -9549 -9555 9544 0
49 -9549 -9556 9545 0
49 -9550 -9553 9543 0
49 -9550 -9554 9544 0
49 -9550 -9555 9545 0
49 -9550 -9556 9546 0
49 -9551 -9553 9544 0
49 -9551 -9554 9545 0
49 -9551 -9555 9546 0
49 -9551 -9556 9547 0
49 -9552 -9553 9545 0
49 -9552 -9554 9546 0
49 -9552 -9555 9547 0
49 -9552 -9556 9548 0
49 -9559 9553 0
49 -9560 9554 0
49 -9557 9553 0
49 -9558 9554 0
49 -9557 -9559 9554 0
49 -9557 -9560 9555 0
49 -9558 -9559 9555 0
49 -9558 -9560 9556 0
49 -2834 9559 0
49 -2833 9559 0
49 -2833 -2834 9560 0
49 -2832 9557 0
49 -2831 9557 0
49 -2831 -2832 9558 0
49 -9563 9549 0
49 -9564 9550 0
49 -9561 9549 0
49 -9562 9550 0
49 -9561 -9563 9550 0
49 -9561 -9564 9551 0
49 -9562 -9563 9551 0
49 -9562 -9564 9552 0
49 -2830 9563 0
49 -2829 9563 0
49 -2829 -2830 9564 0
49 -2828 9561 0
49 -2827 9561 0
49 -2827 -2828 9562 0
49 -9542 0
49 2835 2836 2837 2838 2839 2840 2841 2842 0
49 -9577 9565 0
49 -9578 9566 0
49 -9579 9567 0
49 -9580 9568 0
49 -9573 9565 0
49 -9574 9566 0
49 -9575 9567 0
49 -9576 9568 0
49 -9573 -9577 9566 0
49 -9573 -9578 9567 0
49 -9573 -9579 9568 0
49 -9573 -9580 9569 0
49 -9574 -9577 9567 0
49 -9574 -9578 9568 0
49 -9574 -9579 9569 0
49 -9574 -9580 9570 0
49 -9575 -9577 9568 0
49 -9575 -9578 9569 0
49 -9575 -9579 9570 0
49 -9575 -9580 9571 0
49 -9576 -9577 9569 0
49 -9576 -9578 9570 0
49 -9576 -9579 9571 0
49 -9576 -9580 9572 0
49 -9583 9577 0
49 -9584 9578 0
49 -9581 9577 0
49 -9582 9578 0
49 -9581 -9583 9578 0
49 -9581 -9584 9579 0
49 -9582 -9583 9579 0
49 -9582 -9584 9580 0
49 -2842 9583 0
49 -2841 9583 0
49 -2841 -2842 9584 0
49 -2840 9581 0
49 -2839 9581 0
49 -2839 -2840 9582 0
49 -9587 9573 0
49 -9588 9574 0
49 -9585 9573 0
49 -9586 9574 0
49 -9585 -9587 9574 0
49 -9585 -9588 9575 0
49 -9586 -9587 9575 0
49 -9586 -9588 9576 0
49 -2838 9587 0
49 -2837 9587 0
49 -2837 -2838 9588 0
49 -2836 9585 0
49 -2835 9585 0
49 -2835 -2836 9586 0
49 -9566 0
49 2843 0
49 2844 0
49 2845 2846 2847 2848 2849 2850 0
49 -9598 9589 0
49 -9599 9590 0
49 -9600 9591 0
49 -9595 9589 0
49 -9596 9590 0
49 -9597 9591 0
49 -9595 -9598 9590 0
49 -9595 -9599 9591 0
49 -9595 -9600 9592 0
49 -9596 -9598 9591 0
49 -9596 -9599 9592 0
49 -9596 -9600 9593 0
49 -9597 -9598 9592 0
49 -9597 -9599 9593 0
49 -9597 -9600 9594 0
49 -2850 9598 0
49 -9601 9598 0
49 -9602 9599 0
49 -9601 -2850 9599 0
49 -9602 -2850 9600 0
49 -2849 9601 0
49 -2848 9601 0
49 -2848 -2849 9602 0
49 -2847 9595 0
49 -9603 9595 0
49 -9604 9596 0
49 -9603 -2847 9596 0
49 -9604 -2847 9597 0
49 -2846 9603 0
49 -2845 9603 0
49 -2845 -2846 9604 0
49 -9590 0
49 2851 2852 2853 2854 2855 2856 0
49 -9614 9605 0
49 -9615 9606 0
49 -9616 9607 0
49 -9611 9605 0
49 -9612 9606 0
49 -9613 9607 0
49 -9611 -9614 9606 0
49 -9611 -9615 9607 0
49 -9611 -9616 9608 0
49 -9612 -9614 9607 0
49 -9612 -9615 9608 0
49 -9612 -9616 9609 0
49 -9613 -9614 9608 0
49 -9613 -9615 9609 0
49 -9613 -9616 9610 0
49 -2856 9614 0
49 -9617 9614 0
49 -9618 9615 0
49 -9617 -2856 9615 0
49 -9618 -2856 9616 0
49 -2855 9617 0
49 -2854 9617 0
49 -2854 -2855 9618 0
49 -2853 9611 0
49 -9619 9611 0
49 -9620 9612 0
49 -9619 -2853 9612 0
49 -9620 -2853 9613 0
49 -2852 9619 0
49 -2851 9619 0
49 -2851 -2852 9620 0
49 -9606 0
49 2857 0
49 2858 0
49 2859 2860 2861 2862 2863 2864 2865 2866 0
49 -9633 9621 0
49 -9634 9622 0
49 -9635 9623 0
49 -9636 9624 0
49 -9629 9621 0
49 -9630 9622 0
49 -9631 9623 0
49 -9632 9624 0
49 -9629 -9633 9622 0
49 -9629 -9634 9623 0
49 -9629 -9635 9624 0
49 -9629 -9636 9625 0
49 -9630 -9633 9623 0
49 -9630 -9634 9624 0
49 -9630 -9635 9625 0
49 -9630 -9636 9626 0
49 -9631 -9633 9624 0
49 -9631 -9634 9625 0
49 -9631 -9635 9626 0
49 -9631 -9636 9627 0
49 -9632 -9633 9625 0
49 -9632 -9634 9626 0
49 -9632 -9635 9627 0
49 -9632 -9636 9628 0
49 -9639 9633 0
49 -9640 9634 0
49 -9637 9633 0
49 -9638 9634 0
49 -9637 -9639 9634 0
49 -9637 -9640 9635 0
49 -9638 -9639 9635 0
49 -9638 -9640 9636 0
49 -2866 9639 0
49 -2865 9639 0
49 -2865 -2866 9640 0
49 -2864 9637 0
49 -2863 9637 0
49 -2863 -2864 9638 0
49 -9643 9629 0
49 -9644 9630 0
49 -9641 9629 0
49 -9642 9630 0
49 -9641 -9643 9630 0
49 -9641 -9644 9631 0
49 -9642 -9643 9631 0
49 -9642 -9644 9632 0
49 -2862 9643 0
49 -2861 9643 0
49 -2861 -2862 9644 0
49 -2860 9641 0
49 -2859 9641 0
49 -2859 -2860 9642 0
49 -9622 0
49 2867 2868 2869 2870 2871 2872 2873 2874 0
49 -9657 9645 0
49 -9658 9646 0
49 -9659 9647 0
49 -9660 9648 0
49 -9653 9645 0
49 -9654 9646 0
49 -9655 9647 0
49 -9656 9648 0
49 -9653 -9657 9646 0
49 -9653 -9658 9647 0
49 -9653 -9659 9648 0
49 -9653 -9660 9649 0
49 -9654 -9657 9647 0
49 -9654 -9658 9648 0
49 -9654 -9659 9649 0
49 -9654 -9660 9650 0
49 -9655 -9657 9648 0
49 -9655 -9658 9649 0
49 -9655 -9659 9650 0
49 -9655 -9660 9651 0
49 -9656 -9657 9649 0
49 -9656 -9658 9650 0
49 -9656 -9659 9651 0
49 -9656 -9660 9652 0
49 -9663 9657 0
49 -9664 9658 0
49 -9661 9657 0
49 -9662 9658 0
49 -9661 -9663 9658 0
49 -9661 -9664 9659 0
49 -9662 -9663 9659 0
49 -9662 -9664 9660 0
49 -2874 9663 0
49 -2873 9663 0
49 -2873 -2874 9664 0
49 -2872 9661 0
49 -2871 9661 0
49 -2871 -2872 9662 0
49 -9667 9653 0
49 -9668 9654 0
49 -9665 9653 0
49 -9666 9654 0
49 -9665 -9667 9654 0
49 -9665 -9668 9655 0
49 -9666 -9667 9655 0
49 -9666 -9668 9656 0
49 -2870 9667 0
49 -2869 9667 0
49 -2869 -2870 9668 0
49 -2868 9665 0
49 -2867 9665 0
49 -2867 -2868 9666 0
49 -9646 0
49 2875 2876 2877 2878 2879 2880 0
49 -9678 9669 0
49 -9679 9670 0
49 -9680 9671 0
49 -9675 9669 0
49 -9676 9670 0
49 -9677 9671 0
49 -9675 -9678 9670 0
49 -9675 -9679 9671 0
49 -9675 -9680 9672 0
49 -9676 -9678 9671 0
49 -9676 -9679 9672 0
49 -9676 -9680 9673 0
49 -9677 -9678 9672 0
49 -9677 -9679 9673 0
49 -9677 -9680 9674 0
49 -2880 9678 0
49 -9681 9678 0
49 -9682 9679 0
49 -9681 -2880 9679 0
49 -9682 -2880 9680 0
49 -2879 9681 0
49 -2878 9681 0
49 -2878 -2879 9682 0
49 -2877 9675 0
49 -9683 9675 0
49 -9684 9676 0
49 -9683 -2877 9676 0
49 -9684 -2877 9677 0
49 -2876 9683 0
49 -2875 9683 0
49 -2875 -2876 9684 0
49 -9670 0
49 2881 2882 2883 2884 2885 2886 0
49 -9694 9685 0
49 -9695 9686 0
49 -9696 9687 0
49 -9691 9685 0
49 -9692 9686 0
49 -9693 9687 0
49 -9691 -9694 9686 0
49 -9691 -9695 9687 0
49 -9691 -9696 9688 0
49 -9692 -9694 9687 0
49 -9692 -9695 9688 0
49 -9692 -9696 9689 0
49 -9693 -9694 9688 0
49 -9693 -9695 9689 0
49 -9693 -9696 9690 0
49 -2886 9694 0
49 -9697 9694 0
49 -9698 9695 0
49 -9697 -2886 9695 0
49 -9698 -2886 9696 0
49 -2885 9697 0
49 -2884 9697 0
49 -2884 -2885 9698 0
49 -2883 9691 0
49 -9699 9691 0
49 -9700 9692 0
49 -9699 -2883 9692 0
49 -9700 -2883 9693 0
49 -2882 9699 0
49 -2881 9699 0
49 -2881 -2882 9700 0
49 -9686 0
49 -1 2 0
49 -3 4 0
49 -5 12 0
49 -6 13 0
49 -7 14 0
49 -8 15 0
49 -9 16 0
49 -10 17 0
49 -11 18 0
49 -5 -280 0
49 -6 -281 0
49 -7 -282 0
49 -8 -283 0
49 -9 -284 0
49 -10 -285 0
49 -5 -287 0
49 -5 -288 0
49 -5 -289 0
49 -5 -290 0
49 -5 -291 0
49 -5 -292 0
49 -6 -288 0
49 -6 -289 0
49 -6 -290 0
49 -6 -291 0
49 -6 -292 0
49 -7 -289 0
49 -7 -290 0
49 -7 -291 0
49 -7 -292 0
49 -8 -290 0
49 -8 -291 0
49 -8 -292 0
49 -9 -291 0
49 -9 -292 0
49 -10 -292 0
49 -5 -1973 0
49 -5 -1974 0
49 -6 -1973 0
49 -6 -1974 0
49 -7 -1973 0
49 -7 -1974 0
49 -8 -1973 0
49 -8 -1974 0
49 -9 -1973 0
49 -9 -1974 0
49 -10 -1974 0
49 -13 -477 0
49 -14 -477 0
49 -15 -477 0
49 -15 -478 0
49 -16 -477 0
49 -16 -478 0
49 -17 -477 0
49 -17 -478 0
49 -17 -479 0
49 -18 -477 0
49 -18 -478 0
49 -18 -479 0
49 -13 -481 0
49 -15 -482 0
49 -17 -483 0
49 -17 -1698 0
49 -18 -1698 0
49 -19 20 0
49 -21 22 0
49 -23 24 0
49 -25 26 0
49 -27 28 0
49 -29 30 0
49 -31 36 0
49 -32 37 0
49 -33 38 0
49 -34 39 0
49 -35 40 0
49 -36 -393 0
49 -37 -393 0
49 -38 -393 0
49 -39 -393 0
49 -41 42 0
49 -43 54 0
49 -44 55 0
49 -45 56 0
49 -46 57 0
49 -47 58 0
49 -48 59 0
49 -49 60 0
49 -50 61 0
49 -51 62 0
49 -52 63 0
49 -53 64 0
49 -43 -1048 0
49 -43 -1049 0
49 -43 -1050 0
49 -43 -1051 0
49 -43 -1052 0
49 -43 -1053 0
49 -43 -1054 0
49 -44 -1049 0
49 -44 -1050 0
49 -44 -1051 0
49 -44 -1052 0
49 -44 -1053 0
49 -44 -1054 0
49 -45 -1050 0
49 -45 -1051 0
49 -45 -1052 0
49 -45 -1053 0
49 -45 -1054 0
49 -46 -1051 0
49 -46 -1052 0
49 -46 -1053 0
49 -46 -1054 0
49 -47 -1052 0
49 -47 -1053 0
49 -47 -1054 0
49 -48 -1053 0
49 -48 -1054 0
49 -49 -1054 0
49 -43 -1806 0
49 -44 -1806 0
49 -45 -1806 0
49 -46 -1806 0
49 -47 -1806 0
49 -48 -1806 0
49 -49 -1806 0
49 -50 -1806 0
49 -51 -1806 0
49 -52 -1806 0
49 -55 -1554 0
49 -56 -1554 0
49 -56 -1555 0
49 -57 -1554 0
49 -57 -1555 0
49 -57 -1556 0
49 -58 -1554 0
49 -58 -1555 0
49 -58 -1556 0
49 -58 -1557 0
49 -59 -1554 0
49 -59 -1555 0
49 -59 -1556 0
49 -59 -1557 0
49 -60 -1554 0
49 -60 -1555 0
49 -60 -1556 0
49 -60 -1557 0
49 -61 -1554 0
49 -61 -1555 0
49 -61 -1556 0
49 -61 -1557 0
49 -62 -1554 0
49 -62 -1555 0
49 -62 -1556 0
49 -62 -1557 0
49 -63 -1554 0
49 -63 -1555 0
49 -63 -1556 0
49 -63 -1557 0
49 -64 -1554 0
49 -64 -1555 0
49 -64 -1556 0
49 -64 -1557 0
49 -65 73 0
49 -66 74 0
49 -67 75 0
49 -68 76 0
49 -69 77 0
49 -70 78 0
49 -71 79 0
49 -72 80 0
49 -65 -86 0
49 -65 -87 0
49 -65 -88 0
49 -66 -86 0
49 -66 -87 0
49 -66 -88 0
49 -67 -87 0
49 -67 -88 0
49 -68 -87 0
49 -68 -88 0
49 -69 -88 0
49 -70 -88 0
49 -73 -456 0
49 -74 -456 0
49 -75 -456 0
49 -76 -456 0
49 -77 -456 0
49 -73 -458 0
49 -74 -458 0
49 -75 -458 0
49 -76 -458 0
49 -77 -458 0
49 -81 85 0
49 -82 86 0
49 -83 87 0
49 -84 88 0
49 -81 -280 0
49 -81 -281 0
49 -81 -282 0
49 -82 -282 0
49 -82 -283 0
49 -82 -284 0
49 -83 -284 0
49 -83 -285 0
49 -81 -458 0
49 -82 -458 0
49 -83 -458 0
49 -86 -279 0
49 -86 -280 0
49 -87 -279 0
49 -87 -280 0
49 -87 -281 0
49 -87 -282 0
49 -88 -279 0
49 -88 -280 0
49 -88 -281 0
49 -88 -282 0
49 -88 -283 0
49 -88 -284 0
49 -86 -458 0
49 -87 -458 0
49 -89 90 0
49 -91 92 0
49 -93 101 0
49 -94 102 0
49 -95 103 0
49 -96 104 0
49 -97 105 0
49 -98 106 0
49 -99 107 0
49 -100 108 0
49 -93 -386 0
49 -94 -386 0
49 -95 -386 0
49 -96 -386 0
49 -97 -386 0
49 -98 -386 0
49 -102 -259 0
49 -103 -259 0
49 -103 -260 0
49 -104 -259 0
49 -104 -260 0
49 -104 -261 0
49 -105 -259 0
49 -105 -260 0
49 -105 -261 0
49 -105 -262 0
49 -106 -259 0
49 -106 -260 0
49 -106 -261 0
49 -106 -262 0
49 -106 -263 0
49 -107 -259 0
49 -107 -260 0
49 -107 -261 0
49 -107 -262 0
49 -107 -263 0
49 -107 -264 0
49 -108 -259 0
49 -108 -260 0
49 -108 -261 0
49 -108 -262 0
49 -108 -263 0
49 -108 -264 0
49 -108 -265 0
49 -101 -268 0
49 -102 -269 0
49 -103 -270 0
49 -104 -271 0
49 -105 -272 0
49 -106 -273 0
49 -107 -274 0
49 -101 -301 0
49 -101 -302 0
49 -101 -303 0
49 -102 -302 0
49 -102 -303 0
49 -103 -303 0
49 -101 -305 0
49 -101 -306 0
49 -101 -307 0
49 -101 -308 0
49 -101 -309 0
49 -101 -310 0
49 -102 -306 0
49 -102 -307 0
49 -102 -308 0
49 -102 -309 0
49 -102 -310 0
49 -103 -307 0
49 -103 -308 0
49 -103 -309 0
49 -103 -310 0
49 -104 -308 0
49 -104 -309 0
49 -104 -310 0
49 -105 -309 0
49 -105 -310 0
49 -106 -310 0
49 -102 -329 0
49 -103 -329 0
49 -103 -330 0
49 -104 -329 0
49 -104 -330 0
49 -104 -331 0
49 -105 -330 0
49 -105 -331 0
49 -105 -332 0
49 -106 -331 0
49 -106 -332 0
49 -106 -333 0
49 -107 -332 0
49 -107 -333 0
49 -107 -334 0
49 -108 -333 0
49 -108 -334 0
49 -108 -335 0
49 -101 -386 0
49 -102 -386 0
49 -103 -386 0
49 -104 -386 0
49 -105 -386 0
49 -106 -386 0
49 -107 -386 0
49 -101 -1466 0
49 -101 -1467 0
49 -101 -1468 0
49 -102 -1467 0
49 -102 -1468 0
49 -103 -1468 0
49 -109 111 0
49 -110 112 0
49 -110 -177 0
49 -110 -178 0
49 -110 -179 0
49 -112 -597 0
49 -112 -598 0
49 -112 -599 0
49 -112 -600 0
49 -112 -601 0
49 -113 114 0
49 -115 116 0
49 -117 118 0
49 -119 124 0
49 -120 125 0
49 -121 126 0
49 -122 127 0
49 -123 128 0
49 -125 -1871 0
49 -125 -1872 0
49 -126 -1871 0
49 -126 -1872 0
49 -127 -1871 0
49 -127 -1872 0
49 -128 -1871 0
49 -128 -1872 0
49 -129 130 0
49 -131 132 0
49 -133 141 0
49 -134 142 0
49 -135 143 0
49 -136 144 0
49 -137 145 0
49 -138 146 0
49 -139 147 0
49 -140 148 0
49 -133 -178 0
49 -133 -179 0
49 -133 -180 0
49 -133 -181 0
49 -133 -182 0
49 -134 -178 0
49 -134 -179 0
49 -134 -180 0
49 -134 -181 0
49 -134 -182 0
49 -135 -178 0
49 -135 -179 0
49 -135 -180 0
49 -135 -181 0
49 -135 -182 0
49 -136 -179 0
49 -136 -180 0
49 -136 -181 0
49 -136 -182 0
49 -137 -180 0
49 -137 -181 0
49 -137 -182 0
49 -138 -181 0
49 -138 -182 0
49 -139 -182 0
49 -149 153 0
49 -150 154 0
49 -151 155 0
49 -152 156 0
49 -157 164 0
49 -158 165 0
49 -159 166 0
49 -160 167 0
49 -161 168 0
49 -162 169 0
49 -163 170 0
49 -161 -1021 0
49 -162 -1021 0
49 -162 -1022 0
49 -163 -1021 0
49 -163 -1022 0
49 -163 -1023 0
49 -168 -979 0
49 -168 -980 0
49 -168 -981 0
49 -168 -982 0
49 -168 -983 0
49 -169 -979 0
49 -169 -980 0
49 -169 -981 0
49 -169 -982 0
49 -169 -983 0
49 -169 -984 0
49 -170 -979 0
49 -170 -980 0
49 -170 -981 0
49 -170 -982 0
49 -170 -983 0
49 -170 -984 0
49 -170 -985 0
49 -168 -987 0
49 -168 -988 0
49 -168 -989 0
49 -168 -990 0
49 -168 -991 0
49 -169 -987 0
49 -169 -988 0
49 -169 -989 0
49 -169 -990 0
49 -169 -991 0
49 -169 -992 0
49 -170 -987 0
49 -170 -988 0
49 -170 -989 0
49 -170 -990 0
49 -170 -991 0
49 -170 -992 0
49 -170 -993 0
49 -164 -1429 0
49 -165 -1429 0
49 -166 -1429 0
49 -169 -1430 0
49 -170 -1430 0
49 -170 -1431 0
49 -164 -1434 0
49 -165 -1434 0
49 -166 -1434 0
49 -169 -1435 0
49 -170 -1435 0
49 -170 -1436 0
49 -171 177 0
49 -172 178 0
49 -173 179 0
49 -174 180 0
49 -175 181 0
49 -176 182 0
49 -171 -2471 0
49 -182 -597 0
49 -183 194 0
49 -184 195 0
49 -185 196 0
49 -186 197 0
49 -187 198 0
49 -188 199 0
49 -189 200 0
49 -190 201 0
49 -191 202 0
49 -192 203 0
49 -193 204 0
49 -184 -689 0
49 -185 -689 0
49 -185 -690 0
49 -186 -689 0
49 -186 -690 0
49 -186 -691 0
49 -187 -689 0
49 -187 -690 0
49 -187 -691 0
49 -187 -692 0
49 -188 -689 0
49 -188 -690 0
49 -188 -691 0
49 -188 -692 0
49 -188 -693 0
49 -189 -690 0
49 -189 -691 0
49 -189 -692 0
49 -189 -693 0
49 -189 -694 0
49 -190 -691 0
49 -190 -692 0
49 -190 -693 0
49 -190 -694 0
49 -190 -695 0
49 -191 -692 0
49 -191 -693 0
49 -191 -694 0
49 -191 -695 0
49 -191 -696 0
49 -192 -693 0
49 -192 -694 0
49 -192 -695 0
49 -192 -696 0
49 -193 -694 0
49 -193 -695 0
49 -193 -696 0
49 -205 206 0
49 -207 208 0
49 -209 220 0
49 -210 221 0
49 -211 222 0
49 -212 223 0
49 -213 224 0
49 -214 225 0
49 -215 226 0
49 -216 227 0
49 -217 228 0
49 -218 229 0
49 -219 230 0
49 -220 -450 0
49 -221 -450 0
49 -227 -451 0
49 -228 -451 0
49 -229 -451 0
49 -230 -451 0
49 -220 -616 0
49 -221 -616 0
49 -222 -616 0
49 -223 -616 0
49 -224 -616 0
49 -221 -818 0
49 -222 -818 0
49 -222 -819 0
49 -223 -818 0
49 -223 -819 0
49 -224 -818 0
49 -224 -819 0
49 -225 -818 0
49 -225 -819 0
49 -226 -818 0
49 -226 -819 0
49 -227 -818 0
49 -227 -819 0
49 -228 -818 0
49 -228 -819 0
49 -229 -818 0
49 -229 -819 0
49 -230 -818 0
49 -230 -819 0
49 -220 -954 0
49 -221 -954 0
49 -222 -954 0
49 -223 -954 0
49 -224 -954 0
49 -225 -954 0
49 -226 -954 0
49 -227 -954 0
49 -228 -954 0
49 -229 -954 0
49 -231 239 0
49 -232 240 0
49 -233 241 0
49 -234 242 0
49 -235 243 0
49 -236 244 0
49 -237 245 0
49 -238 246 0
49 -231 -550 0
49 -232 -551 0
49 -233 -552 0
49 -234 -553 0
49 -235 -554 0
49 -236 -555 0
49 -237 -556 0
49 -231 -818 0
49 -231 -819 0
49 -232 -818 0
49 -232 -819 0
49 -233 -818 0
49 -233 -819 0
49 -234 -818 0
49 -234 -819 0
49 -235 -818 0
49 -235 -819 0
49 -236 -818 0
49 -236 -819 0
49 -237 -819 0
49 -231 -821 0
49 -231 -822 0
49 -232 -821 0
49 -232 -822 0
49 -233 -821 0
49 -233 -822 0
49 -234 -821 0
49 -234 -822 0
49 -235 -822 0
49 -239 -453 0
49 -240 -453 0
49 -240 -454 0
49 -241 -454 0
49 -242 -454 0
49 -243 -454 0
49 -244 -454 0
49 -245 -454 0
49 -246 -454 0
49 -239 -558 0
49 -240 -559 0
49 -241 -560 0
49 -242 -561 0
49 -243 -562 0
49 -244 -563 0
49 -245 -564 0
49 -247 248 0
49 -249 250 0
49 -251 252 0
49 -253 254 0
49 -255 256 0
49 -257 258 0
49 -259 267 0
49 -260 268 0
49 -261 269 0
49 -262 270 0
49 -263 271 0
49 -264 272 0
49 -265 273 0
49 -266 274 0
49 -260 -321 0
49 -261 -321 0
49 -261 -322 0
49 -262 -321 0
49 -262 -322 0
49 -262 -323 0
49 -263 -321 0
49 -263 -322 0
49 -263 -323 0
49 -263 -324 0
49 -264 -321 0
49 -264 -322 0
49 -264 -323 0
49 -264 -324 0
49 -264 -325 0
49 -265 -322 0
49 -265 -323 0
49 -265 -324 0
49 -265 -325 0
49 -265 -326 0
49 -266 -323 0
49 -266 -324 0
49 -266 -325 0
49 -266 -326 0
49 -266 -327 0
49 -259 -330 0
49 -259 -331 0
49 -259 -332 0
49 -259 -333 0
49 -259 -334 0
49 -259 -335 0
49 -259 -336 0
49 -260 -331 0
49 -260 -332 0
49 -260 -333 0
49 -260 -334 0
49 -260 -335 0
49 -260 -336 0
49 -261 -332 0
49 -261 -333 0
49 -261 -334 0
49 -261 -335 0
49 -261 -336 0
49 -262 -333 0
49 -262 -334 0
49 -262 -335 0
49 -262 -336 0
49 -263 -334 0
49 -263 -335 0
49 -263 -336 0
49 -264 -335 0
49 -264 -336 0
49 -265 -336 0
49 -268 -963 0
49 -269 -963 0
49 -269 -964 0
49 -270 -963 0
49 -270 -964 0
49 -270 -965 0
49 -271 -963 0
49 -271 -964 0
49 -271 -965 0
49 -271 -966 0
49 -272 -963 0
49 -272 -964 0
49 -272 -965 0
49 -272 -966 0
49 -272 -967 0
49 -273 -963 0
49 -273 -964 0
49 -273 -965 0
49 -273 -966 0
49 -273 -967 0
49 -273 -968 0
49 -274 -963 0
49 -274 -964 0
49 -274 -965 0
49 -274 -966 0
49 -274 -967 0
49 -274 -968 0
49 -274 -969 0
49 -268 -1979 0
49 -269 -1979 0
49 -269 -1980 0
49 -270 -1979 0
49 -270 -1980 0
49 -270 -1981 0
49 -271 -1979 0
49 -271 -1980 0
49 -271 -1981 0
49 -271 -1982 0
49 -272 -1979 0
49 -272 -1980 0
49 -272 -1981 0
49 -272 -1982 0
49 -272 -1983 0
49 -273 -1979 0
49 -273 -1980 0
49 -273 -1981 0
49 -273 -1982 0
49 -273 -1983 0
49 -273 -1984 0
49 -274 -1979 0
49 -274 -1980 0
49 -274 -1981 0
49 -274 -1982 0
49 -274 -1983 0
49 -274 -1984 0
49 -274 -1985 0
49 -268 -1987 0
49 -269 -1987 0
49 -269 -1988 0
49 -270 -1987 0
49 -270 -1988 0
49 -270 -1989 0
49 -271 -1987 0
49 -271 -1988 0
49 -271 -1989 0
49 -271 -1990 0
49 -272 -1987 0
49 -272 -1988 0
49 -272 -1989 0
49 -272 -1990 0
49 -272 -1991 0
49 -273 -1988 0
49 -273 -1989 0
49 -273 -1990 0
49 -273 -1991 0
49 -273 -1992 0
49 -274 -1989 0
49 -274 -1990 0
49 -274 -1991 0
49 -274 -1992 0
49 -274 -1993 0
49 -275 276 0
49 -277 278 0
49 -279 286 0
49 -280 287 0
49 -281 288 0
49 -282 289 0
49 -283 290 0
49 -284 291 0
49 -285 292 0
49 -279 -531 0
49 -279 -532 0
49 -279 -533 0
49 -279 -534 0
49 -279 -535 0
49 -279 -536 0
49 -280 -532 0
49 -280 -533 0
49 -280 -534 0
49 -280 -535 0
49 -280 -536 0
49 -281 -533 0
49 -281 -534 0
49 -281 -535 0
49 -281 -536 0
49 -282 -534 0
49 -282 -535 0
49 -282 -536 0
49 -283 -535 0
49 -283 -536 0
49 -284 -536 0
49 -286 -456 0
49 -287 -456 0
49 -288 -456 0
49 -289 -456 0
49 -290 -456 0
49 -293 294 0
49 -295 296 0
49 -297 304 0
49 -298 305 0
49 -299 306 0
49 -300 307 0
49 -301 308 0
49 -302 309 0
49 -303 310 0
49 -301 -573 0
49 -302 -573 0
49 -302 -574 0
49 -303 -573 0
49 -303 -574 0
49 -303 -575 0
49 -298 -1382 0
49 -299 -1382 0
49 -299 -1383 0
49 -300 -1382 0
49 -300 -1383 0
49 -300 -1384 0
49 -301 -1382 0
49 -301 -1383 0
49 -301 -1384 0
49 -301 -1385 0
49 -302 -1382 0
49 -302 -1383 0
49 -302 -1384 0
49 -302 -1385 0
49 -302 -1386 0
49 -303 -1382 0
49 -303 -1383 0
49 -303 -1384 0
49 -303 -1385 0
49 -303 -1386 0
49 -303 -1387 0
49 -306 -321 0
49 -307 -321 0
49 -307 -322 0
49 -308 -321 0
49 -308 -322 0
49 -308 -323 0
49 -309 -321 0
49 -309 -322 0
49 -309 -323 0
49 -309 -324 0
49 -310 -321 0
49 -310 -322 0
49 -310 -323 0
49 -310 -324 0
49 -310 -325 0
49 -304 -1462 0
49 -304 -1463 0
49 -304 -1464 0
49 -305 -1463 0
49 -305 -1464 0
49 -305 -1465 0
49 -306 -1464 0
49 -306 -1465 0
49 -306 -1466 0
49 -307 -1465 0
49 -307 -1466 0
49 -307 -1467 0
49 -308 -1466 0
49 -308 -1467 0
49 -308 -1468 0
49 -309 -1467 0
49 -309 -1468 0
49 -310 -1468 0
49 -311 312 0
49 -313 314 0
49 -315 316 0
49 -317 318 0
49 -319 320 0
49 -321 329 0
49 -322 330 0
49 -323 331 0
49 -324 332 0
49 -325 333 0
49 -326 334 0
49 -327 335 0
49 -328 336 0
49 -325 -764 0
49 -326 -765 0
49 -327 -766 0
49 -321 -768 0
49 -321 -769 0
49 -321 -770 0
49 -322 -768 0
49 -322 -769 0
49 -322 -770 0
49 -323 -768 0
49 -323 -769 0
49 -323 -770 0
49 -324 -768 0
49 -324 -769 0
49 -324 -770 0
49 -325 -768 0
49 -325 -769 0
49 -325 -770 0
49 -326 -769 0
49 -326 -770 0
49 -327 -770 0
49 -329 -1383 0
49 -329 -1384 0
49 -329 -1385 0
49 -329 -1386 0
49 -329 -1387 0
49 -329 -1388 0
49 -330 -1383 0
49 -330 -1384 0
49 -330 -1385 0
49 -330 -1386 0
49 -330 -1387 0
49 -330 -1388 0
49 -330 -1389 0
49 -331 -1384 0
49 -331 -1385 0
49 -331 -1386 0
49 -331 -1387 0
49 -331 -1388 0
49 -331 -1389 0
49 -331 -1390 0
49 -332 -1385 0
49 -332 -1386 0
49 -332 -1387 0
49 -332 -1388 0
49 -332 -1389 0
49 -332 -1390 0
49 -332 -1391 0
49 -333 -1386 0
49 -333 -1387 0
49 -333 -1388 0
49 -333 -1389 0
49 -333 -1390 0
49 -333 -1391 0
49 -334 -1387 0
49 -334 -1388 0
49 -334 -1389 0
49 -334 -1390 0
49 -334 -1391 0
49 -335 -1388 0
49 -335 -1389 0
49 -335 -1390 0
49 -335 -1391 0
49 -336 -1389 0
49 -336 -1390 0
49 -336 -1391 0
49 -329 -1466 0
49 -329 -1467 0
49 -329 -1468 0
49 -330 -1467 0
49 -330 -1468 0
49 -331 -1468 0
49 -337 338 0
49 -339 347 0
49 -340 348 0
49 -341 349 0
49 -342 350 0
49 -343 351 0
49 -344 352 0
49 -345 353 0
49 -346 354 0
49 -339 -1124 0
49 -339 -1125 0
49 -339 -1126 0
49 -339 -1127 0
49 -339 -1128 0
49 -339 -1129 0
49 -339 -1130 0
49 -340 -1125 0
49 -340 -1126 0
49 -340 -1127 0
49 -340 -1128 0
49 -340 -1129 0
49 -340 -1130 0
49 -341 -1126 0
49 -341 -1127 0
49 -341 -1128 0
49 -341 -1129 0
49 -341 -1130 0
49 -342 -1127 0
49 -342 -1128 0
49 -342 -1129 0
49 -342 -1130 0
49 -343 -1128 0
49 -343 -1129 0
49 -343 -1130 0
49 -344 -1129 0
49 -344 -1130 0
49 -345 -1130 0
49 -355 356 0
49 -357 365 0
49 -358 366 0
49 -359 367 0
49 -360 368 0
49 -361 369 0
49 -362 370 0
49 -363 371 0
49 -364 372 0
49 -358 -931 0
49 -359 -932 0
49 -360 -933 0
49 -361 -934 0
49 -362 -935 0
49 -363 -936 0
49 -360 -937 0
49 -361 -937 0
49 -361 -938 0
49 -362 -937 0
49 -362 -938 0
49 -362 -939 0
49 -363 -937 0
49 -363 -938 0
49 -363 -939 0
49 -363 -940 0
49 -364 -937 0
49 -364 -938 0
49 -364 -939 0
49 -364 -940 0
49 -364 -941 0
49 -366 -937 0
49 -367 -938 0
49 -368 -939 0
49 -369 -940 0
49 -370 -941 0
49 -371 -942 0
49 -365 -1395 0
49 -366 -1395 0
49 -366 -1396 0
49 -367 -1395 0
49 -367 -1396 0
49 -367 -1397 0
49 -368 -1395 0
49 -368 -1396 0
49 -368 -1397 0
49 -369 -1395 0
49 -369 -1396 0
49 -369 -1397 0
49 -370 -1395 0
49 -370 -1396 0
49 -370 -1397 0
49 -371 -1395 0
49 -371 -1396 0
49 -371 -1397 0
49 -372 -1396 0
49 -372 -1397 0
49 -367 -1409 0
49 -368 -1409 0
49 -369 -1409 0
49 -370 -1409 0
49 -371 -1409 0
49 -365 -1697 0
49 -366 -1697 0
49 -367 -1697 0
49 -368 -1697 0
49 -369 -1697 0
49 -370 -1697 0
49 -371 -1697 0
49 -373 374 0
49 -375 376 0
49 -377 380 0
49 -378 381 0
49 -379 382 0
49 -378 -1738 0
49 -378 -1739 0
49 -378 -1740 0
49 -378 -1741 0
49 -378 -1742 0
49 -378 -1743 0
49 -378 -1744 0
49 -379 -1739 0
49 -379 -1740 0
49 -379 -1741 0
49 -379 -1742 0
49 -379 -1743 0
49 -379 -1744 0
49 -381 -400 0
49 -380 -1228 0
49 -381 -1269 0
49 -381 -1270 0
49 -381 -1271 0
49 -381 -1272 0
49 -382 -1269 0
49 -382 -1270 0
49 -382 -1271 0
49 -382 -1272 0
49 -382 -1273 0
49 -381 -1473 0
49 -381 -1474 0
49 -381 -1475 0
49 -381 -1476 0
49 -381 -1477 0
49 -381 -1478 0
49 -382 -1473 0
49 -382 -1474 0
49 -382 -1475 0
49 -382 -1476 0
49 -382 -1477 0
49 -382 -1478 0
49 -382 -1479 0
49 -381 -1729 0
49 -381 -1730 0
49 -381 -1731 0
49 -381 -1732 0
49 -381 -1733 0
49 -381 -1734 0
49 -382 -1729 0
49 -382 -1730 0
49 -382 -1731 0
49 -382 -1732 0
49 -382 -1733 0
49 -382 -1734 0
49 -382 -1735 0
49 -381 -1738 0
49 -381 -1739 0
49 -381 -1740 0
49 -381 -1741 0
49 -381 -1742 0
49 -382 -1739 0
49 -382 -1740 0
49 -382 -1741 0
49 -382 -1742 0
49 -382 -1743 0
49 -381 -1910 0
49 -381 -1911 0
49 -381 -1912 0
49 -381 -1913 0
49 -381 -1914 0
49 -382 -1910 0
49 -382 -1911 0
49 -382 -1912 0
49 -382 -1913 0
49 -382 -1914 0
49 -382 -1915 0
49 -383 385 0
49 -384 386 0
49 -384 -646 0
49 -384 -654 0
49 -384 -655 0
49 -384 -656 0
49 -384 -657 0
49 -384 -658 0
49 -384 -659 0
49 -384 -660 0
49 -383 -1459 0
49 -386 -1372 0
49 -387 388 0
49 -389 390 0
49 -391 392 0
49 -393 397 0
49 -394 398 0
49 -395 399 0
49 -396 400 0
49 -394 -1230 0
49 -395 -1230 0
49 -396 -1230 0
49 -394 -1271 0
49 -394 -1272 0
49 -394 -1273 0
49 -394 -1274 0
49 -395 -1272 0
49 -395 -1273 0
49 -395 -1274 0
49 -396 -1273 0
49 -396 -1274 0
49 -393 -1459 0
49 -393 -1460 0
49 -393 -1461 0
49 -393 -1462 0
49 -393 -1463 0
49 -393 -1464 0
49 -394 -1924 0
49 -394 -1925 0
49 -394 -1926 0
49 -394 -1927 0
49 -394 -1928 0
49 -394 -1929 0
49 -394 -1930 0
49 -395 -1925 0
49 -395 -1926 0
49 -395 -1927 0
49 -395 -1928 0
49 -395 -1929 0
49 -395 -1930 0
49 -396 -1926 0
49 -396 -1927 0
49 -396 -1928 0
49 -396 -1929 0
49 -396 -1930 0
49 -398 -1269 0
49 -399 -1269 0
49 -399 -1270 0
49 -400 -1269 0
49 -400 -1270 0
49 -400 -1271 0
49 -398 -1473 0
49 -398 -1474 0
49 -398 -1475 0
49 -398 -1476 0
49 -398 -1477 0
49 -399 -1473 0
49 -399 -1474 0
49 -399 -1475 0
49 -399 -1476 0
49 -399 -1477 0
49 -399 -1478 0
49 -400 -1473 0
49 -400 -1474 0
49 -400 -1475 0
49 -400 -1476 0
49 -400 -1477 0
49 -400 -1478 0
49 -400 -1479 0
49 -398 -1729 0
49 -398 -1730 0
49 -398 -1731 0
49 -398 -1732 0
49 -398 -1733 0
49 -399 -1729 0
49 -399 -1730 0
49 -399 -1731 0
49 -399 -1732 0
49 -399 -1733 0
49 -399 -1734 0
49 -400 -1729 0
49 -400 -1730 0
49 -400 -1731 0
49 -400 -1732 0
49 -400 -1733 0
49 -400 -1734 0
49 -400 -1735 0
49 -401 402 0
49 -403 411 0
49 -404 412 0
49 -405 413 0
49 -406 414 0
49 -407 415 0
49 -408 416 0
49 -409 417 0
49 -410 418 0
49 -403 -1292 0
49 -404 -1292 0
49 -404 -1293 0
49 -405 -1292 0
49 -405 -1293 0
49 -405 -1294 0
49 -406 -1292 0
49 -406 -1293 0
49 -406 -1294 0
49 -406 -1295 0
49 -407 -1292 0
49 -407 -1293 0
49 -407 -1294 0
49 -407 -1295 0
49 -407 -1296 0
49 -408 -1292 0
49 -408 -1293 0
49 -408 -1294 0
49 -408 -1295 0
49 -408 -1296 0
49 -409 -1292 0
49 -409 -1293 0
49 -409 -1294 0
49 -409 -1295 0
49 -409 -1296 0
49 -410 -1293 0
49 -410 -1294 0
49 -410 -1295 0
49 -410 -1296 0
49 -403 -1702 0
49 -404 -1703 0
49 -405 -1704 0
49 -406 -1705 0
49 -407 -1706 0
49 -408 -1707 0
49 -409 -1708 0
49 -412 -1701 0
49 -413 -1701 0
49 -413 -1702 0
49 -414 -1701 0
49 -414 -1702 0
49 -414 -1703 0
49 -415 -1701 0
49 -415 -1702 0
49 -415 -1703 0
49 -415 -1704 0
49 -416 -1701 0
49 -416 -1702 0
49 -416 -1703 0
49 -416 -1704 0
49 -416 -1705 0
49 -417 -1701 0
49 -417 -1702 0
49 -417 -1703 0
49 -417 -1704 0
49 -417 -1705 0
49 -417 -1706 0
49 -418 -1701 0
49 -418 -1702 0
49 -418 -1703 0
49 -418 -1704 0
49 -418 -1705 0
49 -418 -1706 0
49 -418 -1707 0
49 -419 420 0
49 -421 429 0
49 -422 430 0
49 -423 431 0
49 -424 432 0
49 -425 433 0
49 -426 434 0
49 -427 435 0
49 -428 436 0
49 -422 -791 0
49 -423 -791 0
49 -423 -792 0
49 -424 -791 0
49 -424 -792 0
49 -424 -793 0
49 -425 -792 0
49 -425 -793 0
49 -425 -794 0
49 -426 -793 0
49 -426 -794 0
49 -426 -795 0
49 -427 -794 0
49 -427 -795 0
49 -427 -796 0
49 -428 -795 0
49 -428 -796 0
49 -428 -797 0
49 -421 -800 0
49 -421 -801 0
49 -421 -802 0
49 -421 -803 0
49 -421 -804 0
49 -421 -805 0
49 -421 -806 0
49 -422 -801 0
49 -422 -802 0
49 -422 -803 0
49 -422 -804 0
49 -422 -805 0
49 -422 -806 0
49 -423 -802 0
49 -423 -803 0
49 -423 -804 0
49 -423 -805 0
49 -423 -806 0
49 -424 -803 0
49 -424 -804 0
49 -424 -805 0
49 -424 -806 0
49 -425 -804 0
49 -425 -805 0
49 -425 -806 0
49 -426 -805 0
49 -426 -806 0
49 -427 -806 0
49 -422 -2449 0
49 -423 -2450 0
49 -424 -2451 0
49 -425 -2452 0
49 -426 -2453 0
49 -427 -2454 0
49 -428 -2455 0
49 -421 -2458 0
49 -421 -2459 0
49 -421 -2460 0
49 -421 -2461 0
49 -421 -2462 0
49 -421 -2463 0
49 -421 -2464 0
49 -422 -2459 0
49 -422 -2460 0
49 -422 -2461 0
49 -422 -2462 0
49 -422 -2463 0
49 -422 -2464 0
49 -423 -2460 0
49 -423 -2461 0
49 -423 -2462 0
49 -423 -2463 0
49 -423 -2464 0
49 -424 -2461 0
49 -424 -2462 0
49 -424 -2463 0
49 -424 -2464 0
49 -425 -2462 0
49 -425 -2463 0
49 -425 -2464 0
49 -426 -2463 0
49 -426 -2464 0
49 -427 -2464 0
49 -430 -791 0
49 -431 -791 0
49 -431 -792 0
49 -432 -791 0
49 -432 -792 0
49 -432 -793 0
49 -433 -791 0
49 -433 -792 0
49 -433 -793 0
49 -433 -794 0
49 -434 -791 0
49 -434 -792 0
49 -434 -793 0
49 -434 -794 0
49 -434 -795 0
49 -435 -791 0
49 -435 -792 0
49 -435 -793 0
49 -435 -794 0
49 -435 -795 0
49 -435 -796 0
49 -436 -791 0
49 -436 -792 0
49 -436 -793 0
49 -436 -794 0
49 -436 -795 0
49 -436 -796 0
49 -436 -797 0
49 -430 -799 0
49 -431 -799 0
49 -431 -800 0
49 -432 -799 0
49 -432 -800 0
49 -432 -801 0
49 -433 -800 0
49 -433 -801 0
49 -433 -802 0
49 -434 -801 0
49 -434 -802 0
49 -434 -803 0
49 -435 -802 0
49 -435 -803 0
49 -435 -804 0
49 -436 -803 0
49 -436 -804 0
49 -436 -805 0
49 -430 -2449 0
49 -431 -2449 0
49 -431 -2450 0
49 -432 -2449 0
49 -432 -2450 0
49 -432 -2451 0
49 -433 -2449 0
49 -433 -2450 0
49 -433 -2451 0
49 -433 -2452 0
49 -434 -2449 0
49 -434 -2450 0
49 -434 -2451 0
49 -434 -2452 0
49 -434 -2453 0
49 -435 -2449 0
49 -435 -2450 0
49 -435 -2451 0
49 -435 -2452 0
49 -435 -2453 0
49 -435 -2454 0
49 -436 -2449 0
49 -436 -2450 0
49 -436 -2451 0
49 -436 -2452 0
49 -436 -2453 0
49 -436 -2454 0
49 -436 -2455 0
49 -430 -2457 0
49 -431 -2458 0
49 -432 -2459 0
49 -433 -2460 0
49 -434 -2461 0
49 -435 -2462 0
49 -436 -2463 0
49 -437 438 0
49 -439 440 0
49 -441 444 0
49 -442 445 0
49 -443 446 0
49 -441 -698 0
49 -441 -699 0
49 -441 -700 0
49 -441 -701 0
49 -441 -702 0
49 -441 -703 0
49 -441 -704 0
49 -442 -704 0
49 -447 448 0
49 -449 452 0
49 -450 453 0
49 -451 454 0
49 -450 -557 0
49 -450 -558 0
49 -451 -561 0
49 -451 -562 0
49 -451 -563 0
49 -451 -564 0
49 -449 -1190 0
49 -449 -1191 0
49 -450 -1190 0
49 -450 -1191 0
49 -453 -820 0
49 -455 457 0
49 -456 458 0
49 -458 -549 0
49 -458 -550 0
49 -458 -551 0
49 -458 -552 0
49 -458 -553 0
49 -458 -558 0
49 -458 -559 0
49 -458 -560 0
49 -458 -561 0
49 -459 467 0
49 -460 468 0
49 -461 469 0
49 -462 470 0
49 -463 471 0
49 -464 472 0
49 -465 473 0
49 -466 474 0
49 -459 -1584 0
49 -459 -1585 0
49 -459 -1586 0
49 -459 -1587 0
49 -459 -1588 0
49 -460 -1585 0
49 -460 -1586 0
49 -460 -1587 0
49 -460 -1588 0
49 -460 -1589 0
49 -461 -1586 0
49 -461 -1587 0
49 -461 -1588 0
49 -461 -1589 0
49 -461 -1590 0
49 -462 -1587 0
49 -462 -1588 0
49 -462 -1589 0
49 -462 -1590 0
49 -463 -1588 0
49 -463 -1589 0
49 -463 -1590 0
49 -464 -1589 0
49 -464 -1590 0
49 -465 -1590 0
49 -463 -1674 0
49 -464 -1674 0
49 -465 -1674 0
49 -459 -1676 0
49 -460 -1676 0
49 -461 -1676 0
49 -462 -1676 0
49 -463 -1676 0
49 -464 -1676 0
49 -465 -1676 0
49 -468 -1192 0
49 -469 -1192 0
49 -475 476 0
49 -477 481 0
49 -478 482 0
49 -479 483 0
49 -480 484 0
49 -482 -1489 0
49 -482 -1490 0
49 -483 -1489 0
49 -483 -1490 0
49 -483 -1491 0
49 -483 -1492 0
49 -484 -1489 0
49 -484 -1490 0
49 -484 -1491 0
49 -484 -1492 0
49 -484 -1493 0
49 -484 -1494 0
49 -485 493 0
49 -486 494 0
49 -487 495 0
49 -488 496 0
49 -489 497 0
49 -490 498 0
49 -491 499 0
49 -492 500 0
49 -491 -780 0
49 -491 -781 0
49 -491 -782 0
49 -491 -783 0
49 -491 -784 0
49 -491 -785 0
49 -491 -786 0
49 -492 -781 0
49 -492 -782 0
49 -492 -783 0
49 -492 -784 0
49 -492 -785 0
49 -492 -786 0
49 -493 -2200 0
49 -493 -2201 0
49 -493 -2202 0
49 -494 -2201 0
49 -494 -2202 0
49 -495 -2202 0
49 -496 -2202 0
49 -497 -2202 0
49 -493 -2295 0
49 -493 -2296 0
49 -493 -2297 0
49 -493 -2298 0
49 -493 -2299 0
49 -493 -2300 0
49 -493 -2301 0
49 -493 -2302 0
49 -494 -2296 0
49 -494 -2297 0
49 -494 -2298 0
49 -494 -2299 0
49 -494 -2300 0
49 -494 -2301 0
49 -494 -2302 0
49 -495 -2297 0
49 -495 -2298 0
49 -495 -2299 0
49 -495 -2300 0
49 -495 -2301 0
49 -495 -2302 0
49 -496 -2298 0
49 -496 -2299 0
49 -496 -2300 0
49 -496 -2301 0
49 -496 -2302 0
49 -497 -2299 0
49 -497 -2300 0
49 -497 -2301 0
49 -497 -2302 0
49 -501 512 0
49 -502 513 0
49 -503 514 0
49 -504 515 0
49 -505 516 0
49 -506 517 0
49 -507 518 0
49 -508 519 0
49 -509 520 0
49 -510 521 0
49 -511 522 0
49 -502 -2357 0
49 -503 -2357 0
49 -503 -2358 0
49 -504 -2357 0
49 -504 -2358 0
49 -504 -2359 0
49 -505 -2357 0
49 -505 -2358 0
49 -505 -2359 0
49 -505 -2360 0
49 -506 -2357 0
49 -506 -2358 0
49 -506 -2359 0
49 -506 -2360 0
49 -506 -2361 0
49 -507 -2358 0
49 -507 -2359 0
49 -507 -2360 0
49 -507 -2361 0
49 -507 -2362 0
49 -508 -2359 0
49 -508 -2360 0
49 -508 -2361 0
49 -508 -2362 0
49 -508 -2363 0
49 -509 -2360 0
49 -509 -2361 0
49 -509 -2362 0
49 -509 -2363 0
49 -509 -2364 0
49 -510 -2361 0
49 -510 -2362 0
49 -510 -2363 0
49 -510 -2364 0
49 -511 -2362 0
49 -511 -2363 0
49 -511 -2364 0
49 -501 -2715 0
49 -501 -2716 0
49 -501 -2717 0
49 -501 -2718 0
49 -501 -2719 0
49 -501 -2720 0
49 -502 -2716 0
49 -502 -2717 0
49 -502 -2718 0
49 -502 -2719 0
49 -502 -2720 0
49 -503 -2717 0
49 -503 -2718 0
49 -503 -2719 0
49 -503 -2720 0
49 -504 -2717 0
49 -504 -2718 0
49 -504 -2719 0
49 -504 -2720 0
49 -505 -2718 0
49 -505 -2719 0
49 -505 -2720 0
49 -506 -2719 0
49 -506 -2720 0
49 -507 -2720 0
49 -512 -2715 0
49 -512 -2716 0
49 -512 -2717 0
49 -512 -2718 0
49 -512 -2719 0
49 -512 -2720 0
49 -513 -2716 0
49 -513 -2717 0
49 -513 -2718 0
49 -513 -2719 0
49 -513 -2720 0
49 -514 -2717 0
49 -514 -2718 0
49 -514 -2719 0
49 -514 -2720 0
49 -515 -2717 0
49 -515 -2718 0
49 -515 -2719 0
49 -515 -2720 0
49 -516 -2718 0
49 -516 -2719 0
49 -516 -2720 0
49 -517 -2719 0
49 -517 -2720 0
49 -518 -2720 0
49 -513 -2835 0
49 -514 -2835 0
49 -514 -2836 0
49 -515 -2835 0
49 -515 -2836 0
49 -515 -2837 0
49 -516 -2836 0
49 -516 -2837 0
49 -516 -2838 0
49 -517 -2837 0
49 -517 -2838 0
49 -517 -2839 0
49 -518 -2838 0
49 -518 -2839 0
49 -518 -2840 0
49 -519 -2839 0
49 -519 -2840 0
49 -519 -2841 0
49 -520 -2840 0
49 -520 -2841 0
49 -520 -2842 0
49 -521 -2841 0
49 -521 -2842 0
49 -522 -2842 0
49 -523 530 0
49 -524 531 0
49 -525 532 0
49 -526 533 0
49 -527 534 0
49 -528 535 0
49 -529 536 0
49 -537 538 0
49 -539 544 0
49 -540 545 0
49 -541 546 0
49 -542 547 0
49 -543 548 0
49 -549 557 0
49 -550 558 0
49 -551 559 0
49 -552 560 0
49 -553 561 0
49 -554 562 0
49 -555 563 0
49 -556 564 0
49 -558 -743 0
49 -559 -743 0
49 -559 -744 0
49 -560 -743 0
49 -560 -744 0
49 -560 -745 0
49 -561 -743 0
49 -561 -744 0
49 -561 -745 0
49 -561 -746 0
49 -562 -743 0
49 -562 -744 0
49 -562 -745 0
49 -562 -746 0
49 -562 -747 0
49 -563 -743 0
49 -563 -744 0
49 -563 -745 0
49 -563 -746 0
49 -563 -747 0
49 -563 -748 0
49 -564 -743 0
49 -564 -744 0
49 -564 -745 0
49 -564 -746 0
49 -564 -747 0
49 -564 -748 0
49 -564 -749 0
49 -557 -754 0
49 -558 -755 0
49 -559 -756 0
49 -560 -757 0
49 -561 -758 0
49 -562 -759 0
49 -563 -760 0
49 -564 -761 0
49 -565 573 0
49 -566 574 0
49 -567 575 0
49 -568 576 0
49 -569 577 0
49 -570 578 0
49 -571 579 0
49 -572 580 0
49 -565 -2852 0
49 -565 -2853 0
49 -565 -2854 0
49 -565 -2855 0
49 -565 -2856 0
49 -566 -2852 0
49 -566 -2853 0
49 -566 -2854 0
49 -566 -2855 0
49 -566 -2856 0
49 -567 -2852 0
49 -567 -2853 0
49 -567 -2854 0
49 -567 -2855 0
49 -567 -2856 0
49 -568 -2853 0
49 -568 -2854 0
49 -568 -2855 0
49 -568 -2856 0
49 -569 -2854 0
49 -569 -2855 0
49 -569 -2856 0
49 -570 -2855 0
49 -570 -2856 0
49 -571 -2856 0
49 -574 -2859 0
49 -575 -2859 0
49 -575 -2860 0
49 -576 -2859 0
49 -576 -2860 0
49 -576 -2861 0
49 -577 -2859 0
49 -577 -2860 0
49 -577 -2861 0
49 -577 -2862 0
49 -578 -2859 0
49 -578 -2860 0
49 -578 -2861 0
49 -578 -2862 0
49 -578 -2863 0
49 -579 -2859 0
49 -579 -2860 0
49 -579 -2861 0
49 -579 -2862 0
49 -579 -2863 0
49 -579 -2864 0
49 -580 -2859 0
49 -580 -2860 0
49 -580 -2861 0
49 -580 -2862 0
49 -580 -2863 0
49 -580 -2864 0
49 -580 -2865 0
49 -573 -2868 0
49 -574 -2869 0
49 -575 -2870 0
49 -576 -2871 0
49 -577 -2872 0
49 -578 -2873 0
49 -579 -2874 0
49 -581 585 0
49 -582 586 0
49 -583 587 0
49 -584 588 0
49 -581 -864 0
49 -581 -865 0
49 -581 -866 0
49 -581 -867 0
49 -586 -2133 0
49 -586 -2134 0
49 -586 -2135 0
49 -586 -2136 0
49 -587 -2133 0
49 -587 -2134 0
49 -587 -2135 0
49 -587 -2136 0
49 -587 -2137 0
49 -588 -2133 0
49 -588 -2134 0
49 -588 -2135 0
49 -588 -2136 0
49 -588 -2137 0
49 -588 -2138 0
49 -586 -2689 0
49 -586 -2690 0
49 -586 -2691 0
49 -586 -2692 0
49 -586 -2693 0
49 -587 -2689 0
49 -587 -2690 0
49 -587 -2691 0
49 -587 -2692 0
49 -587 -2693 0
49 -587 -2694 0
49 -588 -2689 0
49 -588 -2690 0
49 -588 -2691 0
49 -588 -2692 0
49 -588 -2693 0
49 -588 -2694 0
49 -588 -2695 0
49 -589 590 0
49 -591 592 0
49 -593 594 0
49 -595 605 0
49 -596 606 0
49 -597 607 0
49 -598 608 0
49 -599 609 0
49 -600 610 0
49 -601 611 0
49 -602 612 0
49 -603 613 0
49 -604 614 0
49 -615 617 0
49 -616 618 0
49 -615 -1187 0
49 -615 -1188 0
49 -616 -1189 0
49 -616 -2317 0
49 -616 -2325 0
49 -616 -2326 0
49 -616 -2327 0
49 -616 -2328 0
49 -616 -2329 0
49 -619 622 0
49 -620 623 0
49 -621 624 0
49 -625 626 0
49 -627 628 0
49 -629 630 0
49 -631 632 0
49 -633 634 0
49 -635 636 0
49 -637 638 0
49 -639 640 0
49 -641 642 0
49 -643 644 0
49 -645 653 0
49 -646 654 0
49 -647 655 0
49 -648 656 0
49 -649 657 0
49 -650 658 0
49 -651 659 0
49 -652 660 0
49 -646 -1004 0
49 -646 -1005 0
49 -646 -1006 0
49 -646 -1007 0
49 -646 -1008 0
49 -646 -1009 0
49 -646 -1010 0
49 -647 -1005 0
49 -647 -1006 0
49 -647 -1007 0
49 -647 -1008 0
49 -647 -1009 0
49 -647 -1010 0
49 -648 -1006 0
49 -648 -1007 0
49 -648 -1008 0
49 -648 -1009 0
49 -648 -1010 0
49 -649 -1007 0
49 -649 -1008 0
49 -649 -1009 0
49 -649 -1010 0
49 -650 -1008 0
49 -650 -1009 0
49 -650 -1010 0
49 -651 -1009 0
49 -651 -1010 0
49 -652 -1010 0
49 -645 -1647 0
49 -645 -1648 0
49 -661 665 0
49 -662 666 0
49 -663 667 0
49 -664 668 0
49 -665 -724 0
49 -665 -725 0
49 -665 -726 0
49 -666 -725 0
49 -666 -726 0
49 -667 -726 0
49 -665 -1189 0
49 -666 -1189 0
49 -667 -1189 0
49 -669 670 0
49 -671 674 0
49 -672 675 0
49 -673 676 0
49 -671 -931 0
49 -672 -933 0
49 -673 -935 0
49 -674 -817 0
49 -675 -817 0
49 -674 -1184 0
49 -675 -1184 0
49 -675 -1185 0
49 -676 -1185 0
49 -677 678 0
49 -679 680 0
49 -681 685 0
49 -682 686 0
49 -683 687 0
49 -684 688 0
49 -681 -1250 0
49 -681 -1251 0
49 -681 -1252 0
49 -682 -1251 0
49 -682 -1252 0
49 -683 -1252 0
49 -685 -1250 0
49 -685 -1251 0
49 -685 -1252 0
49 -686 -1251 0
49 -686 -1252 0
49 -687 -1252 0
49 -689 697 0
49 -690 698 0
49 -691 699 0
49 -692 700 0
49 -693 701 0
49 -694 702 0
49 -695 703 0
49 -696 704 0
49 -697 -1459 0
49 -697 -1460 0
49 -697 -1461 0
49 -698 -1460 0
49 -698 -1461 0
49 -699 -1461 0
49 -697 -1466 0
49 -697 -1467 0
49 -697 -1468 0
49 -698 -1467 0
49 -698 -1468 0
49 -699 -1468 0
49 -705 706 0
49 -707 708 0
49 -709 710 0
49 -711 712 0
49 -713 714 0
49 -715 716 0
49 -717 718 0
49 -719 720 0
49 -721 722 0
49 -723 727 0
49 -724 728 0
49 -725 729 0
49 -726 730 0
49 -731 737 0
49 -732 738 0
49 -733 739 0
49 -734 740 0
49 -735 741 0
49 -736 742 0
49 -743 753 0
49 -744 754 0
49 -745 755 0
49 -746 756 0
49 -747 757 0
49 -748 758 0
49 -749 759 0
49 -750 760 0
49 -751 761 0
49 -752 762 0
49 -752 -2280 0
49 -763 767 0
49 -764 768 0
49 -765 769 0
49 -766 770 0
49 -764 -1603 0
49 -765 -1604 0
49 -766 -1605 0
49 -763 -1608 0
49 -763 -1609 0
49 -763 -1610 0
49 -763 -1611 0
49 -763 -1612 0
49 -764 -1611 0
49 -764 -1612 0
49 -765 -1612 0
49 -768 -1601 0
49 -768 -1602 0
49 -768 -1603 0
49 -769 -1601 0
49 -769 -1602 0
49 -769 -1603 0
49 -769 -1604 0
49 -770 -1601 0
49 -770 -1602 0
49 -770 -1603 0
49 -770 -1604 0
49 -770 -1605 0
49 -768 -1609 0
49 -769 -1610 0
49 -770 -1611 0
49 -771 779 0
49 -772 780 0
49 -773 781 0
49 -774 782 0
49 -775 783 0
49 -776 784 0
49 -777 785 0
49 -778 786 0
49 -771 -2001 0
49 -771 -2002 0
49 -771 -2003 0
49 -771 -2004 0
49 -771 -2005 0
49 -772 -2002 0
49 -772 -2003 0
49 -772 -2004 0
49 -772 -2005 0
49 -772 -2006 0
49 -773 -2003 0
49 -773 -2004 0
49 -773 -2005 0
49 -773 -2006 0
49 -773 -2007 0
49 -774 -2004 0
49 -774 -2005 0
49 -774 -2006 0
49 -774 -2007 0
49 -774 -2008 0
49 -775 -2005 0
49 -775 -2006 0
49 -775 -2007 0
49 -775 -2008 0
49 -775 -2009 0
49 -776 -2006 0
49 -776 -2007 0
49 -776 -2008 0
49 -776 -2009 0
49 -776 -2010 0
49 -777 -2007 0
49 -777 -2008 0
49 -777 -2009 0
49 -777 -2010 0
49 -778 -2008 0
49 -778 -2009 0
49 -778 -2010 0
49 -771 -2386 0
49 -771 -2387 0
49 -771 -2388 0
49 -771 -2389 0
49 -771 -2390 0
49 -771 -2391 0
49 -771 -2392 0
49 -772 -2387 0
49 -772 -2388 0
49 -772 -2389 0
49 -772 -2390 0
49 -772 -2391 0
49 -772 -2392 0
49 -773 -2388 0
49 -773 -2389 0
49 -773 -2390 0
49 -773 -2391 0
49 -773 -2392 0
49 -774 -2389 0
49 -774 -2390 0
49 -774 -2391 0
49 -774 -2392 0
49 -775 -2390 0
49 -775 -2391 0
49 -775 -2392 0
49 -776 -2391 0
49 -776 -2392 0
49 -777 -2392 0
49 -780 -2027 0
49 -781 -2027 0
49 -781 -2028 0
49 -782 -2027 0
49 -782 -2028 0
49 -782 -2029 0
49 -783 -2027 0
49 -783 -2028 0
49 -783 -2029 0
49 -783 -2030 0
49 -784 -2027 0
49 -784 -2028 0
49 -784 -2029 0
49 -784 -2030 0
49 -784 -2031 0
49 -785 -2027 0
49 -785 -2028 0
49 -785 -2029 0
49 -785 -2030 0
49 -785 -2031 0
49 -785 -2032 0
49 -786 -2027 0
49 -786 -2028 0
49 -786 -2029 0
49 -786 -2030 0
49 -786 -2031 0
49 -786 -2032 0
49 -786 -2033 0
49 -779 -2036 0
49 -779 -2037 0
49 -779 -2038 0
49 -779 -2039 0
49 -779 -2040 0
49 -780 -2037 0
49 -780 -2038 0
49 -780 -2039 0
49 -780 -2040 0
49 -780 -2041 0
49 -781 -2038 0
49 -781 -2039 0
49 -781 -2040 0
49 -781 -2041 0
49 -781 -2042 0
49 -782 -2039 0
49 -782 -2040 0
49 -782 -2041 0
49 -782 -2042 0
49 -783 -2040 0
49 -783 -2041 0
49 -783 -2042 0
49 -784 -2041 0
49 -784 -2042 0
49 -785 -2042 0
49 -787 788 0
49 -789 790 0
49 -791 799 0
49 -792 800 0
49 -793 801 0
49 -794 802 0
49 -795 803 0
49 -796 804 0
49 -797 805 0
49 -798 806 0
49 -791 -2450 0
49 -792 -2451 0
49 -793 -2452 0
49 -794 -2453 0
49 -795 -2454 0
49 -796 -2455 0
49 -797 -2456 0
49 -791 -2458 0
49 -791 -2459 0
49 -791 -2460 0
49 -791 -2461 0
49 -791 -2462 0
49 -791 -2463 0
49 -791 -2464 0
49 -792 -2459 0
49 -792 -2460 0
49 -792 -2461 0
49 -792 -2462 0
49 -792 -2463 0
49 -792 -2464 0
49 -793 -2460 0
49 -793 -2461 0
49 -793 -2462 0
49 -793 -2463 0
49 -793 -2464 0
49 -794 -2461 0
49 -794 -2462 0
49 -794 -2463 0
49 -794 -2464 0
49 -795 -2462 0
49 -795 -2463 0
49 -795 -2464 0
49 -796 -2463 0
49 -796 -2464 0
49 -797 -2464 0
49 -800 -2449 0
49 -801 -2449 0
49 -801 -2450 0
49 -802 -2449 0
49 -802 -2450 0
49 -802 -2451 0
49 -803 -2449 0
49 -803 -2450 0
49 -803 -2451 0
49 -803 -2452 0
49 -804 -2449 0
49 -804 -2450 0
49 -804 -2451 0
49 -804 -2452 0
49 -804 -2453 0
49 -805 -2449 0
49 -805 -2450 0
49 -805 -2451 0
49 -805 -2452 0
49 -805 -2453 0
49 -805 -2454 0
49 -806 -2449 0
49 -806 -2450 0
49 -806 -2451 0
49 -806 -2452 0
49 -806 -2453 0
49 -806 -2454 0
49 -806 -2455 0
49 -799 -2458 0
49 -800 -2459 0
49 -801 -2460 0
49 -802 -2461 0
49 -803 -2462 0
49 -804 -2463 0
49 -805 -2464 0
49 -807 808 0
49 -809 810 0
49 -811 812 0
49 -813 814 0
49 -815 816 0
49 -817 820 0
49 -818 821 0
49 -819 822 0
49 -823 824 0
49 -825 826 0
49 -827 828 0
49 -829 853 0
49 -830 854 0
49 -831 855 0
49 -832 856 0
49 -833 844 0
49 -834 845 0
49 -835 846 0
49 -836 847 0
49 -837 848 0
49 -838 849 0
49 -839 850 0
49 -840 851 0
49 -841 852 0
49 -842 857 0
49 -843 858 0
49 -854 -2133 0
49 -855 -2133 0
49 -855 -2134 0
49 -856 -2133 0
49 -856 -2134 0
49 -856 -2135 0
49 -857 -2133 0
49 -857 -2134 0
49 -857 -2135 0
49 -857 -2136 0
49 -857 -2137 0
49 -857 -2138 0
49 -858 -2133 0
49 -858 -2134 0
49 -858 -2135 0
49 -858 -2136 0
49 -858 -2137 0
49 -858 -2138 0
49 -858 -2139 0
49 -855 -2627 0
49 -856 -2627 0
49 -856 -2628 0
49 -857 -2627 0
49 -857 -2628 0
49 -857 -2629 0
49 -857 -2630 0
49 -857 -2631 0
49 -858 -2627 0
49 -858 -2628 0
49 -858 -2629 0
49 -858 -2630 0
49 -858 -2631 0
49 -858 -2632 0
49 -844 -2665 0
49 -845 -2665 0
49 -846 -2665 0
49 -847 -2665 0
49 -848 -2665 0
49 -848 -2666 0
49 -849 -2665 0
49 -849 -2666 0
49 -849 -2667 0
49 -850 -2665 0
49 -850 -2666 0
49 -850 -2667 0
49 -850 -2668 0
49 -851 -2665 0
49 -851 -2666 0
49 -851 -2667 0
49 -851 -2668 0
49 -851 -2669 0
49 -852 -2665 0
49 -852 -2666 0
49 -852 -2667 0
49 -852 -2668 0
49 -852 -2669 0
49 -852 -2670 0
49 -853 -2666 0
49 -853 -2667 0
49 -853 -2668 0
49 -853 -2669 0
49 -853 -2670 0
49 -853 -2671 0
49 -853 -2672 0
49 -853 -2673 0
49 -853 -2674 0
49 -853 -2675 0
49 -853 -2676 0
49 -854 -2666 0
49 -854 -2667 0
49 -854 -2668 0
49 -854 -2669 0
49 -854 -2670 0
49 -854 -2671 0
49 -854 -2672 0
49 -854 -2673 0
49 -854 -2674 0
49 -854 -2675 0
49 -854 -2676 0
49 -855 -2666 0
49 -855 -2667 0
49 -855 -2668 0
49 -855 -2669 0
49 -855 -2670 0
49 -855 -2671 0
49 -855 -2672 0
49 -855 -2673 0
49 -855 -2674 0
49 -855 -2675 0
49 -855 -2676 0
49 -856 -2666 0
49 -856 -2667 0
49 -856 -2668 0
49 -856 -2669 0
49 -856 -2670 0
49 -856 -2671 0
49 -856 -2672 0
49 -856 -2673 0
49 -856 -2674 0
49 -856 -2675 0
49 -856 -2676 0
49 -857 -2666 0
49 -857 -2667 0
49 -857 -2668 0
49 -857 -2669 0
49 -857 -2670 0
49 -857 -2671 0
49 -857 -2672 0
49 -857 -2673 0
49 -857 -2674 0
49 -857 -2675 0
49 -857 -2676 0
49 -858 -2667 0
49 -858 -2668 0
49 -858 -2669 0
49 -858 -2670 0
49 -858 -2671 0
49 -858 -2672 0
49 -858 -2673 0
49 -858 -2674 0
49 -858 -2675 0
49 -858 -2676 0
49 -844 -2677 0
49 -844 -2678 0
49 -844 -2679 0
49 -844 -2680 0
49 -844 -2681 0
49 -845 -2677 0
49 -845 -2678 0
49 -845 -2679 0
49 -845 -2680 0
49 -845 -2681 0
49 -845 -2682 0
49 -846 -2677 0
49 -846 -2678 0
49 -846 -2679 0
49 -846 -2680 0
49 -846 -2681 0
49 -846 -2682 0
49 -846 -2683 0
49 -847 -2678 0
49 -847 -2679 0
49 -847 -2680 0
49 -847 -2681 0
49 -847 -2682 0
49 -847 -2683 0
49 -847 -2684 0
49 -848 -2679 0
49 -848 -2680 0
49 -848 -2681 0
49 -848 -2682 0
49 -848 -2683 0
49 -848 -2684 0
49 -848 -2685 0
49 -849 -2680 0
49 -849 -2681 0
49 -849 -2682 0
49 -849 -2683 0
49 -849 -2684 0
49 -849 -2685 0
49 -849 -2686 0
49 -850 -2681 0
49 -850 -2682 0
49 -850 -2683 0
49 -850 -2684 0
49 -850 -2685 0
49 -850 -2686 0
49 -850 -2687 0
49 -851 -2682 0
49 -851 -2683 0
49 -851 -2684 0
49 -851 -2685 0
49 -851 -2686 0
49 -851 -2687 0
49 -852 -2683 0
49 -852 -2684 0
49 -852 -2685 0
49 -852 -2686 0
49 -852 -2687 0
49 -854 -2688 0
49 -855 -2688 0
49 -856 -2688 0
49 -857 -2688 0
49 -858 -2688 0
49 -859 864 0
49 -860 865 0
49 -861 866 0
49 -862 867 0
49 -863 868 0
49 -869 870 0
49 -871 872 0
49 -873 874 0
49 -875 903 0
49 -876 904 0
49 -877 905 0
49 -878 906 0
49 -879 907 0
49 -880 908 0
49 -881 920 0
49 -882 921 0
49 -883 922 0
49 -884 923 0
49 -885 924 0
49 -886 925 0
49 -887 926 0
49 -888 927 0
49 -889 928 0
49 -890 929 0
49 -891 930 0
49 -892 909 0
49 -893 910 0
49 -894 911 0
49 -895 912 0
49 -896 913 0
49 -897 914 0
49 -898 915 0
49 -899 916 0
49 -900 917 0
49 -901 918 0
49 -902 919 0
49 -931 937 0
49 -932 938 0
49 -933 939 0
49 -934 940 0
49 -935 941 0
49 -936 942 0
49 -937 -1184 0
49 -938 -1184 0
49 -939 -1184 0
49 -939 -1185 0
49 -940 -1185 0
49 -941 -1185 0
49 -942 -1185 0
49 -943 944 0
49 -945 946 0
49 -947 956 0
49 -948 957 0
49 -949 958 0
49 -950 959 0
49 -951 960 0
49 -952 961 0
49 -953 962 0
49 -954 955 0
49 -963 971 0
49 -964 972 0
49 -965 973 0
49 -966 974 0
49 -967 975 0
49 -968 976 0
49 -969 977 0
49 -970 978 0
49 -975 -2130 0
49 -976 -2131 0
49 -977 -2132 0
49 -979 987 0
49 -980 988 0
49 -981 989 0
49 -982 990 0
49 -983 991 0
49 -984 992 0
49 -985 993 0
49 -986 994 0
49 -988 -1655 0
49 -989 -1655 0
49 -989 -1656 0
49 -990 -1655 0
49 -990 -1656 0
49 -990 -1657 0
49 -991 -1655 0
49 -991 -1656 0
49 -991 -1657 0
49 -991 -1658 0
49 -992 -1655 0
49 -992 -1656 0
49 -992 -1657 0
49 -992 -1658 0
49 -992 -1659 0
49 -993 -1655 0
49 -993 -1656 0
49 -993 -1657 0
49 -993 -1658 0
49 -993 -1659 0
49 -993 -1660 0
49 -994 -1655 0
49 -994 -1656 0
49 -994 -1657 0
49 -994 -1658 0
49 -994 -1659 0
49 -994 -1660 0
49 -994 -1661 0
49 -995 1003 0
49 -996 1004 0
49 -997 1005 0
49 -998 1006 0
49 -999 1007 0
49 -1000 1008 0
49 -1001 1009 0
49 -1002 1010 0
49 -995 -2088 0
49 -996 -2089 0
49 -997 -2090 0
49 -998 -2091 0
49 -999 -2092 0
49 -1000 -2093 0
49 -1001 -2094 0
49 -995 -2096 0
49 -995 -2097 0
49 -995 -2098 0
49 -995 -2099 0
49 -995 -2100 0
49 -995 -2101 0
49 -995 -2102 0
49 -996 -2097 0
49 -996 -2098 0
49 -996 -2099 0
49 -996 -2100 0
49 -996 -2101 0
49 -996 -2102 0
49 -997 -2098 0
49 -997 -2099 0
49 -997 -2100 0
49 -997 -2101 0
49 -997 -2102 0
49 -998 -2099 0
49 -998 -2100 0
49 -998 -2101 0
49 -998 -2102 0
49 -999 -2100 0
49 -999 -2101 0
49 -999 -2102 0
49 -1000 -2101 0
49 -1000 -2102 0
49 -1001 -2102 0
49 -1004 -2727 0
49 -1005 -2727 0
49 -1005 -2728 0
49 -1006 -2727 0
49 -1006 -2728 0
49 -1006 -2729 0
49 -1007 -2727 0
49 -1007 -2728 0
49 -1007 -2729 0
49 -1007 -2730 0
49 -1008 -2727 0
49 -1008 -2728 0
49 -1008 -2729 0
49 -1008 -2730 0
49 -1008 -2731 0
49 -1009 -2727 0
49 -1009 -2728 0
49 -1009 -2729 0
49 -1009 -2730 0
49 -1009 -2731 0
49 -1009 -2732 0
49 -1010 -2727 0
49 -1010 -2728 0
49 -1010 -2729 0
49 -1010 -2730 0
49 -1010 -2731 0
49 -1010 -2732 0
49 -1010 -2733 0
49 -1011 1012 0
49 -1013 1014 0
49 -1015 1016 0
49 -1017 1018 0
49 -1019 1020 0
49 -1021 1029 0
49 -1022 1030 0
49 -1023 1031 0
49 -1024 1032 0
49 -1025 1033 0
49 -1026 1034 0
49 -1027 1035 0
49 -1028 1036 0
49 -1030 -2215 0
49 -1031 -2215 0
49 -1031 -2216 0
49 -1032 -2215 0
49 -1032 -2216 0
49 -1032 -2217 0
49 -1033 -2215 0
49 -1033 -2216 0
49 -1033 -2217 0
49 -1033 -2218 0
49 -1034 -2215 0
49 -1034 -2216 0
49 -1034 -2217 0
49 -1034 -2218 0
49 -1034 -2219 0
49 -1035 -2215 0
49 -1035 -2216 0
49 -1035 -2217 0
49 -1035 -2218 0
49 -1035 -2219 0
49 -1035 -2220 0
49 -1036 -2215 0
49 -1036 -2216 0
49 -1036 -2217 0
49 -1036 -2218 0
49 -1036 -2219 0
49 -1036 -2220 0
49 -1036 -2221 0
49 -1037 1038 0
49 -1039 1047 0
49 -1040 1048 0
49 -1041 1049 0
49 -1042 1050 0
49 -1043 1051 0
49 -1044 1052 0
49 -1045 1053 0
49 -1046 1054 0
49 -1048 -1808 0
49 -1049 -1808 0
49 -1055 1056 0
49 -1057 1058 0
49 -1059 1060 0
49 -1061 1062 0
49 -1063 1071 0
49 -1064 1072 0
49 -1065 1073 0
49 -1066 1074 0
49 -1067 1075 0
49 -1068 1076 0
49 -1069 1077 0
49 -1070 1078 0
49 -1063 -2752 0
49 -1063 -2753 0
49 -1063 -2754 0
49 -1063 -2755 0
49 -1063 -2756 0
49 -1063 -2757 0
49 -1063 -2758 0
49 -1064 -2753 0
49 -1064 -2754 0
49 -1064 -2755 0
49 -1064 -2756 0
49 -1064 -2757 0
49 -1064 -2758 0
49 -1065 -2754 0
49 -1065 -2755 0
49 -1065 -2756 0
49 -1065 -2757 0
49 -1065 -2758 0
49 -1066 -2755 0
49 -1066 -2756 0
49 -1066 -2757 0
49 -1066 -2758 0
49 -1067 -2756 0
49 -1067 -2757 0
49 -1067 -2758 0
49 -1068 -2757 0
49 -1068 -2758 0
49 -1069 -2758 0
49 -1072 -1079 0
49 -1073 -1079 0
49 -1073 -1080 0
49 -1074 -1079 0
49 -1074 -1080 0
49 -1074 -1081 0
49 -1075 -1079 0
49 -1075 -1080 0
49 -1075 -1081 0
49 -1075 -1082 0
49 -1076 -1079 0
49 -1076 -1080 0
49 -1076 -1081 0
49 -1076 -1082 0
49 -1076 -1083 0
49 -1077 -1079 0
49 -1077 -1080 0
49 -1077 -1081 0
49 -1077 -1082 0
49 -1077 -1083 0
49 -1077 -1084 0
49 -1078 -1079 0
49 -1078 -1080 0
49 -1078 -1081 0
49 -1078 -1082 0
49 -1078 -1083 0
49 -1078 -1084 0
49 -1078 -1085 0
49 -1072 -2751 0
49 -1073 -2752 0
49 -1074 -2753 0
49 -1075 -2754 0
49 -1076 -2755 0
49 -1077 -2756 0
49 -1078 -2757 0
49 -1079 1087 0
49 -1080 1088 0
49 -1081 1089 0
49 -1082 1090 0
49 -1083 1091 0
49 -1084 1092 0
49 -1085 1093 0
49 -1086 1094 0
49 -1079 -1954 0
49 -1080 -1955 0
49 -1081 -1956 0
49 -1082 -1957 0
49 -1083 -1958 0
49 -1084 -1959 0
49 -1085 -1960 0
49 -1079 -1962 0
49 -1079 -1963 0
49 -1079 -1964 0
49 -1079 -1965 0
49 -1079 -1966 0
49 -1079 -1967 0
49 -1079 -1968 0
49 -1080 -1963 0
49 -1080 -1964 0
49 -1080 -1965 0
49 -1080 -1966 0
49 -1080 -1967 0
49 -1080 -1968 0
49 -1081 -1964 0
49 -1081 -1965 0
49 -1081 -1966 0
49 -1081 -1967 0
49 -1081 -1968 0
49 -1082 -1965 0
49 -1082 -1966 0
49 -1082 -1967 0
49 -1082 -1968 0
49 -1083 -1966 0
49 -1083 -1967 0
49 -1083 -1968 0
49 -1084 -1967 0
49 -1084 -1968 0
49 -1085 -1968 0
49 -1079 -2490 0
49 -1079 -2491 0
49 -1079 -2492 0
49 -1079 -2493 0
49 -1079 -2494 0
49 -1080 -2491 0
49 -1080 -2492 0
49 -1080 -2493 0
49 -1080 -2494 0
49 -1080 -2495 0
49 -1081 -2492 0
49 -1081 -2493 0
49 -1081 -2494 0
49 -1081 -2495 0
49 -1081 -2496 0
49 -1082 -2493 0
49 -1082 -2494 0
49 -1082 -2495 0
49 -1082 -2496 0
49 -1082 -2497 0
49 -1083 -2494 0
49 -1083 -2495 0
49 -1083 -2496 0
49 -1083 -2497 0
49 -1083 -2498 0
49 -1084 -2495 0
49 -1084 -2496 0
49 -1084 -2497 0
49 -1084 -2498 0
49 -1084 -2499 0
49 -1085 -2496 0
49 -1085 -2497 0
49 -1085 -2498 0
49 -1085 -2499 0
49 -1086 -2497 0
49 -1086 -2498 0
49 -1086 -2499 0
49 -1079 -2752 0
49 -1079 -2753 0
49 -1079 -2754 0
49 -1079 -2755 0
49 -1079 -2756 0
49 -1079 -2757 0
49 -1079 -2758 0
49 -1080 -2753 0
49 -1080 -2754 0
49 -1080 -2755 0
49 -1080 -2756 0
49 -1080 -2757 0
49 -1080 -2758 0
49 -1081 -2754 0
49 -1081 -2755 0
49 -1081 -2756 0
49 -1081 -2757 0
49 -1081 -2758 0
49 -1082 -2755 0
49 -1082 -2756 0
49 -1082 -2757 0
49 -1082 -2758 0
49 -1083 -2756 0
49 -1083 -2757 0
49 -1083 -2758 0
49 -1084 -2757 0
49 -1084 -2758 0
49 -1085 -2758 0
49 -1087 -2501 0
49 -1087 -2502 0
49 -1087 -2503 0
49 -1087 -2504 0
49 -1087 -2505 0
49 -1088 -2502 0
49 -1088 -2503 0
49 -1088 -2504 0
49 -1088 -2505 0
49 -1088 -2506 0
49 -1089 -2503 0
49 -1089 -2504 0
49 -1089 -2505 0
49 -1089 -2506 0
49 -1089 -2507 0
49 -1090 -2504 0
49 -1090 -2505 0
49 -1090 -2506 0
49 -1090 -2507 0
49 -1090 -2508 0
49 -1091 -2505 0
49 -1091 -2506 0
49 -1091 -2507 0
49 -1091 -2508 0
49 -1091 -2509 0
49 -1092 -2506 0
49 -1092 -2507 0
49 -1092 -2508 0
49 -1092 -2509 0
49 -1092 -2510 0
49 -1093 -2507 0
49 -1093 -2508 0
49 -1093 -2509 0
49 -1093 -2510 0
49 -1094 -2508 0
49 -1094 -2509 0
49 -1094 -2510 0
49 -1087 -2752 0
49 -1088 -2753 0
49 -1089 -2754 0
49 -1090 -2755 0
49 -1091 -2756 0
49 -1092 -2757 0
49 -1093 -2758 0
49 -1095 1096 0
49 -1097 1098 0
49 -1099 1100 0
49 -1101 1102 0
49 -1103 1104 0
49 -1105 1106 0
49 -1107 1110 0
49 -1108 1111 0
49 -1109 1112 0
49 -1107 -2264 0
49 -1108 -2270 0
49 -1107 -2272 0
49 -1107 -2273 0
49 -1107 -2274 0
49 -1107 -2275 0
49 -1107 -2276 0
49 -1107 -2277 0
49 -1107 -2278 0
49 -1108 -2278 0
49 -1108 -2478 0
49 -1109 -2479 0
49 -1107 -2482 0
49 -1107 -2483 0
49 -1107 -2484 0
49 -1107 -2485 0
49 -1107 -2486 0
49 -1107 -2487 0
49 -1107 -2488 0
49 -1108 -2488 0
49 -1107 -2518 0
49 -1108 -2524 0
49 -1107 -2526 0
49 -1107 -2527 0
49 -1107 -2528 0
49 -1107 -2529 0
49 -1107 -2530 0
49 -1107 -2531 0
49 -1107 -2532 0
49 -1108 -2532 0
49 -1111 -2263 0
49 -1111 -2264 0
49 -1111 -2265 0
49 -1111 -2266 0
49 -1111 -2267 0
49 -1111 -2268 0
49 -1112 -2263 0
49 -1112 -2264 0
49 -1112 -2265 0
49 -1112 -2266 0
49 -1112 -2267 0
49 -1112 -2268 0
49 -1112 -2269 0
49 -1110 -2272 0
49 -1111 -2278 0
49 -1111 -2473 0
49 -1111 -2474 0
49 -1111 -2475 0
49 -1111 -2476 0
49 -1111 -2477 0
49 -1111 -2478 0
49 -1112 -2473 0
49 -1112 -2474 0
49 -1112 -2475 0
49 -1112 -2476 0
49 -1112 -2477 0
49 -1112 -2478 0
49 -1112 -2479 0
49 -1111 -2486 0
49 -1112 -2487 0
49 -1113 1114 0
49 -1115 1123 0
49 -1116 1124 0
49 -1117 1125 0
49 -1118 1126 0
49 -1119 1127 0
49 -1120 1128 0
49 -1121 1129 0
49 -1122 1130 0
49 -1115 -2588 0
49 -1115 -2589 0
49 -1115 -2590 0
49 -1116 -2589 0
49 -1116 -2590 0
49 -1116 -2591 0
49 -1117 -2590 0
49 -1117 -2591 0
49 -1117 -2592 0
49 -1118 -2591 0
49 -1118 -2592 0
49 -1118 -2593 0
49 -1119 -2592 0
49 -1119 -2593 0
49 -1119 -2594 0
49 -1120 -2593 0
49 -1120 -2594 0
49 -1121 -2594 0
49 -1115 -2596 0
49 -1115 -2597 0
49 -1115 -2598 0
49 -1115 -2599 0
49 -1115 -2600 0
49 -1115 -2601 0
49 -1115 -2602 0
49 -1116 -2597 0
49 -1116 -2598 0
49 -1116 -2599 0
49 -1116 -2600 0
49 -1116 -2601 0
49 -1116 -2602 0
49 -1117 -2598 0
49 -1117 -2599 0
49 -1117 -2600 0
49 -1117 -2601 0
49 -1117 -2602 0
49 -1118 -2599 0
49 -1118 -2600 0
49 -1118 -2601 0
49 -1118 -2602 0
49 -1119 -2600 0
49 -1119 -2601 0
49 -1119 -2602 0
49 -1120 -2601 0
49 -1120 -2602 0
49 -1121 -2602 0
49 -1131 1132 0
49 -1133 1134 0
49 -1135 1143 0
49 -1136 1144 0
49 -1137 1145 0
49 -1138 1146 0
49 -1139 1147 0
49 -1140 1148 0
49 -1141 1149 0
49 -1142 1150 0
49 -1135 -2828 0
49 -1136 -2829 0
49 -1137 -2830 0
49 -1138 -2831 0
49 -1139 -2832 0
49 -1140 -2833 0
49 -1141 -2834 0
49 -1135 -2836 0
49 -1135 -2837 0
49 -1135 -2838 0
49 -1135 -2839 0
49 -1135 -2840 0
49 -1135 -2841 0
49 -1135 -2842 0
49 -1136 -2837 0
49 -1136 -2838 0
49 -1136 -2839 0
49 -1136 -2840 0
49 -1136 -2841 0
49 -1136 -2842 0
49 -1137 -2838 0
49 -1137 -2839 0
49 -1137 -2840 0
49 -1137 -2841 0
49 -1137 -2842 0
49 -1138 -2839 0
49 -1138 -2840 0
49 -1138 -2841 0
49 -1138 -2842 0
49 -1139 -2840 0
49 -1139 -2841 0
49 -1139 -2842 0
49 -1140 -2841 0
49 -1140 -2842 0
49 -1141 -2842 0
49 -1143 -1829 0
49 -1143 -1830 0
49 -1143 -1831 0
49 -1143 -1832 0
49 -1143 -1833 0
49 -1144 -1830 0
49 -1144 -1831 0
49 -1144 -1832 0
49 -1144 -1833 0
49 -1144 -1834 0
49 -1145 -1831 0
49 -1145 -1832 0
49 -1145 -1833 0
49 -1145 -1834 0
49 -1145 -1835 0
49 -1146 -1832 0
49 -1146 -1833 0
49 -1146 -1834 0
49 -1146 -1835 0
49 -1146 -1836 0
49 -1147 -1833 0
49 -1147 -1834 0
49 -1147 -1835 0
49 -1147 -1836 0
49 -1147 -1837 0
49 -1148 -1834 0
49 -1148 -1835 0
49 -1148 -1836 0
49 -1148 -1837 0
49 -1148 -1838 0
49 -1149 -1835 0
49 -1149 -1836 0
49 -1149 -1837 0
49 -1149 -1838 0
49 -1150 -1836 0
49 -1150 -1837 0
49 -1150 -1838 0
49 -1151 1155 0
49 -1152 1156 0
49 -1153 1157 0
49 -1154 1158 0
49 -1151 -1218 0
49 -1151 -1219 0
49 -1151 -1220 0
49 -1151 -1221 0
49 -1151 -1222 0
49 -1151 -1223 0
49 -1152 -1341 0
49 -1152 -1342 0
49 -1152 -1343 0
49 -1152 -1344 0
49 -1152 -1345 0
49 -1153 -1341 0
49 -1153 -1342 0
49 -1153 -1343 0
49 -1153 -1344 0
49 -1153 -1345 0
49 -1153 -1346 0
49 -1154 -1341 0
49 -1154 -1342 0
49 -1154 -1343 0
49 -1154 -1344 0
49 -1154 -1345 0
49 -1154 -1346 0
49 -1154 -1347 0
49 -1151 -1771 0
49 -1152 -1772 0
49 -1156 -1341 0
49 -1156 -1342 0
49 -1156 -1343 0
49 -1156 -1344 0
49 -1157 -1341 0
49 -1157 -1342 0
49 -1157 -1343 0
49 -1157 -1344 0
49 -1157 -1345 0
49 -1158 -1341 0
49 -1158 -1342 0
49 -1158 -1343 0
49 -1158 -1344 0
49 -1158 -1345 0
49 -1158 -1346 0
49 -1159 1184 0
49 -1160 1185 0
49 -1161 1186 0
49 -1162 1173 0
49 -1163 1174 0
49 -1164 1175 0
49 -1165 1176 0
49 -1166 1177 0
49 -1167 1178 0
49 -1168 1179 0
49 -1169 1180 0
49 -1170 1181 0
49 -1171 1182 0
49 -1172 1183 0
49 -1159 -1395 0
49 -1160 -1395 0
49 -1172 -2811 0
49 -1187 1190 0
49 -1188 1191 0
49 -1189 1192 0
49 -1190 -2567 0
49 -1191 -2567 0
49 -1191 -2568 0
49 -1191 -2569 0
49 -1192 -2568 0
49 -1192 -2569 0
49 -1192 -2570 0
49 -1192 -2571 0
49 -1192 -2572 0
49 -1192 -2573 0
49 -1192 -2574 0
49 -1193 1194 0
49 -1195 1201 0
49 -1196 1202 0
49 -1197 1203 0
49 -1198 1204 0
49 -1199 1205 0
49 -1200 1206 0
49 -1201 -2783 0
49 -1202 -2783 0
49 -1203 -2783 0
49 -1204 -2783 0
49 -1205 -2783 0
49 -1201 -2784 0
49 -1201 -2785 0
49 -1202 -2784 0
49 -1202 -2785 0
49 -1203 -2785 0
49 -1207 1208 0
49 -1209 1210 0
49 -1211 1224 0
49 -1212 1218 0
49 -1213 1219 0
49 -1214 1220 0
49 -1215 1221 0
49 -1216 1222 0
49 -1217 1223 0
49 -1212 -2118 0
49 -1213 -2118 0
49 -1214 -2118 0
49 -1214 -2119 0
49 -1215 -2118 0
49 -1215 -2119 0
49 -1215 -2120 0
49 -1216 -2118 0
49 -1216 -2119 0
49 -1216 -2120 0
49 -1217 -2118 0
49 -1217 -2119 0
49 -1217 -2120 0
49 -1225 1226 0
49 -1227 1229 0
49 -1228 1230 0
49 -1228 -1268 0
49 -1230 -1262 0
49 -1230 -1263 0
49 -1230 -1264 0
49 -1230 -1265 0
49 -1230 -1266 0
49 -1230 -1473 0
49 -1230 -1474 0
49 -1230 -1475 0
49 -1230 -1476 0
49 -1230 -1477 0
49 -1231 1232 0
49 -1233 1234 0
49 -1235 1242 0
49 -1236 1243 0
49 -1237 1244 0
49 -1238 1245 0
49 -1239 1246 0
49 -1240 1247 0
49 -1241 1248 0
49 -1243 -1443 0
49 -1244 -1443 0
49 -1245 -1443 0
49 -1245 -1444 0
49 -1246 -1443 0
49 -1246 -1444 0
49 -1246 -1445 0
49 -1247 -1443 0
49 -1247 -1444 0
49 -1247 -1445 0
49 -1247 -1446 0
49 -1248 -1443 0
49 -1248 -1444 0
49 -1248 -1445 0
49 -1248 -1446 0
49 -1248 -1447 0
49 -1249 1253 0
49 -1250 1254 0
49 -1251 1255 0
49 -1252 1256 0
49 -1257 1258 0
49 -1259 1260 0
49 -1261 1268 0
49 -1262 1269 0
49 -1263 1270 0
49 -1264 1271 0
49 -1265 1272 0
49 -1266 1273 0
49 -1267 1274 0
49 -1275 1283 0
49 -1276 1284 0
49 -1277 1285 0
49 -1278 1286 0
49 -1279 1287 0
49 -1280 1288 0
49 -1281 1289 0
49 -1282 1290 0
49 -1275 -2028 0
49 -1275 -2029 0
49 -1275 -2030 0
49 -1276 -2029 0
49 -1276 -2030 0
49 -1276 -2031 0
49 -1277 -2030 0
49 -1277 -2031 0
49 -1277 -2032 0
49 -1278 -2031 0
49 -1278 -2032 0
49 -1278 -2033 0
49 -1279 -2032 0
49 -1279 -2033 0
49 -1279 -2034 0
49 -1280 -2033 0
49 -1280 -2034 0
49 -1281 -2034 0
49 -1275 -2036 0
49 -1275 -2037 0
49 -1275 -2038 0
49 -1275 -2039 0
49 -1275 -2040 0
49 -1275 -2041 0
49 -1275 -2042 0
49 -1276 -2037 0
49 -1276 -2038 0
49 -1276 -2039 0
49 -1276 -2040 0
49 -1276 -2041 0
49 -1276 -2042 0
49 -1277 -2038 0
49 -1277 -2039 0
49 -1277 -2040 0
49 -1277 -2041 0
49 -1277 -2042 0
49 -1278 -2039 0
49 -1278 -2040 0
49 -1278 -2041 0
49 -1278 -2042 0
49 -1279 -2040 0
49 -1279 -2041 0
49 -1279 -2042 0
49 -1280 -2041 0
49 -1280 -2042 0
49 -1281 -2042 0
49 -1276 -2415 0
49 -1277 -2416 0
49 -1278 -2417 0
49 -1279 -2418 0
49 -1280 -2419 0
49 -1281 -2420 0
49 -1282 -2421 0
49 -1275 -2424 0
49 -1275 -2425 0
49 -1275 -2426 0
49 -1275 -2427 0
49 -1275 -2428 0
49 -1275 -2429 0
49 -1275 -2430 0
49 -1276 -2425 0
49 -1276 -2426 0
49 -1276 -2427 0
49 -1276 -2428 0
49 -1276 -2429 0
49 -1276 -2430 0
49 -1277 -2426 0
49 -1277 -2427 0
49 -1277 -2428 0
49 -1277 -2429 0
49 -1277 -2430 0
49 -1278 -2427 0
49 -1278 -2428 0
49 -1278 -2429 0
49 -1278 -2430 0
49 -1279 -2428 0
49 -1279 -2429 0
49 -1279 -2430 0
49 -1280 -2429 0
49 -1280 -2430 0
49 -1281 -2430 0
49 -1284 -2027 0
49 -1285 -2027 0
49 -1285 -2028 0
49 -1286 -2027 0
49 -1286 -2028 0
49 -1286 -2029 0
49 -1287 -2027 0
49 -1287 -2028 0
49 -1287 -2029 0
49 -1287 -2030 0
49 -1288 -2027 0
49 -1288 -2028 0
49 -1288 -2029 0
49 -1288 -2030 0
49 -1288 -2031 0
49 -1289 -2027 0
49 -1289 -2028 0
49 -1289 -2029 0
49 -1289 -2030 0
49 -1289 -2031 0
49 -1289 -2032 0
49 -1290 -2027 0
49 -1290 -2028 0
49 -1290 -2029 0
49 -1290 -2030 0
49 -1290 -2031 0
49 -1290 -2032 0
49 -1290 -2033 0
49 -1283 -2036 0
49 -1283 -2037 0
49 -1283 -2038 0
49 -1284 -2037 0
49 -1284 -2038 0
49 -1284 -2039 0
49 -1285 -2038 0
49 -1285 -2039 0
49 -1285 -2040 0
49 -1286 -2039 0
49 -1286 -2040 0
49 -1286 -2041 0
49 -1287 -2040 0
49 -1287 -2041 0
49 -1287 -2042 0
49 -1288 -2041 0
49 -1288 -2042 0
49 -1289 -2042 0
49 -1284 -2415 0
49 -1285 -2415 0
49 -1285 -2416 0
49 -1286 -2415 0
49 -1286 -2416 0
49 -1286 -2417 0
49 -1287 -2415 0
49 -1287 -2416 0
49 -1287 -2417 0
49 -1287 -2418 0
49 -1288 -2415 0
49 -1288 -2416 0
49 -1288 -2417 0
49 -1288 -2418 0
49 -1288 -2419 0
49 -1289 -2415 0
49 -1289 -2416 0
49 -1289 -2417 0
49 -1289 -2418 0
49 -1289 -2419 0
49 -1289 -2420 0
49 -1290 -2415 0
49 -1290 -2416 0
49 -1290 -2417 0
49 -1290 -2418 0
49 -1290 -2419 0
49 -1290 -2420 0
49 -1290 -2421 0
49 -1284 -2423 0
49 -1285 -2424 0
49 -1286 -2425 0
49 -1287 -2426 0
49 -1288 -2427 0
49 -1289 -2428 0
49 -1290 -2429 0
49 -1291 1297 0
49 -1292 1298 0
49 -1293 1299 0
49 -1294 1300 0
49 -1295 1301 0
49 -1296 1302 0
49 -1292 -1710 0
49 -1292 -1711 0
49 -1292 -1712 0
49 -1292 -1713 0
49 -1292 -1714 0
49 -1292 -1715 0
49 -1292 -1716 0
49 -1293 -1711 0
49 -1293 -1712 0
49 -1293 -1713 0
49 -1293 -1714 0
49 -1293 -1715 0
49 -1293 -1716 0
49 -1294 -1712 0
49 -1294 -1713 0
49 -1294 -1714 0
49 -1294 -1715 0
49 -1294 -1716 0
49 -1295 -1713 0
49 -1295 -1714 0
49 -1295 -1715 0
49 -1295 -1716 0
49 -1296 -1714 0
49 -1296 -1715 0
49 -1296 -1716 0
49 -1303 1304 0
49 -1305 1309 0
49 -1306 1310 0
49 -1307 1311 0
49 -1308 1312 0
49 -1306 -1323 0
49 -1307 -1324 0
49 -1308 -1325 0
49 -1305 -1328 0
49 -1305 -1329 0
49 -1305 -1330 0
49 -1305 -1331 0
49 -1305 -1332 0
49 -1306 -1331 0
49 -1306 -1332 0
49 -1307 -1332 0
49 -1310 -1321 0
49 -1310 -1322 0
49 -1310 -1323 0
49 -1311 -1321 0
49 -1311 -1322 0
49 -1311 -1323 0
49 -1311 -1324 0
49 -1312 -1321 0
49 -1312 -1322 0
49 -1312 -1323 0
49 -1312 -1324 0
49 -1312 -1325 0
49 -1310 -1329 0
49 -1311 -1330 0
49 -1312 -1331 0
49 -1313 1314 0
49 -1315 1316 0
49 -1317 1318 0
49 -1319 1320 0
49 -1321 1327 0
49 -1322 1328 0
49 -1323 1329 0
49 -1324 1330 0
49 -1325 1331 0
49 -1326 1332 0
49 -1333 1334 0
49 -1335 1336 0
49 -1337 1338 0
49 -1339 1340 0
49 -1341 1349 0
49 -1342 1350 0
49 -1343 1351 0
49 -1344 1352 0
49 -1345 1353 0
49 -1346 1354 0
49 -1347 1355 0
49 -1348 1356 0
49 -1341 -1616 0
49 -1341 -1617 0
49 -1341 -1618 0
49 -1341 -1619 0
49 -1341 -1620 0
49 -1342 -1617 0
49 -1342 -1618 0
49 -1342 -1619 0
49 -1342 -1620 0
49 -1342 -1621 0
49 -1343 -1618 0
49 -1343 -1619 0
49 -1343 -1620 0
49 -1343 -1621 0
49 -1343 -1622 0
49 -1344 -1619 0
49 -1344 -1620 0
49 -1344 -1621 0
49 -1344 -1622 0
49 -1345 -1620 0
49 -1345 -1621 0
49 -1345 -1622 0
49 -1346 -1621 0
49 -1346 -1622 0
49 -1347 -1622 0
49 -1341 -1758 0
49 -1341 -1759 0
49 -1341 -1760 0
49 -1341 -1761 0
49 -1341 -1762 0
49 -1341 -1763 0
49 -1341 -1764 0
49 -1342 -1759 0
49 -1342 -1760 0
49 -1342 -1761 0
49 -1342 -1762 0
49 -1342 -1763 0
49 -1342 -1764 0
49 -1343 -1760 0
49 -1343 -1761 0
49 -1343 -1762 0
49 -1343 -1763 0
49 -1343 -1764 0
49 -1344 -1761 0
49 -1344 -1762 0
49 -1344 -1763 0
49 -1344 -1764 0
49 -1345 -1762 0
49 -1345 -1763 0
49 -1345 -1764 0
49 -1346 -1763 0
49 -1346 -1764 0
49 -1347 -1764 0
49 -1357 1358 0
49 -1359 1360 0
49 -1361 1362 0
49 -1363 1364 0
49 -1365 1368 0
49 -1366 1369 0
49 -1367 1370 0
49 -1366 -2142 0
49 -1366 -2143 0
49 -1366 -2144 0
49 -1366 -2145 0
49 -1366 -2146 0
49 -1366 -2147 0
49 -1366 -2148 0
49 -1367 -2143 0
49 -1367 -2144 0
49 -1367 -2145 0
49 -1367 -2146 0
49 -1367 -2147 0
49 -1367 -2148 0
49 -1369 -2637 0
49 -1369 -2638 0
49 -1369 -2639 0
49 -1369 -2640 0
49 -1369 -2641 0
49 -1369 -2642 0
49 -1370 -2638 0
49 -1370 -2639 0
49 -1370 -2640 0
49 -1370 -2641 0
49 -1370 -2642 0
49 -1369 -2703 0
49 -1369 -2704 0
49 -1370 -2704 0
49 -1371 1382 0
49 -1372 1392 0
49 -1373 1383 0
49 -1374 1384 0
49 -1375 1385 0
49 -1376 1386 0
49 -1377 1387 0
49 -1378 1388 0
49 -1379 1389 0
49 -1380 1390 0
49 -1381 1391 0
49 -1371 -1459 0
49 -1371 -1460 0
49 -1371 -1461 0
49 -1393 1394 0
49 -1395 1409 0
49 -1396 1421 0
49 -1397 1422 0
49 -1398 1410 0
49 -1399 1411 0
49 -1400 1412 0
49 -1401 1413 0
49 -1402 1414 0
49 -1403 1415 0
49 -1404 1416 0
49 -1405 1417 0
49 -1406 1418 0
49 -1407 1419 0
49 -1408 1420 0
49 -1423 1424 0
49 -1425 1426 0
49 -1427 1428 0
49 -1429 1434 0
49 -1430 1435 0
49 -1431 1436 0
49 -1432 1437 0
49 -1433 1438 0
49 -1439 1440 0
49 -1441 1442 0
49 -1443 1449 0
49 -1444 1450 0
49 -1445 1451 0
49 -1446 1452 0
49 -1447 1453 0
49 -1448 1454 0
49 -1455 1462 0
49 -1456 1463 0
49 -1457 1464 0
49 -1458 1465 0
49 -1459 1466 0
49 -1460 1467 0
49 -1461 1468 0
49 -1462 -2434 0
49 -1462 -2435 0
49 -1462 -2436 0
49 -1463 -2435 0
49 -1463 -2436 0
49 -1464 -2436 0
49 -1462 -2438 0
49 -1462 -2439 0
49 -1462 -2440 0
49 -1463 -2439 0
49 -1463 -2440 0
49 -1464 -2440 0
49 -1469 1470 0
49 -1471 1472 0
49 -1473 1481 0
49 -1474 1482 0
49 -1475 1483 0
49 -1476 1484 0
49 -1477 1485 0
49 -1478 1486 0
49 -1479 1487 0
49 -1480 1488 0
49 -1473 -1738 0
49 -1473 -1739 0
49 -1473 -1740 0
49 -1473 -1741 0
49 -1473 -1742 0
49 -1473 -1743 0
49 -1473 -1744 0
49 -1474 -1739 0
49 -1474 -1740 0
49 -1474 -1741 0
49 -1474 -1742 0
49 -1474 -1743 0
49 -1474 -1744 0
49 -1475 -1740 0
49 -1475 -1741 0
49 -1475 -1742 0
49 -1475 -1743 0
49 -1475 -1744 0
49 -1476 -1741 0
49 -1476 -1742 0
49 -1476 -1743 0
49 -1476 -1744 0
49 -1477 -1742 0
49 -1477 -1743 0
49 -1477 -1744 0
49 -1478 -1743 0
49 -1478 -1744 0
49 -1479 -1744 0
49 -1481 -1738 0
49 -1481 -1739 0
49 -1481 -1740 0
49 -1482 -1739 0
49 -1482 -1740 0
49 -1482 -1741 0
49 -1483 -1740 0
49 -1483 -1741 0
49 -1483 -1742 0
49 -1484 -1741 0
49 -1484 -1742 0
49 -1484 -1743 0
49 -1485 -1742 0
49 -1485 -1743 0
49 -1485 -1744 0
49 -1486 -1743 0
49 -1486 -1744 0
49 -1487 -1744 0
49 -1489 1497 0
49 -1490 1498 0
49 -1491 1499 0
49 -1492 1500 0
49 -1493 1501 0
49 -1494 1502 0
49 -1495 1503 0
49 -1496 1504 0
49 -1505 1506 0
49 -1507 1517 0
49 -1508 1518 0
49 -1509 1519 0
49 -1510 1520 0
49 -1511 1521 0
49 -1512 1522 0
49 -1513 1523 0
49 -1514 1524 0
49 -1515 1525 0
49 -1516 1526 0
49 -1527 1548 0
49 -1528 1549 0
49 -1529 1550 0
49 -1530 1551 0
49 -1531 1552 0
49 -1532 1553 0
49 -1533 1547 0
49 -1534 1558 0
49 -1535 1559 0
49 -1536 1560 0
49 -1537 1561 0
49 -1538 1562 0
49 -1539 1563 0
49 -1540 1564 0
49 -1541 1565 0
49 -1542 1566 0
49 -1543 1554 0
49 -1544 1555 0
49 -1545 1556 0
49 -1546 1557 0
49 -1533 -1806 0
49 -1534 -1806 0
49 -1535 -1806 0
49 -1536 -1806 0
49 -1537 -1806 0
49 -1538 -1806 0
49 -1539 -1806 0
49 -1540 -1806 0
49 -1567 1575 0
49 -1568 1576 0
49 -1569 1577 0
49 -1570 1578 0
49 -1571 1579 0
49 -1572 1580 0
49 -1573 1581 0
49 -1574 1582 0
49 -1576 -1700 0
49 -1577 -1700 0
49 -1578 -1700 0
49 -1579 -1700 0
49 -1580 -1700 0
49 -1581 -1700 0
49 -1582 -1700 0
49 -1579 -1973 0
49 -1580 -1974 0
49 -1583 1591 0
49 -1584 1592 0
49 -1585 1593 0
49 -1586 1594 0
49 -1587 1595 0
49 -1588 1596 0
49 -1589 1597 0
49 -1590 1598 0
49 -1592 -2859 0
49 -1593 -2859 0
49 -1593 -2860 0
49 -1594 -2859 0
49 -1594 -2860 0
49 -1594 -2861 0
49 -1595 -2859 0
49 -1595 -2860 0
49 -1595 -2861 0
49 -1595 -2862 0
49 -1596 -2859 0
49 -1596 -2860 0
49 -1596 -2861 0
49 -1596 -2862 0
49 -1596 -2863 0
49 -1597 -2859 0
49 -1597 -2860 0
49 -1597 -2861 0
49 -1597 -2862 0
49 -1597 -2863 0
49 -1597 -2864 0
49 -1598 -2859 0
49 -1598 -2860 0
49 -1598 -2861 0
49 -1598 -2862 0
49 -1598 -2863 0
49 -1598 -2864 0
49 -1598 -2865 0
49 -1592 -2867 0
49 -1593 -2868 0
49 -1594 -2869 0
49 -1595 -2870 0
49 -1596 -2871 0
49 -1597 -2872 0
49 -1598 -2873 0
49 -1599 1600 0
49 -1601 1607 0
49 -1602 1608 0
49 -1603 1609 0
49 -1604 1610 0
49 -1605 1611 0
49 -1606 1612 0
49 -1608 -2087 0
49 -1608 -2088 0
49 -1608 -2089 0
49 -1609 -2087 0
49 -1609 -2088 0
49 -1609 -2089 0
49 -1609 -2090 0
49 -1610 -2087 0
49 -1610 -2088 0
49 -1610 -2089 0
49 -1610 -2090 0
49 -1610 -2091 0
49 -1611 -2087 0
49 -1611 -2088 0
49 -1611 -2089 0
49 -1611 -2090 0
49 -1611 -2091 0
49 -1611 -2092 0
49 -1612 -2087 0
49 -1612 -2088 0
49 -1612 -2089 0
49 -1612 -2090 0
49 -1612 -2091 0
49 -1612 -2092 0
49 -1612 -2093 0
49 -1607 -2096 0
49 -1607 -2097 0
49 -1607 -2098 0
49 -1607 -2099 0
49 -1607 -2100 0
49 -1608 -2099 0
49 -1608 -2100 0
49 -1608 -2101 0
49 -1608 -2102 0
49 -1609 -2100 0
49 -1609 -2101 0
49 -1609 -2102 0
49 -1610 -2101 0
49 -1610 -2102 0
49 -1611 -2102 0
49 -1613 1614 0
49 -1615 1623 0
49 -1616 1624 0
49 -1617 1625 0
49 -1618 1626 0
49 -1619 1627 0
49 -1620 1628 0
49 -1621 1629 0
49 -1622 1630 0
49 -1624 -1749 0
49 -1625 -1749 0
49 -1625 -1750 0
49 -1626 -1749 0
49 -1626 -1750 0
49 -1626 -1751 0
49 -1627 -1749 0
49 -1627 -1750 0
49 -1627 -1751 0
49 -1627 -1752 0
49 -1628 -1749 0
49 -1628 -1750 0
49 -1628 -1751 0
49 -1628 -1752 0
49 -1628 -1753 0
49 -1629 -1749 0
49 -1629 -1750 0
49 -1629 -1751 0
49 -1629 -1752 0
49 -1629 -1753 0
49 -1629 -1754 0
49 -1630 -1749 0
49 -1630 -1750 0
49 -1630 -1751 0
49 -1630 -1752 0
49 -1630 -1753 0
49 -1630 -1754 0
49 -1630 -1755 0
49 -1624 -1757 0
49 -1625 -1758 0
49 -1626 -1759 0
49 -1627 -1760 0
49 -1628 -1761 0
49 -1629 -1762 0
49 -1630 -1763 0
49 -1631 1632 0
49 -1633 1634 0
49 -1635 1636 0
49 -1637 1638 0
49 -1639 1640 0
49 -1641 1647 0
49 -1642 1648 0
49 -1643 1649 0
49 -1644 1650 0
49 -1645 1651 0
49 -1646 1652 0
49 -1647 -1997 0
49 -1647 -1998 0
49 -1647 -1999 0
49 -1648 -1997 0
49 -1648 -1998 0
49 -1648 -1999 0
49 -1650 -2000 0
49 -1650 -2001 0
49 -1650 -2002 0
49 -1650 -2003 0
49 -1650 -2004 0
49 -1651 -2000 0
49 -1651 -2001 0
49 -1651 -2002 0
49 -1651 -2003 0
49 -1651 -2004 0
49 -1651 -2005 0
49 -1652 -2000 0
49 -1652 -2001 0
49 -1652 -2002 0
49 -1652 -2003 0
49 -1652 -2004 0
49 -1652 -2005 0
49 -1652 -2006 0
49 -1647 -2011 0
49 -1647 -2012 0
49 -1647 -2013 0
49 -1648 -2011 0
49 -1648 -2012 0
49 -1648 -2013 0
49 -1650 -2014 0
49 -1650 -2015 0
49 -1650 -2016 0
49 -1650 -2017 0
49 -1650 -2018 0
49 -1651 -2014 0
49 -1651 -2015 0
49 -1651 -2016 0
49 -1651 -2017 0
49 -1651 -2018 0
49 -1651 -2019 0
49 -1652 -2014 0
49 -1652 -2015 0
49 -1652 -2016 0
49 -1652 -2017 0
49 -1652 -2018 0
49 -1652 -2019 0
49 -1652 -2020 0
49 -1650 -2727 0
49 -1650 -2728 0
49 -1650 -2729 0
49 -1650 -2730 0
49 -1651 -2727 0
49 -1651 -2728 0
49 -1651 -2729 0
49 -1651 -2730 0
49 -1651 -2731 0
49 -1652 -2727 0
49 -1652 -2728 0
49 -1652 -2729 0
49 -1652 -2730 0
49 -1652 -2731 0
49 -1652 -2732 0
49 -1650 -2735 0
49 -1650 -2736 0
49 -1650 -2737 0
49 -1650 -2738 0
49 -1650 -2739 0
49 -1651 -2735 0
49 -1651 -2736 0
49 -1651 -2737 0
49 -1651 -2738 0
49 -1651 -2739 0
49 -1651 -2740 0
49 -1652 -2735 0
49 -1652 -2736 0
49 -1652 -2737 0
49 -1652 -2738 0
49 -1652 -2739 0
49 -1652 -2740 0
49 -1652 -2741 0
49 -1653 1654 0
49 -1655 1663 0
49 -1656 1664 0
49 -1657 1665 0
49 -1658 1666 0
49 -1659 1667 0
49 -1660 1668 0
49 -1661 1669 0
49 -1662 1670 0
49 -1671 1672 0
49 -1673 1675 0
49 -1674 1676 0
49 -1674 -2184 0
49 -1673 -2187 0
49 -1673 -2188 0
49 -1674 -2399 0
49 -1674 -2400 0
49 -1674 -2401 0
49 -1673 -2404 0
49 -1673 -2405 0
49 -1673 -2406 0
49 -1673 -2407 0
49 -1673 -2408 0
49 -1676 -2183 0
49 -1676 -2184 0
49 -1676 -2187 0
49 -1676 -2397 0
49 -1676 -2398 0
49 -1676 -2399 0
49 -1676 -2400 0
49 -1676 -2401 0
49 -1676 -2405 0
49 -1676 -2406 0
49 -1676 -2407 0
49 -1677 1685 0
49 -1678 1686 0
49 -1679 1687 0
49 -1680 1688 0
49 -1681 1689 0
49 -1682 1690 0
49 -1683 1691 0
49 -1684 1692 0
49 -1693 1694 0
49 -1695 1696 0
49 -1697 1699 0
49 -1698 1700 0
49 -1701 1709 0
49 -1702 1710 0
49 -1703 1711 0
49 -1704 1712 0
49 -1705 1713 0
49 -1706 1714 0
49 -1707 1715 0
49 -1708 1716 0
49 -1717 1718 0
49 -1719 1720 0
49 -1721 1722 0
49 -1723 1724 0
49 -1725 1726 0
49 -1727 1728 0
49 -1729 1737 0
49 -1730 1738 0
49 -1731 1739 0
49 -1732 1740 0
49 -1733 1741 0
49 -1734 1742 0
49 -1735 1743 0
49 -1736 1744 0
49 -1745 1746 0
49 -1747 1748 0
49 -1749 1757 0
49 -1750 1758 0
49 -1751 1759 0
49 -1752 1760 0
49 -1753 1761 0
49 -1754 1762 0
49 -1755 1763 0
49 -1756 1764 0
49 -1758 -2489 0
49 -1759 -2489 0
49 -1759 -2490 0
49 -1760 -2489 0
49 -1760 -2490 0
49 -1760 -2491 0
49 -1761 -2489 0
49 -1761 -2490 0
49 -1761 -2491 0
49 -1761 -2492 0
49 -1762 -2489 0
49 -1762 -2490 0
49 -1762 -2491 0
49 -1762 -2492 0
49 -1762 -2493 0
49 -1763 -2489 0
49 -1763 -2490 0
49 -1763 -2491 0
49 -1763 -2492 0
49 -1763 -2493 0
49 -1763 -2494 0
49 -1764 -2489 0
49 -1764 -2490 0
49 -1764 -2491 0
49 -1764 -2492 0
49 -1764 -2493 0
49 -1764 -2494 0
49 -1764 -2495 0
49 -1757 -2501 0
49 -1758 -2502 0
49 -1759 -2503 0
49 -1760 -2504 0
49 -1761 -2505 0
49 -1762 -2506 0
49 -1763 -2507 0
49 -1764 -2508 0
49 -1765 1766 0
49 -1767 1768 0
49 -1769 1771 0
49 -1770 1772 0
49 -1773 1774 0
49 -1775 1776 0
49 -1777 1788 0
49 -1778 1789 0
49 -1779 1790 0
49 -1780 1791 0
49 -1781 1792 0
49 -1782 1786 0
49 -1783 1787 0
49 -1784 1794 0
49 -1785 1793 0
49 -1777 -2304 0
49 -1777 -2305 0
49 -1778 -2304 0
49 -1778 -2305 0
49 -1778 -2306 0
49 -1779 -2304 0
49 -1779 -2305 0
49 -1779 -2306 0
49 -1779 -2307 0
49 -1779 -2308 0
49 -1779 -2309 0
49 -1779 -2310 0
49 -1780 -2304 0
49 -1780 -2305 0
49 -1780 -2306 0
49 -1780 -2307 0
49 -1780 -2308 0
49 -1780 -2309 0
49 -1780 -2310 0
49 -1780 -2311 0
49 -1781 -2304 0
49 -1781 -2305 0
49 -1781 -2306 0
49 -1781 -2307 0
49 -1781 -2308 0
49 -1781 -2309 0
49 -1781 -2310 0
49 -1781 -2311 0
49 -1782 -2304 0
49 -1782 -2305 0
49 -1782 -2306 0
49 -1782 -2307 0
49 -1782 -2308 0
49 -1782 -2309 0
49 -1782 -2310 0
49 -1782 -2311 0
49 -1783 -2304 0
49 -1783 -2305 0
49 -1783 -2306 0
49 -1783 -2307 0
49 -1783 -2308 0
49 -1783 -2309 0
49 -1783 -2310 0
49 -1783 -2311 0
49 -1784 -2305 0
49 -1784 -2306 0
49 -1784 -2307 0
49 -1784 -2308 0
49 -1784 -2309 0
49 -1784 -2310 0
49 -1784 -2311 0
49 -1784 -2312 0
49 -1785 -2312 0
49 -1786 -1997 0
49 -1786 -1998 0
49 -1786 -1999 0
49 -1787 -1997 0
49 -1787 -1998 0
49 -1787 -1999 0
49 -1788 -1997 0
49 -1788 -1998 0
49 -1788 -1999 0
49 -1789 -1997 0
49 -1789 -1998 0
49 -1789 -1999 0
49 -1790 -1999 0
49 -1791 -2000 0
49 -1791 -2001 0
49 -1792 -2000 0
49 -1792 -2001 0
49 -1792 -2002 0
49 -1793 -2000 0
49 -1793 -2001 0
49 -1793 -2002 0
49 -1793 -2003 0
49 -1793 -2004 0
49 -1793 -2005 0
49 -1794 -2000 0
49 -1794 -2001 0
49 -1794 -2002 0
49 -1794 -2003 0
49 -1794 -2004 0
49 -1794 -2005 0
49 -1794 -2006 0
49 -1794 -2007 0
49 -1794 -2008 0
49 -1794 -2009 0
49 -1794 -2010 0
49 -1791 -2385 0
49 -1791 -2386 0
49 -1792 -2385 0
49 -1792 -2386 0
49 -1792 -2387 0
49 -1793 -2385 0
49 -1793 -2386 0
49 -1793 -2387 0
49 -1793 -2388 0
49 -1793 -2389 0
49 -1793 -2390 0
49 -1793 -2391 0
49 -1795 1800 0
49 -1796 1801 0
49 -1797 1802 0
49 -1798 1803 0
49 -1799 1804 0
49 -1805 1808 0
49 -1806 1807 0
49 -1809 1810 0
49 -1811 1812 0
49 -1813 1814 0
49 -1815 1816 0
49 -1817 1828 0
49 -1818 1829 0
49 -1819 1830 0
49 -1820 1831 0
49 -1821 1832 0
49 -1822 1833 0
49 -1823 1834 0
49 -1824 1835 0
49 -1825 1836 0
49 -1826 1837 0
49 -1827 1838 0
49 -1828 -2119 0
49 -1828 -2120 0
49 -1829 -2119 0
49 -1829 -2120 0
49 -1829 -2121 0
49 -1830 -2119 0
49 -1830 -2120 0
49 -1830 -2121 0
49 -1830 -2122 0
49 -1831 -2119 0
49 -1831 -2120 0
49 -1831 -2121 0
49 -1831 -2122 0
49 -1831 -2123 0
49 -1832 -2119 0
49 -1832 -2120 0
49 -1832 -2121 0
49 -1832 -2122 0
49 -1832 -2123 0
49 -1832 -2124 0
49 -1833 -2119 0
49 -1833 -2120 0
49 -1833 -2121 0
49 -1833 -2122 0
49 -1833 -2123 0
49 -1833 -2124 0
49 -1834 -2119 0
49 -1834 -2120 0
49 -1834 -2121 0
49 -1834 -2122 0
49 -1834 -2123 0
49 -1834 -2124 0
49 -1835 -2119 0
49 -1835 -2120 0
49 -1835 -2121 0
49 -1835 -2122 0
49 -1835 -2123 0
49 -1835 -2124 0
49 -1836 -2119 0
49 -1836 -2120 0
49 -1836 -2121 0
49 -1836 -2122 0
49 -1836 -2123 0
49 -1836 -2124 0
49 -1837 -2120 0
49 -1837 -2121 0
49 -1837 -2122 0
49 -1837 -2123 0
49 -1837 -2124 0
49 -1838 -2121 0
49 -1838 -2122 0
49 -1838 -2123 0
49 -1838 -2124 0
49 -1839 1840 0
49 -1841 1842 0
49 -1843 1844 0
49 -1845 1846 0
49 -1847 1848 0
49 -1849 1857 0
49 -1850 1858 0
49 -1851 1859 0
49 -1852 1860 0
49 -1853 1861 0
49 -1854 1862 0
49 -1855 1863 0
49 -1856 1864 0
49 -1858 -2237 0
49 -1859 -2237 0
49 -1859 -2238 0
49 -1860 -2237 0
49 -1860 -2238 0
49 -1860 -2239 0
49 -1861 -2237 0
49 -1861 -2238 0
49 -1861 -2239 0
49 -1861 -2240 0
49 -1862 -2237 0
49 -1862 -2238 0
49 -1862 -2239 0
49 -1862 -2240 0
49 -1862 -2241 0
49 -1863 -2237 0
49 -1863 -2238 0
49 -1863 -2239 0
49 -1863 -2240 0
49 -1863 -2241 0
49 -1863 -2242 0
49 -1864 -2237 0
49 -1864 -2238 0
49 -1864 -2239 0
49 -1864 -2240 0
49 -1864 -2241 0
49 -1864 -2242 0
49 -1864 -2243 0
49 -1857 -2246 0
49 -1857 -2247 0
49 -1857 -2248 0
49 -1857 -2249 0
49 -1857 -2250 0
49 -1858 -2247 0
49 -1858 -2248 0
49 -1858 -2249 0
49 -1858 -2250 0
49 -1858 -2251 0
49 -1859 -2248 0
49 -1859 -2249 0
49 -1859 -2250 0
49 -1859 -2251 0
49 -1859 -2252 0
49 -1860 -2249 0
49 -1860 -2250 0
49 -1860 -2251 0
49 -1860 -2252 0
49 -1861 -2250 0
49 -1861 -2251 0
49 -1861 -2252 0
49 -1862 -2251 0
49 -1862 -2252 0
49 -1863 -2252 0
49 -1858 -2859 0
49 -1859 -2859 0
49 -1859 -2860 0
49 -1860 -2859 0
49 -1860 -2860 0
49 -1860 -2861 0
49 -1861 -2859 0
49 -1861 -2860 0
49 -1861 -2861 0
49 -1861 -2862 0
49 -1862 -2859 0
49 -1862 -2860 0
49 -1862 -2861 0
49 -1862 -2862 0
49 -1862 -2863 0
49 -1863 -2859 0
49 -1863 -2860 0
49 -1863 -2861 0
49 -1863 -2862 0
49 -1863 -2863 0
49 -1863 -2864 0
49 -1864 -2859 0
49 -1864 -2860 0
49 -1864 -2861 0
49 -1864 -2862 0
49 -1864 -2863 0
49 -1864 -2864 0
49 -1864 -2865 0
49 -1857 -2868 0
49 -1857 -2869 0
49 -1857 -2870 0
49 -1858 -2869 0
49 -1858 -2870 0
49 -1858 -2871 0
49 -1859 -2870 0
49 -1859 -2871 0
49 -1859 -2872 0
49 -1860 -2871 0
49 -1860 -2872 0
49 -1860 -2873 0
49 -1861 -2872 0
49 -1861 -2873 0
49 -1861 -2874 0
49 -1862 -2873 0
49 -1862 -2874 0
49 -1863 -2874 0
49 -1865 1866 0
49 -1867 1870 0
49 -1868 1871 0
49 -1869 1872 0
49 -1868 -2797 0
49 -1868 -2798 0
49 -1868 -2799 0
49 -1868 -2800 0
49 -1869 -2798 0
49 -1869 -2799 0
49 -1869 -2800 0
49 -1867 -2802 0
49 -1867 -2803 0
49 -1867 -2804 0
49 -1867 -2805 0
49 -1867 -2806 0
49 -1867 -2807 0
49 -1867 -2808 0
49 -1871 -2805 0
49 -1871 -2806 0
49 -1871 -2807 0
49 -1871 -2808 0
49 -1872 -2806 0
49 -1872 -2807 0
49 -1872 -2808 0
49 -1873 1874 0
49 -1875 1876 0
49 -1877 1878 0
49 -1879 1880 0
49 -1881 1884 0
49 -1882 1885 0
49 -1883 1886 0
49 -1887 1888 0
49 -1889 1890 0
49 -1891 1892 0
49 -1893 1894 0
49 -1895 1896 0
49 -1897 1898 0
49 -1899 1900 0
49 -1901 1902 0
49 -1903 1904 0
49 -1905 1906 0
49 -1907 1908 0
49 -1909 1920 0
49 -1910 1921 0
49 -1911 1922 0
49 -1912 1923 0
49 -1913 1924 0
49 -1914 1925 0
49 -1915 1926 0
49 -1916 1927 0
49 -1917 1928 0
49 -1918 1929 0
49 -1919 1930 0
49 -1931 1932 0
49 -1933 1934 0
49 -1935 1936 0
49 -1937 1938 0
49 -1939 1940 0
49 -1941 1942 0
49 -1943 1948 0
49 -1944 1949 0
49 -1945 1950 0
49 -1946 1951 0
49 -1947 1952 0
49 -1943 -2518 0
49 -1943 -2519 0
49 -1943 -2520 0
49 -1944 -2522 0
49 -1944 -2523 0
49 -1944 -2524 0
49 -1945 -2523 0
49 -1945 -2524 0
49 -1946 -2524 0
49 -1943 -2526 0
49 -1943 -2527 0
49 -1943 -2528 0
49 -1943 -2529 0
49 -1943 -2530 0
49 -1943 -2531 0
49 -1943 -2532 0
49 -1944 -2530 0
49 -1944 -2531 0
49 -1944 -2532 0
49 -1945 -2531 0
49 -1945 -2532 0
49 -1946 -2532 0
49 -1949 -2517 0
49 -1949 -2518 0
49 -1949 -2519 0
49 -1949 -2520 0
49 -1950 -2517 0
49 -1950 -2518 0
49 -1950 -2519 0
49 -1950 -2520 0
49 -1950 -2521 0
49 -1951 -2517 0
49 -1951 -2518 0
49 -1951 -2519 0
49 -1951 -2520 0
49 -1951 -2521 0
49 -1951 -2522 0
49 -1952 -2517 0
49 -1952 -2518 0
49 -1952 -2519 0
49 -1952 -2520 0
49 -1952 -2521 0
49 -1952 -2522 0
49 -1952 -2523 0
49 -1948 -2526 0
49 -1948 -2527 0
49 -1948 -2528 0
49 -1949 -2530 0
49 -1949 -2531 0
49 -1949 -2532 0
49 -1950 -2531 0
49 -1950 -2532 0
49 -1951 -2532 0
49 -1953 1961 0
49 -1954 1962 0
49 -1955 1963 0
49 -1956 1964 0
49 -1957 1965 0
49 -1958 1966 0
49 -1959 1967 0
49 -1960 1968 0
49 -1969 1972 0
49 -1970 1973 0
49 -1971 1974 0
49 -1975 1976 0
49 -1977 1978 0
49 -1979 1987 0
49 -1980 1988 0
49 -1981 1989 0
49 -1982 1990 0
49 -1983 1991 0
49 -1984 1992 0
49 -1985 1993 0
49 -1986 1994 0
49 -1995 1996 0
49 -1997 2011 0
49 -1998 2012 0
49 -1999 2013 0
49 -2000 2014 0
49 -2001 2015 0
49 -2002 2016 0
49 -2003 2017 0
49 -2004 2018 0
49 -2005 2019 0
49 -2006 2020 0
49 -2007 2021 0
49 -2008 2022 0
49 -2009 2023 0
49 -2010 2024 0
49 -2001 -2377 0
49 -2002 -2377 0
49 -2002 -2378 0
49 -2003 -2377 0
49 -2003 -2378 0
49 -2003 -2379 0
49 -2004 -2378 0
49 -2004 -2379 0
49 -2004 -2380 0
49 -2005 -2379 0
49 -2005 -2380 0
49 -2005 -2381 0
49 -2006 -2380 0
49 -2006 -2381 0
49 -2006 -2382 0
49 -2007 -2381 0
49 -2007 -2382 0
49 -2007 -2383 0
49 -2008 -2382 0
49 -2008 -2383 0
49 -2008 -2384 0
49 -2009 -2383 0
49 -2009 -2384 0
49 -2010 -2384 0
49 -2011 -2203 0
49 -2011 -2204 0
49 -2012 -2203 0
49 -2012 -2204 0
49 -2012 -2205 0
49 -2013 -2204 0
49 -2013 -2205 0
49 -2013 -2206 0
49 -2015 -2385 0
49 -2016 -2385 0
49 -2016 -2386 0
49 -2017 -2385 0
49 -2017 -2386 0
49 -2017 -2387 0
49 -2018 -2386 0
49 -2018 -2387 0
49 -2018 -2388 0
49 -2019 -2387 0
49 -2019 -2388 0
49 -2019 -2389 0
49 -2020 -2388 0
49 -2020 -2389 0
49 -2020 -2390 0
49 -2021 -2389 0
49 -2021 -2390 0
49 -2021 -2391 0
49 -2022 -2390 0
49 -2022 -2391 0
49 -2022 -2392 0
49 -2023 -2391 0
49 -2023 -2392 0
49 -2024 -2392 0
49 -2025 2026 0
49 -2027 2035 0
49 -2028 2036 0
49 -2029 2037 0
49 -2030 2038 0
49 -2031 2039 0
49 -2032 2040 0
49 -2033 2041 0
49 -2034 2042 0
49 -2028 -2415 0
49 -2029 -2415 0
49 -2029 -2416 0
49 -2030 -2415 0
49 -2030 -2416 0
49 -2030 -2417 0
49 -2031 -2415 0
49 -2031 -2416 0
49 -2031 -2417 0
49 -2031 -2418 0
49 -2032 -2415 0
49 -2032 -2416 0
49 -2032 -2417 0
49 -2032 -2418 0
49 -2032 -2419 0
49 -2033 -2416 0
49 -2033 -2417 0
49 -2033 -2418 0
49 -2033 -2419 0
49 -2033 -2420 0
49 -2034 -2417 0
49 -2034 -2418 0
49 -2034 -2419 0
49 -2034 -2420 0
49 -2034 -2421 0
49 -2027 -2424 0
49 -2027 -2425 0
49 -2027 -2426 0
49 -2027 -2427 0
49 -2027 -2428 0
49 -2027 -2429 0
49 -2027 -2430 0
49 -2028 -2425 0
49 -2028 -2426 0
49 -2028 -2427 0
49 -2028 -2428 0
49 -2028 -2429 0
49 -2028 -2430 0
49 -2029 -2426 0
49 -2029 -2427 0
49 -2029 -2428 0
49 -2029 -2429 0
49 -2029 -2430 0
49 -2030 -2427 0
49 -2030 -2428 0
49 -2030 -2429 0
49 -2030 -2430 0
49 -2031 -2428 0
49 -2031 -2429 0
49 -2031 -2430 0
49 -2032 -2429 0
49 -2032 -2430 0
49 -2033 -2430 0
49 -2036 -2415 0
49 -2037 -2415 0
49 -2037 -2416 0
49 -2038 -2415 0
49 -2038 -2416 0
49 -2038 -2417 0
49 -2039 -2415 0
49 -2039 -2416 0
49 -2039 -2417 0
49 -2039 -2418 0
49 -2040 -2415 0
49 -2040 -2416 0
49 -2040 -2417 0
49 -2040 -2418 0
49 -2040 -2419 0
49 -2041 -2415 0
49 -2041 -2416 0
49 -2041 -2417 0
49 -2041 -2418 0
49 -2041 -2419 0
49 -2041 -2420 0
49 -2042 -2415 0
49 -2042 -2416 0
49 -2042 -2417 0
49 -2042 -2418 0
49 -2042 -2419 0
49 -2042 -2420 0
49 -2042 -2421 0
49 -2036 -2423 0
49 -2037 -2423 0
49 -2037 -2424 0
49 -2038 -2423 0
49 -2038 -2424 0
49 -2038 -2425 0
49 -2039 -2423 0
49 -2039 -2424 0
49 -2039 -2425 0
49 -2039 -2426 0
49 -2040 -2423 0
49 -2040 -2424 0
49 -2040 -2425 0
49 -2040 -2426 0
49 -2040 -2427 0
49 -2041 -2424 0
49 -2041 -2425 0
49 -2041 -2426 0
49 -2041 -2427 0
49 -2041 -2428 0
49 -2042 -2425 0
49 -2042 -2426 0
49 -2042 -2427 0
49 -2042 -2428 0
49 -2042 -2429 0
49 -2043 2044 0
49 -2045 2049 0
49 -2046 2050 0
49 -2047 2051 0
49 -2048 2052 0
49 -2049 -2550 0
49 -2049 -2551 0
49 -2050 -2550 0
49 -2050 -2551 0
49 -2051 -2551 0
49 -2053 2054 0
49 -2055 2056 0
49 -2057 2058 0
49 -2059 2060 0
49 -2061 2062 0
49 -2063 2064 0
49 -2065 2074 0
49 -2066 2075 0
49 -2067 2076 0
49 -2068 2077 0
49 -2069 2078 0
49 -2070 2079 0
49 -2071 2080 0
49 -2072 2081 0
49 -2073 2082 0
49 -2083 2084 0
49 -2085 2086 0
49 -2087 2095 0
49 -2088 2096 0
49 -2089 2097 0
49 -2090 2098 0
49 -2091 2099 0
49 -2092 2100 0
49 -2093 2101 0
49 -2094 2102 0
49 -2096 -2727 0
49 -2097 -2727 0
49 -2097 -2728 0
49 -2098 -2727 0
49 -2098 -2728 0
49 -2098 -2729 0
49 -2099 -2727 0
49 -2099 -2728 0
49 -2099 -2729 0
49 -2099 -2730 0
49 -2100 -2727 0
49 -2100 -2728 0
49 -2100 -2729 0
49 -2100 -2730 0
49 -2100 -2731 0
49 -2101 -2727 0
49 -2101 -2728 0
49 -2101 -2729 0
49 -2101 -2730 0
49 -2101 -2731 0
49 -2101 -2732 0
49 -2102 -2727 0
49 -2102 -2728 0
49 -2102 -2729 0
49 -2102 -2730 0
49 -2102 -2731 0
49 -2102 -2732 0
49 -2102 -2733 0
49 -2103 2104 0
49 -2105 2106 0
49 -2107 2108 0
49 -2109 2110 0
49 -2111 2118 0
49 -2112 2119 0
49 -2113 2120 0
49 -2114 2121 0
49 -2115 2122 0
49 -2116 2123 0
49 -2117 2124 0
49 -2125 2129 0
49 -2126 2130 0
49 -2127 2131 0
49 -2128 2132 0
49 -2133 2141 0
49 -2134 2142 0
49 -2135 2143 0
49 -2136 2144 0
49 -2137 2145 0
49 -2138 2146 0
49 -2139 2147 0
49 -2140 2148 0
49 -2133 -2698 0
49 -2133 -2699 0
49 -2133 -2700 0
49 -2133 -2701 0
49 -2133 -2702 0
49 -2133 -2703 0
49 -2133 -2704 0
49 -2134 -2699 0
49 -2134 -2700 0
49 -2134 -2701 0
49 -2134 -2702 0
49 -2134 -2703 0
49 -2134 -2704 0
49 -2135 -2700 0
49 -2135 -2701 0
49 -2135 -2702 0
49 -2135 -2703 0
49 -2135 -2704 0
49 -2136 -2701 0
49 -2136 -2702 0
49 -2136 -2703 0
49 -2136 -2704 0
49 -2137 -2702 0
49 -2137 -2703 0
49 -2137 -2704 0
49 -2138 -2703 0
49 -2138 -2704 0
49 -2139 -2704 0
49 -2141 -2636 0
49 -2142 -2637 0
49 -2143 -2638 0
49 -2144 -2639 0
49 -2145 -2640 0
49 -2146 -2641 0
49 -2147 -2642 0
49 -2149 2150 0
49 -2151 2152 0
49 -2153 2154 0
49 -2155 2156 0
49 -2157 2158 0
49 -2159 2160 0
49 -2161 2162 0
49 -2163 2171 0
49 -2164 2172 0
49 -2165 2173 0
49 -2166 2174 0
49 -2167 2175 0
49 -2168 2176 0
49 -2169 2177 0
49 -2170 2178 0
49 -2164 -2335 0
49 -2165 -2335 0
49 -2165 -2336 0
49 -2166 -2335 0
49 -2166 -2336 0
49 -2166 -2337 0
49 -2167 -2336 0
49 -2167 -2337 0
49 -2167 -2338 0
49 -2168 -2337 0
49 -2168 -2338 0
49 -2168 -2339 0
49 -2169 -2338 0
49 -2169 -2339 0
49 -2169 -2340 0
49 -2170 -2339 0
49 -2170 -2340 0
49 -2170 -2341 0
49 -2163 -2344 0
49 -2163 -2345 0
49 -2163 -2346 0
49 -2163 -2347 0
49 -2163 -2348 0
49 -2163 -2349 0
49 -2163 -2350 0
49 -2164 -2345 0
49 -2164 -2346 0
49 -2164 -2347 0
49 -2164 -2348 0
49 -2164 -2349 0
49 -2164 -2350 0
49 -2165 -2346 0
49 -2165 -2347 0
49 -2165 -2348 0
49 -2165 -2349 0
49 -2165 -2350 0
49 -2166 -2347 0
49 -2166 -2348 0
49 -2166 -2349 0
49 -2166 -2350 0
49 -2167 -2348 0
49 -2167 -2349 0
49 -2167 -2350 0
49 -2168 -2349 0
49 -2168 -2350 0
49 -2169 -2350 0
49 -2172 -2335 0
49 -2173 -2335 0
49 -2173 -2336 0
49 -2174 -2335 0
49 -2174 -2336 0
49 -2174 -2337 0
49 -2175 -2335 0
49 -2175 -2336 0
49 -2175 -2337 0
49 -2175 -2338 0
49 -2176 -2335 0
49 -2176 -2336 0
49 -2176 -2337 0
49 -2176 -2338 0
49 -2176 -2339 0
49 -2177 -2335 0
49 -2177 -2336 0
49 -2177 -2337 0
49 -2177 -2338 0
49 -2177 -2339 0
49 -2177 -2340 0
49 -2178 -2335 0
49 -2178 -2336 0
49 -2178 -2337 0
49 -2178 -2338 0
49 -2178 -2339 0
49 -2178 -2340 0
49 -2178 -2341 0
49 -2172 -2343 0
49 -2173 -2343 0
49 -2173 -2344 0
49 -2174 -2343 0
49 -2174 -2344 0
49 -2174 -2345 0
49 -2175 -2344 0
49 -2175 -2345 0
49 -2175 -2346 0
49 -2176 -2345 0
49 -2176 -2346 0
49 -2176 -2347 0
49 -2177 -2346 0
49 -2177 -2347 0
49 -2177 -2348 0
49 -2178 -2347 0
49 -2178 -2348 0
49 -2178 -2349 0
49 -2179 2180 0
49 -2181 2182 0
49 -2183 2186 0
49 -2184 2187 0
49 -2185 2188 0
49 -2184 -2400 0
49 -2185 -2401 0
49 -2183 -2404 0
49 -2183 -2405 0
49 -2183 -2406 0
49 -2183 -2407 0
49 -2183 -2408 0
49 -2184 -2408 0
49 -2187 -2397 0
49 -2187 -2398 0
49 -2187 -2399 0
49 -2187 -2400 0
49 -2188 -2397 0
49 -2188 -2398 0
49 -2188 -2399 0
49 -2188 -2400 0
49 -2188 -2401 0
49 -2187 -2406 0
49 -2188 -2407 0
49 -2189 2190 0
49 -2191 2192 0
49 -2193 2194 0
49 -2195 2196 0
49 -2197 2203 0
49 -2198 2204 0
49 -2199 2205 0
49 -2200 2206 0
49 -2201 2207 0
49 -2202 2208 0
49 -2209 2210 0
49 -2211 2212 0
49 -2213 2214 0
49 -2215 2223 0
49 -2216 2224 0
49 -2217 2225 0
49 -2218 2226 0
49 -2219 2227 0
49 -2220 2228 0
49 -2221 2229 0
49 -2222 2230 0
49 -2231 2232 0
49 -2233 2234 0
49 -2235 2236 0
49 -2237 2245 0
49 -2238 2246 0
49 -2239 2247 0
49 -2240 2248 0
49 -2241 2249 0
49 -2242 2250 0
49 -2243 2251 0
49 -2244 2252 0
49 -2237 -2568 0
49 -2237 -2569 0
49 -2237 -2570 0
49 -2237 -2571 0
49 -2237 -2572 0
49 -2237 -2573 0
49 -2237 -2574 0
49 -2238 -2569 0
49 -2238 -2570 0
49 -2238 -2571 0
49 -2238 -2572 0
49 -2238 -2573 0
49 -2238 -2574 0
49 -2239 -2570 0
49 -2239 -2571 0
49 -2239 -2572 0
49 -2239 -2573 0
49 -2239 -2574 0
49 -2240 -2571 0
49 -2240 -2572 0
49 -2240 -2573 0
49 -2240 -2574 0
49 -2241 -2572 0
49 -2241 -2573 0
49 -2241 -2574 0
49 -2242 -2573 0
49 -2242 -2574 0
49 -2243 -2574 0
49 -2246 -2559 0
49 -2247 -2559 0
49 -2247 -2560 0
49 -2248 -2559 0
49 -2248 -2560 0
49 -2248 -2561 0
49 -2249 -2559 0
49 -2249 -2560 0
49 -2249 -2561 0
49 -2249 -2562 0
49 -2250 -2559 0
49 -2250 -2560 0
49 -2250 -2561 0
49 -2250 -2562 0
49 -2250 -2563 0
49 -2251 -2559 0
49 -2251 -2560 0
49 -2251 -2561 0
49 -2251 -2562 0
49 -2251 -2563 0
49 -2251 -2564 0
49 -2252 -2559 0
49 -2252 -2560 0
49 -2252 -2561 0
49 -2252 -2562 0
49 -2252 -2563 0
49 -2252 -2564 0
49 -2252 -2565 0
49 -2246 -2567 0
49 -2247 -2568 0
49 -2248 -2569 0
49 -2249 -2570 0
49 -2250 -2571 0
49 -2251 -2572 0
49 -2252 -2573 0
49 -2246 -2859 0
49 -2247 -2859 0
49 -2247 -2860 0
49 -2248 -2859 0
49 -2248 -2860 0
49 -2248 -2861 0
49 -2249 -2859 0
49 -2249 -2860 0
49 -2249 -2861 0
49 -2249 -2862 0
49 -2250 -2859 0
49 -2250 -2860 0
49 -2250 -2861 0
49 -2250 -2862 0
49 -2250 -2863 0
49 -2251 -2859 0
49 -2251 -2860 0
49 -2251 -2861 0
49 -2251 -2862 0
49 -2251 -2863 0
49 -2251 -2864 0
49 -2252 -2859 0
49 -2252 -2860 0
49 -2252 -2861 0
49 -2252 -2862 0
49 -2252 -2863 0
49 -2252 -2864 0
49 -2252 -2865 0
49 -2246 -2867 0
49 -2247 -2868 0
49 -2248 -2869 0
49 -2249 -2870 0
49 -2250 -2871 0
49 -2251 -2872 0
49 -2252 -2873 0
49 -2253 2254 0
49 -2255 2256 0
49 -2257 2258 0
49 -2259 2260 0
49 -2261 2262 0
49 -2263 2271 0
49 -2264 2272 0
49 -2265 2273 0
49 -2266 2274 0
49 -2267 2275 0
49 -2268 2276 0
49 -2269 2277 0
49 -2270 2278 0
49 -2264 -2473 0
49 -2265 -2473 0
49 -2265 -2474 0
49 -2266 -2473 0
49 -2266 -2474 0
49 -2266 -2475 0
49 -2267 -2474 0
49 -2267 -2475 0
49 -2267 -2476 0
49 -2268 -2475 0
49 -2268 -2476 0
49 -2268 -2477 0
49 -2269 -2476 0
49 -2269 -2477 0
49 -2269 -2478 0
49 -2270 -2477 0
49 -2270 -2478 0
49 -2270 -2479 0
49 -2263 -2482 0
49 -2263 -2483 0
49 -2263 -2484 0
49 -2263 -2485 0
49 -2263 -2486 0
49 -2263 -2487 0
49 -2263 -2488 0
49 -2264 -2483 0
49 -2264 -2484 0
49 -2264 -2485 0
49 -2264 -2486 0
49 -2264 -2487 0
49 -2264 -2488 0
49 -2265 -2484 0
49 -2265 -2485 0
49 -2265 -2486 0
49 -2265 -2487 0
49 -2265 -2488 0
49 -2266 -2485 0
49 -2266 -2486 0
49 -2266 -2487 0
49 -2266 -2488 0
49 -2267 -2486 0
49 -2267 -2487 0
49 -2267 -2488 0
49 -2268 -2487 0
49 -2268 -2488 0
49 -2269 -2488 0
49 -2272 -2473 0
49 -2273 -2473 0
49 -2273 -2474 0
49 -2274 -2473 0
49 -2274 -2474 0
49 -2274 -2475 0
49 -2275 -2473 0
49 -2275 -2474 0
49 -2275 -2475 0
49 -2275 -2476 0
49 -2276 -2473 0
49 -2276 -2474 0
49 -2276 -2475 0
49 -2276 -2476 0
49 -2276 -2477 0
49 -2277 -2473 0
49 -2277 -2474 0
49 -2277 -2475 0
49 -2277 -2476 0
49 -2277 -2477 0
49 -2277 -2478 0
49 -2278 -2473 0
49 -2278 -2474 0
49 -2278 -2475 0
49 -2278 -2476 0
49 -2278 -2477 0
49 -2278 -2478 0
49 -2278 -2479 0
49 -2272 -2481 0
49 -2273 -2481 0
49 -2273 -2482 0
49 -2274 -2481 0
49 -2274 -2482 0
49 -2274 -2483 0
49 -2275 -2482 0
49 -2275 -2483 0
49 -2275 -2484 0
49 -2276 -2483 0
49 -2276 -2484 0
49 -2276 -2485 0
49 -2277 -2484 0
49 -2277 -2485 0
49 -2277 -2486 0
49 -2278 -2485 0
49 -2278 -2486 0
49 -2278 -2487 0
49 -2279 2281 0
49 -2280 2282 0
49 -2283 2284 0
49 -2285 2286 0
49 -2287 2288 0
49 -2289 2290 0
49 -2291 2292 0
49 -2293 2294 0
49 -2295 2304 0
49 -2296 2305 0
49 -2297 2306 0
49 -2298 2307 0
49 -2299 2308 0
49 -2300 2309 0
49 -2301 2310 0
49 -2302 2311 0
49 -2303 2312 0
49 -2303 -2389 0
49 -2303 -2390 0
49 -2303 -2391 0
49 -2303 -2392 0
49 -2312 -2388 0
49 -2312 -2389 0
49 -2312 -2390 0
49 -2312 -2391 0
49 -2312 -2392 0
49 -2313 2314 0
49 -2315 2316 0
49 -2317 2325 0
49 -2318 2326 0
49 -2319 2327 0
49 -2320 2328 0
49 -2321 2329 0
49 -2322 2330 0
49 -2323 2331 0
49 -2324 2332 0
49 -2317 -2588 0
49 -2317 -2589 0
49 -2317 -2590 0
49 -2317 -2591 0
49 -2317 -2592 0
49 -2318 -2589 0
49 -2318 -2590 0
49 -2318 -2591 0
49 -2318 -2592 0
49 -2318 -2593 0
49 -2319 -2590 0
49 -2319 -2591 0
49 -2319 -2592 0
49 -2319 -2593 0
49 -2319 -2594 0
49 -2320 -2591 0
49 -2320 -2592 0
49 -2320 -2593 0
49 -2320 -2594 0
49 -2321 -2592 0
49 -2321 -2593 0
49 -2321 -2594 0
49 -2322 -2593 0
49 -2322 -2594 0
49 -2323 -2594 0
49 -2317 -2596 0
49 -2317 -2597 0
49 -2317 -2598 0
49 -2317 -2599 0
49 -2317 -2600 0
49 -2317 -2601 0
49 -2317 -2602 0
49 -2318 -2597 0
49 -2318 -2598 0
49 -2318 -2599 0
49 -2318 -2600 0
49 -2318 -2601 0
49 -2318 -2602 0
49 -2319 -2598 0
49 -2319 -2599 0
49 -2319 -2600 0
49 -2319 -2601 0
49 -2319 -2602 0
49 -2320 -2599 0
49 -2320 -2600 0
49 -2320 -2601 0
49 -2320 -2602 0
49 -2321 -2600 0
49 -2321 -2601 0
49 -2321 -2602 0
49 -2322 -2601 0
49 -2322 -2602 0
49 -2323 -2602 0
49 -2317 -2644 0
49 -2317 -2645 0
49 -2317 -2646 0
49 -2318 -2645 0
49 -2318 -2646 0
49 -2318 -2647 0
49 -2319 -2646 0
49 -2319 -2647 0
49 -2319 -2648 0
49 -2320 -2647 0
49 -2320 -2648 0
49 -2320 -2649 0
49 -2321 -2648 0
49 -2321 -2649 0
49 -2321 -2650 0
49 -2322 -2649 0
49 -2322 -2650 0
49 -2323 -2650 0
49 -2317 -2652 0
49 -2317 -2653 0
49 -2317 -2654 0
49 -2317 -2655 0
49 -2317 -2656 0
49 -2317 -2657 0
49 -2317 -2658 0
49 -2318 -2653 0
49 -2318 -2654 0
49 -2318 -2655 0
49 -2318 -2656 0
49 -2318 -2657 0
49 -2318 -2658 0
49 -2319 -2654 0
49 -2319 -2655 0
49 -2319 -2656 0
49 -2319 -2657 0
49 -2319 -2658 0
49 -2320 -2655 0
49 -2320 -2656 0
49 -2320 -2657 0
49 -2320 -2658 0
49 -2321 -2656 0
49 -2321 -2657 0
49 -2321 -2658 0
49 -2322 -2657 0
49 -2322 -2658 0
49 -2323 -2658 0
49 -2326 -2587 0
49 -2327 -2587 0
49 -2327 -2588 0
49 -2328 -2587 0
49 -2328 -2588 0
49 -2328 -2589 0
49 -2329 -2587 0
49 -2329 -2588 0
49 -2329 -2589 0
49 -2329 -2590 0
49 -2330 -2587 0
49 -2330 -2588 0
49 -2330 -2589 0
49 -2330 -2590 0
49 -2330 -2591 0
49 -2331 -2587 0
49 -2331 -2588 0
49 -2331 -2589 0
49 -2331 -2590 0
49 -2331 -2591 0
49 -2331 -2592 0
49 -2332 -2587 0
49 -2332 -2588 0
49 -2332 -2589 0
49 -2332 -2590 0
49 -2332 -2591 0
49 -2332 -2592 0
49 -2332 -2593 0
49 -2325 -2596 0
49 -2325 -2597 0
49 -2325 -2598 0
49 -2325 -2599 0
49 -2325 -2600 0
49 -2326 -2597 0
49 -2326 -2598 0
49 -2326 -2599 0
49 -2326 -2600 0
49 -2326 -2601 0
49 -2327 -2598 0
49 -2327 -2599 0
49 -2327 -2600 0
49 -2327 -2601 0
49 -2327 -2602 0
49 -2328 -2599 0
49 -2328 -2600 0
49 -2328 -2601 0
49 -2328 -2602 0
49 -2329 -2600 0
49 -2329 -2601 0
49 -2329 -2602 0
49 -2330 -2601 0
49 -2330 -2602 0
49 -2331 -2602 0
49 -2326 -2643 0
49 -2327 -2643 0
49 -2327 -2644 0
49 -2328 -2643 0
49 -2328 -2644 0
49 -2328 -2645 0
49 -2329 -2643 0
49 -2329 -2644 0
49 -2329 -2645 0
49 -2329 -2646 0
49 -2330 -2643 0
49 -2330 -2644 0
49 -2330 -2645 0
49 -2330 -2646 0
49 -2330 -2647 0
49 -2331 -2643 0
49 -2331 -2644 0
49 -2331 -2645 0
49 -2331 -2646 0
49 -2331 -2647 0
49 -2331 -2648 0
49 -2332 -2643 0
49 -2332 -2644 0
49 -2332 -2645 0
49 -2332 -2646 0
49 -2332 -2647 0
49 -2332 -2648 0
49 -2332 -2649 0
49 -2325 -2652 0
49 -2325 -2653 0
49 -2325 -2654 0
49 -2326 -2653 0
49 -2326 -2654 0
49 -2326 -2655 0
49 -2327 -2654 0
49 -2327 -2655 0
49 -2327 -2656 0
49 -2328 -2655 0
49 -2328 -2656 0
49 -2328 -2657 0
49 -2329 -2656 0
49 -2329 -2657 0
49 -2329 -2658 0
49 -2330 -2657 0
49 -2330 -2658 0
49 -2331 -2658 0
49 -2333 2334 0
49 -2335 2343 0
49 -2336 2344 0
49 -2337 2345 0
49 -2338 2346 0
49 -2339 2347 0
49 -2340 2348 0
49 -2341 2349 0
49 -2342 2350 0
49 -2351 2352 0
49 -2353 2354 0
49 -2355 2356 0
49 -2357 2365 0
49 -2358 2366 0
49 -2359 2367 0
49 -2360 2368 0
49 -2361 2369 0
49 -2362 2370 0
49 -2363 2371 0
49 -2364 2372 0
49 -2357 -2644 0
49 -2357 -2645 0
49 -2357 -2646 0
49 -2358 -2645 0
49 -2358 -2646 0
49 -2358 -2647 0
49 -2359 -2646 0
49 -2359 -2647 0
49 -2359 -2648 0
49 -2360 -2647 0
49 -2360 -2648 0
49 -2360 -2649 0
49 -2361 -2648 0
49 -2361 -2649 0
49 -2361 -2650 0
49 -2362 -2649 0
49 -2362 -2650 0
49 -2363 -2650 0
49 -2357 -2652 0
49 -2357 -2653 0
49 -2357 -2654 0
49 -2357 -2655 0
49 -2357 -2656 0
49 -2357 -2657 0
49 -2357 -2658 0
49 -2358 -2653 0
49 -2358 -2654 0
49 -2358 -2655 0
49 -2358 -2656 0
49 -2358 -2657 0
49 -2358 -2658 0
49 -2359 -2654 0
49 -2359 -2655 0
49 -2359 -2656 0
49 -2359 -2657 0
49 -2359 -2658 0
49 -2360 -2655 0
49 -2360 -2656 0
49 -2360 -2657 0
49 -2360 -2658 0
49 -2361 -2656 0
49 -2361 -2657 0
49 -2361 -2658 0
49 -2362 -2657 0
49 -2362 -2658 0
49 -2363 -2658 0
49 -2357 -2836 0
49 -2357 -2837 0
49 -2357 -2838 0
49 -2357 -2839 0
49 -2357 -2840 0
49 -2357 -2841 0
49 -2357 -2842 0
49 -2358 -2837 0
49 -2358 -2838 0
49 -2358 -2839 0
49 -2358 -2840 0
49 -2358 -2841 0
49 -2358 -2842 0
49 -2359 -2838 0
49 -2359 -2839 0
49 -2359 -2840 0
49 -2359 -2841 0
49 -2359 -2842 0
49 -2360 -2839 0
49 -2360 -2840 0
49 -2360 -2841 0
49 -2360 -2842 0
49 -2361 -2840 0
49 -2361 -2841 0
49 -2361 -2842 0
49 -2362 -2841 0
49 -2362 -2842 0
49 -2363 -2842 0
49 -2365 -2715 0
49 -2365 -2716 0
49 -2365 -2717 0
49 -2365 -2718 0
49 -2365 -2719 0
49 -2365 -2720 0
49 -2366 -2716 0
49 -2366 -2717 0
49 -2366 -2718 0
49 -2366 -2719 0
49 -2366 -2720 0
49 -2367 -2717 0
49 -2367 -2718 0
49 -2367 -2719 0
49 -2367 -2720 0
49 -2368 -2717 0
49 -2368 -2718 0
49 -2368 -2719 0
49 -2368 -2720 0
49 -2369 -2718 0
49 -2369 -2719 0
49 -2369 -2720 0
49 -2370 -2719 0
49 -2370 -2720 0
49 -2371 -2720 0
49 -2366 -2827 0
49 -2367 -2827 0
49 -2367 -2828 0
49 -2368 -2827 0
49 -2368 -2828 0
49 -2368 -2829 0
49 -2369 -2827 0
49 -2369 -2828 0
49 -2369 -2829 0
49 -2369 -2830 0
49 -2370 -2827 0
49 -2370 -2828 0
49 -2370 -2829 0
49 -2370 -2830 0
49 -2370 -2831 0
49 -2371 -2827 0
49 -2371 -2828 0
49 -2371 -2829 0
49 -2371 -2830 0
49 -2371 -2831 0
49 -2371 -2832 0
49 -2372 -2827 0
49 -2372 -2828 0
49 -2372 -2829 0
49 -2372 -2830 0
49 -2372 -2831 0
49 -2372 -2832 0
49 -2372 -2833 0
49 -2373 2374 0
49 -2375 2376 0
49 -2377 2385 0
49 -2378 2386 0
49 -2379 2387 0
49 -2380 2388 0
49 -2381 2389 0
49 -2382 2390 0
49 -2383 2391 0
49 -2384 2392 0
49 -2393 2394 0
49 -2395 2396 0
49 -2397 2403 0
49 -2398 2404 0
49 -2399 2405 0
49 -2400 2406 0
49 -2401 2407 0
49 -2402 2408 0
49 -2409 2410 0
49 -2411 2412 0
49 -2413 2414 0
49 -2415 2423 0
49 -2416 2424 0
49 -2417 2425 0
49 -2418 2426 0
49 -2419 2427 0
49 -2420 2428 0
49 -2421 2429 0
49 -2422 2430 0
49 -2431 2432 0
49 -2433 2437 0
49 -2434 2438 0
49 -2435 2439 0
49 -2436 2440 0
49 -2441 2442 0
49 -2443 2444 0
49 -2445 2446 0
49 -2447 2448 0
49 -2449 2457 0
49 -2450 2458 0
49 -2451 2459 0
49 -2452 2460 0
49 -2453 2461 0
49 -2454 2462 0
49 -2455 2463 0
49 -2456 2464 0
49 -2465 2466 0
49 -2467 2468 0
49 -2469 2471 0
49 -2470 2472 0
49 -2470 -2708 0
49 -2473 2481 0
49 -2474 2482 0
49 -2475 2483 0
49 -2476 2484 0
49 -2477 2485 0
49 -2478 2486 0
49 -2479 2487 0
49 -2480 2488 0
49 -2489 2500 0
49 -2490 2501 0
49 -2491 2502 0
49 -2492 2503 0
49 -2493 2504 0
49 -2494 2505 0
49 -2495 2506 0
49 -2496 2507 0
49 -2497 2508 0
49 -2498 2509 0
49 -2499 2510 0
49 -2489 -2752 0
49 -2489 -2753 0
49 -2489 -2754 0
49 -2489 -2755 0
49 -2489 -2756 0
49 -2489 -2757 0
49 -2489 -2758 0
49 -2490 -2753 0
49 -2490 -2754 0
49 -2490 -2755 0
49 -2490 -2756 0
49 -2490 -2757 0
49 -2490 -2758 0
49 -2491 -2754 0
49 -2491 -2755 0
49 -2491 -2756 0
49 -2491 -2757 0
49 -2491 -2758 0
49 -2492 -2755 0
49 -2492 -2756 0
49 -2492 -2757 0
49 -2492 -2758 0
49 -2493 -2756 0
49 -2493 -2757 0
49 -2493 -2758 0
49 -2494 -2757 0
49 -2494 -2758 0
49 -2495 -2758 0
49 -2511 2512 0
49 -2513 2514 0
49 -2515 2516 0
49 -2517 2525 0
49 -2518 2526 0
49 -2519 2527 0
49 -2520 2528 0
49 -2521 2529 0
49 -2522 2530 0
49 -2523 2531 0
49 -2524 2532 0
49 -2533 2534 0
49 -2535 2536 0
49 -2537 2541 0
49 -2538 2542 0
49 -2539 2543 0
49 -2540 2544 0
49 -2545 2546 0
49 -2547 2550 0
49 -2548 2551 0
49 -2549 2552 0
49 -2553 2554 0
49 -2555 2556 0
49 -2557 2558 0
49 -2559 2567 0
49 -2560 2568 0
49 -2561 2569 0
49 -2562 2570 0
49 -2563 2571 0
49 -2564 2572 0
49 -2565 2573 0
49 -2566 2574 0
49 -2575 2576 0
49 -2577 2578 0
49 -2579 2580 0
49 -2581 2582 0
49 -2583 2584 0
49 -2585 2586 0
49 -2587 2595 0
49 -2588 2596 0
49 -2589 2597 0
49 -2590 2598 0
49 -2591 2599 0
49 -2592 2600 0
49 -2593 2601 0
49 -2594 2602 0
49 -2588 -2643 0
49 -2589 -2644 0
49 -2590 -2645 0
49 -2591 -2646 0
49 -2592 -2647 0
49 -2593 -2648 0
49 -2594 -2649 0
49 -2587 -2652 0
49 -2587 -2653 0
49 -2587 -2654 0
49 -2587 -2655 0
49 -2587 -2656 0
49 -2587 -2657 0
49 -2587 -2658 0
49 -2588 -2653 0
49 -2588 -2654 0
49 -2588 -2655 0
49 -2588 -2656 0
49 -2588 -2657 0
49 -2588 -2658 0
49 -2589 -2654 0
49 -2589 -2655 0
49 -2589 -2656 0
49 -2589 -2657 0
49 -2589 -2658 0
49 -2590 -2655 0
49 -2590 -2656 0
49 -2590 -2657 0
49 -2590 -2658 0
49 -2591 -2656 0
49 -2591 -2657 0
49 -2591 -2658 0
49 -2592 -2657 0
49 -2592 -2658 0
49 -2593 -2658 0
49 -2596 -2643 0
49 -2597 -2643 0
49 -2597 -2644 0
49 -2598 -2643 0
49 -2598 -2644 0
49 -2598 -2645 0
49 -2599 -2643 0
49 -2599 -2644 0
49 -2599 -2645 0
49 -2599 -2646 0
49 -2600 -2643 0
49 -2600 -2644 0
49 -2600 -2645 0
49 -2600 -2646 0
49 -2600 -2647 0
49 -2601 -2643 0
49 -2601 -2644 0
49 -2601 -2645 0
49 -2601 -2646 0
49 -2601 -2647 0
49 -2601 -2648 0
49 -2602 -2643 0
49 -2602 -2644 0
49 -2602 -2645 0
49 -2602 -2646 0
49 -2602 -2647 0
49 -2602 -2648 0
49 -2602 -2649 0
49 -2596 -2651 0
49 -2597 -2652 0
49 -2598 -2653 0
49 -2599 -2654 0
49 -2600 -2655 0
49 -2601 -2656 0
49 -2602 -2657 0
49 -2596 -2827 0
49 -2597 -2827 0
49 -2597 -2828 0
49 -2598 -2827 0
49 -2598 -2828 0
49 -2598 -2829 0
49 -2599 -2827 0
49 -2599 -2828 0
49 -2599 -2829 0
49 -2599 -2830 0
49 -2600 -2827 0
49 -2600 -2828 0
49 -2600 -2829 0
49 -2600 -2830 0
49 -2600 -2831 0
49 -2601 -2827 0
49 -2601 -2828 0
49 -2601 -2829 0
49 -2601 -2830 0
49 -2601 -2831 0
49 -2601 -2832 0
49 -2602 -2827 0
49 -2602 -2828 0
49 -2602 -2829 0
49 -2602 -2830 0
49 -2602 -2831 0
49 -2602 -2832 0
49 -2602 -2833 0
49 -2596 -2835 0
49 -2597 -2835 0
49 -2597 -2836 0
49 -2598 -2835 0
49 -2598 -2836 0
49 -2598 -2837 0
49 -2599 -2836 0
49 -2599 -2837 0
49 -2599 -2838 0
49 -2600 -2837 0
49 -2600 -2838 0
49 -2600 -2839 0
49 -2601 -2838 0
49 -2601 -2839 0
49 -2601 -2840 0
49 -2602 -2839 0
49 -2602 -2840 0
49 -2602 -2841 0
49 -2603 2604 0
49 -2605 2606 0
49 -2607 2617 0
49 -2608 2618 0
49 -2609 2619 0
49 -2610 2620 0
49 -2611 2621 0
49 -2612 2622 0
49 -2613 2623 0
49 -2614 2624 0
49 -2615 2625 0
49 -2616 2626 0
49 -2608 -2627 0
49 -2609 -2628 0
49 -2610 -2629 0
49 -2611 -2630 0
49 -2612 -2631 0
49 -2613 -2632 0
49 -2614 -2633 0
49 -2615 -2634 0
49 -2607 -2636 0
49 -2607 -2637 0
49 -2607 -2638 0
49 -2607 -2639 0
49 -2607 -2640 0
49 -2607 -2641 0
49 -2607 -2642 0
49 -2608 -2637 0
49 -2608 -2638 0
49 -2608 -2639 0
49 -2608 -2640 0
49 -2608 -2641 0
49 -2608 -2642 0
49 -2609 -2638 0
49 -2609 -2639 0
49 -2609 -2640 0
49 -2609 -2641 0
49 -2609 -2642 0
49 -2610 -2639 0
49 -2610 -2640 0
49 -2610 -2641 0
49 -2610 -2642 0
49 -2611 -2640 0
49 -2611 -2641 0
49 -2611 -2642 0
49 -2612 -2641 0
49 -2612 -2642 0
49 -2613 -2642 0
49 -2627 2635 0
49 -2628 2636 0
49 -2629 2637 0
49 -2630 2638 0
49 -2631 2639 0
49 -2632 2640 0
49 -2633 2641 0
49 -2634 2642 0
49 -2643 2651 0
49 -2644 2652 0
49 -2645 2653 0
49 -2646 2654 0
49 -2647 2655 0
49 -2648 2656 0
49 -2649 2657 0
49 -2650 2658 0
49 -2652 -2827 0
49 -2653 -2827 0
49 -2653 -2828 0
49 -2654 -2827 0
49 -2654 -2828 0
49 -2654 -2829 0
49 -2655 -2827 0
49 -2655 -2828 0
49 -2655 -2829 0
49 -2655 -2830 0
49 -2656 -2827 0
49 -2656 -2828 0
49 -2656 -2829 0
49 -2656 -2830 0
49 -2656 -2831 0
49 -2657 -2827 0
49 -2657 -2828 0
49 -2657 -2829 0
49 -2657 -2830 0
49 -2657 -2831 0
49 -2657 -2832 0
49 -2658 -2827 0
49 -2658 -2828 0
49 -2658 -2829 0
49 -2658 -2830 0
49 -2658 -2831 0
49 -2658 -2832 0
49 -2658 -2833 0
49 -2652 -2835 0
49 -2653 -2836 0
49 -2654 -2837 0
49 -2655 -2838 0
49 -2656 -2839 0
49 -2657 -2840 0
49 -2658 -2841 0
49 -2659 2660 0
49 -2661 2662 0
49 -2663 2664 0
49 -2665 2688 0
49 -2666 2677 0
49 -2667 2678 0
49 -2668 2679 0
49 -2669 2680 0
49 -2670 2681 0
49 -2671 2682 0
49 -2672 2683 0
49 -2673 2684 0
49 -2674 2685 0
49 -2675 2686 0
49 -2676 2687 0
49 -2689 2697 0
49 -2690 2698 0
49 -2691 2699 0
49 -2692 2700 0
49 -2693 2701 0
49 -2694 2702 0
49 -2695 2703 0
49 -2696 2704 0
49 -2698 -2743 0
49 -2699 -2743 0
49 -2699 -2744 0
49 -2700 -2743 0
49 -2700 -2744 0
49 -2700 -2745 0
49 -2701 -2743 0
49 -2701 -2744 0
49 -2701 -2745 0
49 -2701 -2746 0
49 -2702 -2743 0
49 -2702 -2744 0
49 -2702 -2745 0
49 -2702 -2746 0
49 -2702 -2747 0
49 -2703 -2743 0
49 -2703 -2744 0
49 -2703 -2745 0
49 -2703 -2746 0
49 -2703 -2747 0
49 -2703 -2748 0
49 -2704 -2743 0
49 -2704 -2744 0
49 -2704 -2745 0
49 -2704 -2746 0
49 -2704 -2747 0
49 -2704 -2748 0
49 -2704 -2749 0
49 -2698 -2751 0
49 -2699 -2751 0
49 -2699 -2752 0
49 -2700 -2751 0
49 -2700 -2752 0
49 -2700 -2753 0
49 -2701 -2752 0
49 -2701 -2753 0
49 -2701 -2754 0
49 -2702 -2753 0
49 -2702 -2754 0
49 -2702 -2755 0
49 -2703 -2754 0
49 -2703 -2755 0
49 -2703 -2756 0
49 -2704 -2755 0
49 -2704 -2756 0
49 -2704 -2757 0
49 -2705 2706 0
49 -2707 2714 0
49 -2708 2715 0
49 -2709 2716 0
49 -2710 2717 0
49 -2711 2718 0
49 -2712 2719 0
49 -2713 2720 0
49 -2721 2722 0
49 -2723 2724 0
49 -2725 2726 0
49 -2727 2735 0
49 -2728 2736 0
49 -2729 2737 0
49 -2730 2738 0
49 -2731 2739 0
49 -2732 2740 0
49 -2733 2741 0
49 -2734 2742 0
49 -2743 2751 0
49 -2744 2752 0
49 -2745 2753 0
49 -2746 2754 0
49 -2747 2755 0
49 -2748 2756 0
49 -2749 2757 0
49 -2750 2758 0
49 -2759 2764 0
49 -2760 2765 0
49 -2761 2766 0
49 -2762 2767 0
49 -2763 2768 0
49 -2769 2770 0
49 -2771 2772 0
49 -2773 2774 0
49 -2775 2776 0
49 -2777 2778 0
49 -2779 2780 0
49 -2781 2784 0
49 -2782 2785 0
49 -2783 2786 0
49 -2787 2788 0
49 -2789 2790 0
49 -2791 2792 0
49 -2793 2801 0
49 -2794 2802 0
49 -2795 2803 0
49 -2796 2804 0
49 -2797 2805 0
49 -2798 2806 0
49 -2799 2807 0
49 -2800 2808 0
49 -2809 2810 0
49 -2811 2819 0
49 -2812 2820 0
49 -2813 2821 0
49 -2814 2822 0
49 -2815 2823 0
49 -2816 2824 0
49 -2817 2825 0
49 -2818 2826 0
49 -2827 2835 0
49 -2828 2836 0
49 -2829 2837 0
49 -2830 2838 0
49 -2831 2839 0
49 -2832 2840 0
49 -2833 2841 0
49 -2834 2842 0
49 -2836 -2845 0
49 -2837 -2845 0
49 -2838 -2845 0
49 -2839 -2845 0
49 -2839 -2846 0
49 -2840 -2845 0
49 -2840 -2846 0
49 -2840 -2847 0
49 -2841 -2845 0
49 -2841 -2846 0
49 -2841 -2847 0
49 -2841 -2848 0
49 -2842 -2845 0
49 -2842 -2846 0
49 -2842 -2847 0
49 -2842 -2848 0
49 -2842 -2849 0
49 -2836 -2851 0
49 -2839 -2852 0
49 -2840 -2853 0
49 -2841 -2854 0
49 -2842 -2855 0
49 -2843 2844 0
49 -2845 2851 0
49 -2846 2852 0
49 -2847 2853 0
49 -2848 2854 0
49 -2849 2855 0
49 -2850 2856 0
49 -2851 -2868 0
49 -2851 -2869 0
49 -2851 -2870 0
49 -2852 -2871 0
49 -2852 -2872 0
49 -2852 -2873 0
49 -2853 -2872 0
49 -2853 -2873 0
49 -2853 -2874 0
49 -2854 -2873 0
49 -2854 -2874 0
49 -2855 -2874 0
49 -2857 2858 0
49 -2859 2867 0
49 -2860 2868 0
49 -2861 2869 0
49 -2862 2870 0
49 -2863 2871 0
49 -2864 2872 0
49 -2865 2873 0
49 -2866 2874 0
49 -2868 -2875 0
49 -2869 -2875 0
49 -2870 -2875 0
49 -2871 -2875 0
49 -2871 -2876 0
49 -2872 -2875 0
49 -2872 -2876 0
49 -2872 -2877 0
49 -2873 -2875 0
49 -2873 -2876 0
49 -2873 -2877 0
49 -2873 -2878 0
49 -2874 -2875 0
49 -2874 -2876 0
49 -2874 -2877 0
49 -2874 -2878 0
49 -2874 -2879 0
49 -2868 -2881 0
49 -2869 -2881 0
49 -2870 -2881 0
49 -2871 -2882 0
49 -2872 -2882 0
49 -2872 -2883 0
49 -2873 -2882 0
49 -2873 -2883 0
49 -2873 -2884 0
49 -2874 -2883 0
49 -2874 -2884 0
49 -2874 -2885 0
49 -2875 2881 0
49 -2876 2882 0
49 -2877 2883 0
49 -2878 2884 0
49 -2879 2885 0
49 -2880 2886 0
49 -1 9709 0
49 -2 9722 0
49 -3 9707 0
49 -4 9720 0
49 -5 9739 0
49 -6 9740 0
49 -7 9741 0
49 -8 9742 0
49 -9 9743 0
49 -10 9744 0
49 -11 9745 0
49 -12 9727 0
49 -13 9728 0
49 -14 9729 0
49 -15 9730 0
49 -16 9732 0
49 -17 9733 0
49 -18 9734 0
49 -19 9710 0
49 -20 9723 0
49 -21 9706 0
49 -22 9719 0
49 -23 9708 0
49 -24 9721 0
49 -25 9706 0
49 -26 9719 0
49 -27 9706 0
49 -28 9719 0
49 -29 9713 0
49 -30 9731 0
49 -31 9701 0
49 -32 9702 0
49 -33 9703 0
49 -34 9704 0
49 -35 9705 0
49 -36 9714 0
49 -37 9715 0
49 -38 9716 0
49 -39 9717 0
49 -40 9718 0
49 -41 9710 0
49 -42 9723 0
49 -43 9738 0
49 -44 9739 0
49 -45 9740 0
49 -46 9741 0
49 -47 9742 0
49 -48 9743 0
49 -49 9744 0
49 -50 9745 0
49 -51 9746 0
49 -52 9747 0
49 -53 9748 0
49 -54 9726 0
49 -55 9727 0
49 -56 9728 0
49 -57 9729 0
49 -58 9730 0
49 -59 9732 0
49 -60 9733 0
49 -61 9734 0
49 -62 9735 0
49 -63 9736 0
49 -64 9737 0
49 -65 9741 0
49 -66 9742 0
49 -67 9743 0
49 -68 9744 0
49 -69 9745 0
49 -70 9746 0
49 -71 9747 0
49 -72 9748 0
49 -73 9729 0
49 -74 9730 0
49 -75 9732 0
49 -76 9733 0
49 -77 9734 0
49 -78 9735 0
49 -79 9736 0
49 -80 9737 0
49 -81 9740 0
49 -82 9742 0
49 -83 9744 0
49 -84 9746 0
49 -85 9728 0
49 -86 9730 0
49 -87 9733 0
49 -88 9735 0
49 -89 9705 0
49 -90 9718 0
49 -91 9705 0
49 -92 9718 0
49 -93 9739 0
49 -94 9740 0
49 -95 9741 0
49 -96 9742 0
49 -97 9743 0
49 -98 9744 0
49 -99 9745 0
49 -100 9746 0
49 -101 9727 0
49 -102 9728 0
49 -103 9729 0
49 -104 9730 0
49 -105 9732 0
49 -106 9733 0
49 -107 9734 0
49 -108 9735 0
49 -109 9712 0
49 -110 9713 0
49 -111 9725 0
49 -112 9731 0
49 -113 9705 0
49 -114 9718 0
49 -115 9711 0
49 -116 9724 0
49 -117 9711 0
49 -118 9724 0
49 -119 9706 0
49 -120 9745 0
49 -121 9746 0
49 -122 9747 0
49 -123 9748 0
49 -124 9719 0
49 -125 9734 0
49 -126 9735 0
49 -127 9736 0
49 -128 9737 0
49 -129 9705 0
49 -130 9718 0
49 -131 9706 0
49 -132 9719 0
49 -133 9741 0
49 -134 9742 0
49 -135 9743 0
49 -136 9744 0
49 -137 9745 0
49 -138 9746 0
49 -139 9747 0
49 -140 9748 0
49 -141 9729 0
49 -142 9730 0
49 -143 9732 0
49 -144 9733 0
49 -145 9734 0
49 -146 9735 0
49 -147 9736 0
49 -148 9737 0
49 -149 9702 0
49 -150 9704 0
49 -151 9706 0
49 -152 9708 0
49 -153 9715 0
49 -154 9717 0
49 -155 9719 0
49 -156 9721 0
49 -157 9702 0
49 -158 9703 0
49 -159 9704 0
49 -160 9710 0
49 -161 9740 0
49 -162 9741 0
49 -163 9742 0
49 -164 9715 0
49 -165 9716 0
49 -166 9717 0
49 -167 9723 0
49 -168 9728 0
49 -169 9729 0
49 -170 9730 0
49 -171 9709 0
49 -172 9738 0
49 -173 9739 0
49 -174 9740 0
49 -175 9741 0
49 -176 9742 0
49 -177 9722 0
49 -178 9726 0
49 -179 9727 0
49 -180 9728 0
49 -181 9729 0
49 -182 9730 0
49 -183 9738 0
49 -184 9739 0
49 -185 9740 0
49 -186 9741 0
49 -187 9742 0
49 -188 9743 0
49 -189 9744 0
49 -190 9745 0
49 -191 9746 0
49 -192 9747 0
49 -193 9748 0
49 -194 9726 0
49 -195 9727 0
49 -196 9728 0
49 -197 9729 0
49 -198 9730 0
49 -199 9732 0
49 -200 9733 0
49 -201 9734 0
49 -202 9735 0
49 -203 9736 0
49 -204 9737 0
49 -205 9706 0
49 -206 9719 0
49 -207 9710 0
49 -208 9723 0
49 -209 9738 0
49 -210 9739 0
49 -211 9740 0
49 -212 9741 0
49 -213 9742 0
49 -214 9743 0
49 -215 9744 0
49 -216 9745 0
49 -217 9746 0
49 -218 9747 0
49 -219 9748 0
49 -220 9726 0
49 -221 9727 0
49 -222 9728 0
49 -223 9729 0
49 -224 9730 0
49 -225 9732 0
49 -226 9733 0
49 -227 9734 0
49 -228 9735 0
49 -229 9736 0
49 -230 9737 0
49 -231 9741 0
49 -232 9742 0
49 -233 9743 0
49 -234 9744 0
49 -235 9745 0
49 -236 9746 0
49 -237 9747 0
49 -238 9748 0
49 -239 9729 0
49 -240 9730 0
49 -241 9732 0
49 -242 9733 0
49 -243 9734 0
49 -244 9735 0
49 -245 9736 0
49 -246 9737 0
49 -247 9708 0
49 -248 9721 0
49 -249 9709 0
49 -250 9722 0
49 -251 9711 0
49 -252 9724 0
49 -253 9706 0
49 -254 9719 0
49 -255 9712 0
49 -256 9725 0
49 -257 9710 0
49 -258 9723 0
49 -259 9738 0
49 -260 9739 0
49 -261 9740 0
49 -262 9741 0
49 -263 9742 0
49 -264 9743 0
49 -265 9744 0
49 -266 9745 0
49 -267 9726 0
49 -268 9727 0
49 -269 9728 0
49 -270 9729 0
49 -271 9730 0
49 -272 9732 0
49 -273 9733 0
49 -274 9734 0
49 -275 9712 0
49 -276 9725 0
49 -277 9710 0
49 -278 9723 0
49 -279 9738 0
49 -280 9739 0
49 -281 9740 0
49 -282 9741 0
49 -283 9742 0
49 -284 9743 0
49 -285 9744 0
49 -286 9726 0
49 -287 9727 0
49 -288 9728 0
49 -289 9729 0
49 -290 9730 0
49 -291 9732 0
49 -292 9733 0
49 -293 9711 0
49 -294 9724 0
49 -295 9712 0
49 -296 9725 0
49 -297 9705 0
49 -298 9706 0
49 -299 9707 0
49 -300 9708 0
49 -301 9709 0
49 -302 9710 0
49 -303 9711 0
49 -304 9718 0
49 -305 9719 0
49 -306 9720 0
49 -307 9721 0
49 -308 9722 0
49 -309 9723 0
49 -310 9724 0
49 -311 9741 0
49 -312 9729 0
49 -313 9711 0
49 -314 9724 0
49 -315 9708 0
49 -316 9721 0
49 -317 9705 0
49 -318 9718 0
49 -319 9710 0
49 -320 9723 0
49 -321 9741 0
49 -322 9742 0
49 -323 9743 0
49 -324 9744 0
49 -325 9745 0
49 -326 9746 0
49 -327 9747 0
49 -328 9748 0
49 -329 9729 0
49 -330 9730 0
49 -331 9732 0
49 -332 9733 0
49 -333 9734 0
49 -334 9735 0
49 -335 9736 0
49 -336 9737 0
49 -337 9708 0
49 -338 9721 0
49 -339 9741 0
49 -340 9742 0
49 -341 9743 0
49 -342 9744 0
49 -343 9745 0
49 -344 9746 0
49 -345 9747 0
49 -346 9748 0
49 -347 9729 0
49 -348 9730 0
49 -349 9732 0
49 -350 9733 0
49 -351 9734 0
49 -352 9735 0
49 -353 9736 0
49 -354 9737 0
49 -355 9707 0
49 -356 9720 0
49 -357 9701 0
49 -358 9702 0
49 -359 9703 0
49 -360 9704 0
49 -361 9705 0
49 -362 9706 0
49 -363 9707 0
49 -364 9708 0
49 -365 9714 0
49 -366 9715 0
49 -367 9716 0
49 -368 9717 0
49 -369 9718 0
49 -370 9719 0
49 -371 9720 0
49 -372 9721 0
49 -373 9705 0
49 -374 9718 0
49 -375 9711 0
49 -376 9724 0
49 -377 9711 0
49 -378 9742 0
49 -379 9743 0
49 -380 9724 0
49 -381 9730 0
49 -382 9732 0
49 -383 9708 0
49 -384 9740 0
49 -385 9721 0
49 -386 9728 0
49 -387 9707 0
49 -388 9720 0
49 -389 9709 0
49 -390 9722 0
49 -391 9707 0
49 -392 9720 0
49 -393 9710 0
49 -394 9740 0
49 -395 9741 0
49 -396 9742 0
49 -397 9723 0
49 -398 9728 0
49 -399 9729 0
49 -400 9730 0
49 -401 9708 0
49 -402 9721 0
49 -403 9741 0
49 -404 9742 0
49 -405 9743 0
49 -406 9744 0
49 -407 9745 0
49 -408 9746 0
49 -409 9747 0
49 -410 9748 0
49 -411 9729 0
49 -412 9730 0
49 -413 9732 0
49 -414 9733 0
49 -415 9734 0
49 -416 9735 0
49 -417 9736 0
49 -418 9737 0
49 -419 9713 0
49 -420 9731 0
49 -421 9739 0
49 -422 9740 0
49 -423 9741 0
49 -424 9742 0
49 -425 9743 0
49 -426 9744 0
49 -427 9745 0
49 -428 9746 0
49 -429 9727 0
49 -430 9728 0
49 -431 9729 0
49 -432 9730 0
49 -433 9732 0
49 -434 9733 0
49 -435 9734 0
49 -436 9735 0
49 -437 9709 0
49 -438 9722 0
49 -439 9710 0
49 -440 9723 0
49 -441 9740 0
49 -442 9746 0
49 -443 9748 0
49 -444 9728 0
49 -445 9735 0
49 -446 9737 0
49 -447 9710 0
49 -448 9723 0
49 -449 9709 0
49 -450 9711 0
49 -451 9748 0
49 -452 9722 0
49 -453 9724 0
49 -454 9737 0
49 -455 9712 0
49 -456 9713 0
49 -457 9725 0
49 -458 9731 0
49 -459 9741 0
49 -460 9742 0
49 -461 9743 0
49 -462 9744 0
49 -463 9745 0
49 -464 9746 0
49 -465 9747 0
49 -466 9748 0
49 -467 9729 0
49 -468 9730 0
49 -469 9732 0
49 -470 9733 0
49 -471 9734 0
49 -472 9735 0
49 -473 9736 0
49 -474 9737 0
49 -475 9707 0
49 -476 9720 0
49 -477 9740 0
49 -478 9742 0
49 -479 9744 0
49 -480 9746 0
49 -481 9728 0
49 -482 9730 0
49 -483 9733 0
49 -484 9735 0
49 -485 9702 0
49 -486 9703 0
49 -487 9704 0
49 -488 9705 0
49 -489 9706 0
49 -490 9710 0
49 -491 9746 0
49 -492 9747 0
49 -493 9715 0
49 -494 9716 0
49 -495 9717 0
49 -496 9718 0
49 -497 9719 0
49 -498 9723 0
49 -499 9735 0
49 -500 9736 0
49 -501 9738 0
49 -502 9739 0
49 -503 9740 0
49 -504 9741 0
49 -505 9742 0
49 -506 9743 0
49 -507 9744 0
49 -508 9745 0
49 -509 9746 0
49 -510 9747 0
49 -511 9748 0
49 -512 9726 0
49 -513 9727 0
49 -514 9728 0
49 -515 9729 0
49 -516 9730 0
49 -517 9732 0
49 -518 9733 0
49 -519 9734 0
49 -520 9735 0
49 -521 9736 0
49 -522 9737 0
49 -523 9739 0
49 -524 9740 0
49 -525 9741 0
49 -526 9742 0
49 -527 9743 0
49 -528 9744 0
49 -529 9745 0
49 -530 9727 0
49 -531 9728 0
49 -532 9729 0
49 -533 9730 0
49 -534 9732 0
49 -535 9733 0
49 -536 9734 0
49 -537 9708 0
49 -538 9721 0
49 -539 9701 0
49 -540 9702 0
49 -541 9703 0
49 -542 9704 0
49 -543 9706 0
49 -544 9714 0
49 -545 9715 0
49 -546 9716 0
49 -547 9717 0
49 -548 9719 0
49 -549 9740 0
49 -550 9741 0
49 -551 9742 0
49 -552 9743 0
49 -553 9744 0
49 -554 9745 0
49 -555 9746 0
49 -556 9747 0
49 -557 9728 0
49 -558 9729 0
49 -559 9730 0
49 -560 9732 0
49 -561 9733 0
49 -562 9734 0
49 -563 9735 0
49 -564 9736 0
49 -565 9740 0
49 -566 9741 0
49 -567 9742 0
49 -568 9743 0
49 -569 9744 0
49 -570 9745 0
49 -571 9746 0
49 -572 9747 0
49 -573 9728 0
49 -574 9729 0
49 -575 9730 0
49 -576 9732 0
49 -577 9733 0
49 -578 9734 0
49 -579 9735 0
49 -580 9736 0
49 -581 9708 0
49 -582 9738 0
49 -583 9739 0
49 -584 9740 0
49 -585 9721 0
49 -586 9726 0
49 -587 9727 0
49 -588 9728 0
49 -589 9707 0
49 -590 9720 0
49 -591 9740 0
49 -592 9728 0
49 -593 9705 0
49 -594 9718 0
49 -595 9702 0
49 -596 9710 0
49 -597 9740 0
49 -598 9741 0
49 -599 9742 0
49 -600 9743 0
49 -601 9744 0
49 -602 9745 0
49 -603 9746 0
49 -604 9747 0
49 -605 9715 0
49 -606 9723 0
49 -607 9728 0
49 -608 9729 0
49 -609 9730 0
49 -610 9732 0
49 -611 9733 0
49 -612 9734 0
49 -613 9735 0
49 -614 9736 0
49 -615 9712 0
49 -616 9713 0
49 -617 9725 0
49 -618 9731 0
49 -619 9702 0
49 -620 9703 0
49 -621 9709 0
49 -622 9715 0
49 -623 9716 0
49 -624 9722 0
49 -625 9709 0
49 -626 9722 0
49 -627 9711 0
49 -628 9724 0
49 -629 9706 0
49 -630 9719 0
49 -631 9708 0
49 -632 9721 0
49 -633 9705 0
49 -634 9718 0
49 -635 9707 0
49 -636 9720 0
49 -637 9706 0
49 -638 9719 0
49 -639 9709 0
49 -640 9722 0
49 -641 9710 0
49 -642 9723 0
49 -643 9705 0
49 -644 9718 0
49 -645 9711 0
49 -646 9742 0
49 -647 9743 0
49 -648 9744 0
49 -649 9745 0
49 -650 9746 0
49 -651 9747 0
49 -652 9748 0
49 -653 9724 0
49 -654 9730 0
49 -655 9732 0
49 -656 9733 0
49 -657 9734 0
49 -658 9735 0
49 -659 9736 0
49 -660 9737 0
49 -661 9703 0
49 -662 9704 0
49 -663 9705 0
49 -664 9706 0
49 -665 9716 0
49 -666 9717 0
49 -667 9718 0
49 -668 9719 0
49 -669 9707 0
49 -670 9720 0
49 -671 9702 0
49 -672 9704 0
49 -673 9706 0
49 -674 9715 0
49 -675 9717 0
49 -676 9719 0
49 -677 9713 0
49 -678 9731 0
49 -679 9711 0
49 -680 9724 0
49 -681 9704 0
49 -682 9705 0
49 -683 9706 0
49 -684 9707 0
49 -685 9717 0
49 -686 9718 0
49 -687 9719 0
49 -688 9720 0
49 -689 9741 0
49 -690 9742 0
49 -691 9743 0
49 -692 9744 0
49 -693 9745 0
49 -694 9746 0
49 -695 9747 0
49 -696 9748 0
49 -697 9729 0
49 -698 9730 0
49 -699 9732 0
49 -700 9733 0
49 -701 9734 0
49 -702 9735 0
49 -703 9736 0
49 -704 9737 0
49 -705 9712 0
49 -706 9725 0
49 -707 9710 0
49 -708 9723 0
49 -709 9713 0
49 -710 9731 0
49 -711 9712 0
49 -712 9725 0
49 -713 9705 0
49 -714 9718 0
49 -715 9709 0
49 -716 9722 0
49 -717 9709 0
49 -718 9722 0
49 -719 9712 0
49 -720 9725 0
49 -721 9709 0
49 -722 9722 0
49 -723 9702 0
49 -724 9703 0
49 -725 9704 0
49 -726 9705 0
49 -727 9715 0
49 -728 9716 0
49 -729 9717 0
49 -730 9718 0
49 -731 9741 0
49 -732 9744 0
49 -733 9745 0
49 -734 9746 0
49 -735 9747 0
49 -736 9748 0
49 -737 9729 0
49 -738 9733 0
49 -739 9734 0
49 -740 9735 0
49 -741 9736 0
49 -742 9737 0
49 -743 9739 0
49 -744 9740 0
49 -745 9741 0
49 -746 9742 0
49 -747 9743 0
49 -748 9744 0
49 -749 9745 0
49 -750 9746 0
49 -751 9747 0
49 -752 9748 0
49 -753 9727 0
49 -754 9728 0
49 -755 9729 0
49 -756 9730 0
49 -757 9732 0
49 -758 9733 0
49 -759 9734 0
49 -760 9735 0
49 -761 9736 0
49 -762 9737 0
49 -763 9740 0
49 -764 9745 0
49 -765 9746 0
49 -766 9747 0
49 -767 9728 0
49 -768 9734 0
49 -769 9735 0
49 -770 9736 0
49 -771 9741 0
49 -772 9742 0
49 -773 9743 0
49 -774 9744 0
49 -775 9745 0
49 -776 9746 0
49 -777 9747 0
49 -778 9748 0
49 -779 9729 0
49 -780 9730 0
49 -781 9732 0
49 -782 9733 0
49 -783 9734 0
49 -784 9735 0
49 -785 9736 0
49 -786 9737 0
49 -787 9705 0
49 -788 9718 0
49 -789 9712 0
49 -790 9725 0
49 -791 9741 0
49 -792 9742 0
49 -793 9743 0
49 -794 9744 0
49 -795 9745 0
49 -796 9746 0
49 -797 9747 0
49 -798 9748 0
49 -799 9729 0
49 -800 9730 0
49 -801 9732 0
49 -802 9733 0
49 -803 9734 0
49 -804 9735 0
49 -805 9736 0
49 -806 9737 0
49 -807 9706 0
49 -808 9719 0
49 -809 9707 0
49 -810 9720 0
49 -811 9709 0
49 -812 9722 0
49 -813 9706 0
49 -814 9719 0
49 -815 9712 0
49 -816 9725 0
49 -817 9711 0
49 -818 9740 0
49 -819 9741 0
49 -820 9724 0
49 -821 9728 0
49 -822 9729 0
49 -823 9712 0
49 -824 9725 0
49 -825 9705 0
49 -826 9718 0
49 -827 9710 0
49 -828 9723 0
49 -829 9707 0
49 -830 9708 0
49 -831 9709 0
49 -832 9710 0
49 -833 9715 0
49 -834 9716 0
49 -835 9717 0
49 -836 9718 0
49 -837 9719 0
49 -838 9720 0
49 -839 9721 0
49 -840 9722 0
49 -841 9723 0
49 -842 9739 0
49 -843 9740 0
49 -844 9702 0
49 -845 9703 0
49 -846 9704 0
49 -847 9705 0
49 -848 9706 0
49 -849 9707 0
49 -850 9708 0
49 -851 9709 0
49 -852 9710 0
49 -853 9720 0
49 -854 9721 0
49 -855 9722 0
49 -856 9723 0
49 -857 9727 0
49 -858 9728 0
49 -859 9702 0
49 -860 9703 0
49 -861 9704 0
49 -862 9705 0
49 -863 9709 0
49 -864 9715 0
49 -865 9716 0
49 -866 9717 0
49 -867 9718 0
49 -868 9722 0
49 -869 9705 0
49 -870 9718 0
49 -871 9706 0
49 -872 9719 0
49 -873 9705 0
49 -874 9718 0
49 -875 9706 0
49 -876 9707 0
49 -877 9708 0
49 -878 9709 0
49 -879 9710 0
49 -880 9711 0
49 -881 9726 0
49 -882 9727 0
49 -883 9728 0
49 -884 9729 0
49 -885 9730 0
49 -886 9732 0
49 -887 9733 0
49 -888 9734 0
49 -889 9735 0
49 -890 9736 0
49 -891 9737 0
49 -892 9738 0
49 -893 9739 0
49 -894 9740 0
49 -895 9741 0
49 -896 9742 0
49 -897 9743 0
49 -898 9744 0
49 -899 9745 0
49 -900 9746 0
49 -901 9747 0
49 -902 9748 0
49 -903 9719 0
49 -904 9720 0
49 -905 9721 0
49 -906 9722 0
49 -907 9723 0
49 -908 9724 0
49 -909 9726 0
49 -910 9727 0
49 -911 9728 0
49 -912 9729 0
49 -913 9730 0
49 -914 9732 0
49 -915 9733 0
49 -916 9734 0
49 -917 9735 0
49 -918 9736 0
49 -919 9737 0
49 -920 9738 0
49 -921 9739 0
49 -922 9740 0
49 -923 9741 0
49 -924 9742 0
49 -925 9743 0
49 -926 9744 0
49 -927 9745 0
49 -928 9746 0
49 -929 9747 0
49 -930 9748 0
49 -931 9702 0
49 -932 9703 0
49 -933 9704 0
49 -934 9705 0
49 -935 9706 0
49 -936 9707 0
49 -937 9715 0
49 -938 9716 0
49 -939 9717 0
49 -940 9718 0
49 -941 9719 0
49 -942 9720 0
49 -943 9708 0
49 -944 9721 0
49 -945 9712 0
49 -946 9725 0
49 -947 9701 0
49 -948 9702 0
49 -949 9703 0
49 -950 9704 0
49 -951 9705 0
49 -952 9706 0
49 -953 9708 0
49 -954 9714 0
49 -955 9701 0
49 -956 9714 0
49 -957 9715 0
49 -958 9716 0
49 -959 9717 0
49 -960 9718 0
49 -961 9719 0
49 -962 9721 0
49 -963 9741 0
49 -964 9742 0
49 -965 9743 0
49 -966 9744 0
49 -967 9745 0
49 -968 9746 0
49 -969 9747 0
49 -970 9748 0
49 -971 9729 0
49 -972 9730 0
49 -973 9732 0
49 -974 9733 0
49 -975 9734 0
49 -976 9735 0
49 -977 9736 0
49 -978 9737 0
49 -979 9741 0
49 -980 9742 0
49 -981 9743 0
49 -982 9744 0
49 -983 9745 0
49 -984 9746 0
49 -985 9747 0
49 -986 9748 0
49 -987 9729 0
49 -988 9730 0
49 -989 9732 0
49 -990 9733 0
49 -991 9734 0
49 -992 9735 0
49 -993 9736 0
49 -994 9737 0
49 -995 9739 0
49 -996 9740 0
49 -997 9741 0
49 -998 9742 0
49 -999 9743 0
49 -1000 9744 0
49 -1001 9745 0
49 -1002 9746 0
49 -1003 9727 0
49 -1004 9728 0
49 -1005 9729 0
49 -1006 9730 0
49 -1007 9732 0
49 -1008 9733 0
49 -1009 9734 0
49 -1010 9735 0
49 -1011 9708 0
49 -1012 9721 0
49 -1013 9707 0
49 -1014 9720 0
49 -1015 9713 0
49 -1016 9731 0
49 -1017 9711 0
49 -1018 9724 0
49 -1019 9707 0
49 -1020 9720 0
49 -1021 9741 0
49 -1022 9742 0
49 -1023 9743 0
49 -1024 9744 0
49 -1025 9745 0
49 -1026 9746 0
49 -1027 9747 0
49 -1028 9748 0
49 -1029 9729 0
49 -1030 9730 0
49 -1031 9732 0
49 -1032 9733 0
49 -1033 9734 0
49 -1034 9735 0
49 -1035 9736 0
49 -1036 9737 0
49 -1037 9740 0
49 -1038 9728 0
49 -1039 9741 0
49 -1040 9742 0
49 -1041 9743 0
49 -1042 9744 0
49 -1043 9745 0
49 -1044 9746 0
49 -1045 9747 0
49 -1046 9748 0
49 -1047 9729 0
49 -1048 9730 0
49 -1049 9732 0
49 -1050 9733 0
49 -1051 9734 0
49 -1052 9735 0
49 -1053 9736 0
49 -1054 9737 0
49 -1055 9713 0
49 -1056 9731 0
49 -1057 9705 0
49 -1058 9718 0
49 -1059 9709 0
49 -1060 9722 0
49 -1061 9741 0
49 -1062 9729 0
49 -1063 9739 0
49 -1064 9740 0
49 -1065 9741 0
49 -1066 9742 0
49 -1067 9743 0
49 -1068 9744 0
49 -1069 9745 0
49 -1070 9746 0
49 -1071 9727 0
49 -1072 9728 0
49 -1073 9729 0
49 -1074 9730 0
49 -1075 9732 0
49 -1076 9733 0
49 -1077 9734 0
49 -1078 9735 0
49 -1079 9741 0
49 -1080 9742 0
49 -1081 9743 0
49 -1082 9744 0
49 -1083 9745 0
49 -1084 9746 0
49 -1085 9747 0
49 -1086 9748 0
49 -1087 9729 0
49 -1088 9730 0
49 -1089 9732 0
49 -1090 9733 0
49 -1091 9734 0
49 -1092 9735 0
49 -1093 9736 0
49 -1094 9737 0
49 -1095 9709 0
49 -1096 9722 0
49 -1097 9705 0
49 -1098 9718 0
49 -1099 9738 0
49 -1100 9726 0
49 -1101 9705 0
49 -1102 9718 0
49 -1103 9740 0
49 -1104 9728 0
49 -1105 9709 0
49 -1106 9722 0
49 -1107 9740 0
49 -1108 9746 0
49 -1109 9747 0
49 -1110 9728 0
49 -1111 9735 0
49 -1112 9736 0
49 -1113 9708 0
49 -1114 9721 0
49 -1115 9740 0
49 -1116 9741 0
49 -1117 9742 0
49 -1118 9743 0
49 -1119 9744 0
49 -1120 9745 0
49 -1121 9746 0
49 -1122 9747 0
49 -1123 9728 0
49 -1124 9729 0
49 -1125 9730 0
49 -1126 9732 0
49 -1127 9733 0
49 -1128 9734 0
49 -1129 9735 0
49 -1130 9736 0
49 -1131 9709 0
49 -1132 9722 0
49 -1133 9713 0
49 -1134 9731 0
49 -1135 9741 0
49 -1136 9742 0
49 -1137 9743 0
49 -1138 9744 0
49 -1139 9745 0
49 -1140 9746 0
49 -1141 9747 0
49 -1142 9748 0
49 -1143 9729 0
49 -1144 9730 0
49 -1145 9732 0
49 -1146 9733 0
49 -1147 9734 0
49 -1148 9735 0
49 -1149 9736 0
49 -1150 9737 0
49 -1151 9710 0
49 -1152 9739 0
49 -1153 9740 0
49 -1154 9741 0
49 -1155 9723 0
49 -1156 9727 0
49 -1157 9728 0
49 -1158 9729 0
49 -1159 9701 0
49 -1160 9707 0
49 -1161 9711 0
49 -1162 9714 0
49 -1163 9715 0
49 -1164 9716 0
49 -1165 9717 0
49 -1166 9718 0
49 -1167 9719 0
49 -1168 9720 0
49 -1169 9721 0
49 -1170 9722 0
49 -1171 9723 0
49 -1172 9724 0
49 -1173 9701 0
49 -1174 9702 0
49 -1175 9703 0
49 -1176 9704 0
49 -1177 9705 0
49 -1178 9706 0
49 -1179 9707 0
49 -1180 9708 0
49 -1181 9709 0
49 -1182 9710 0
49 -1183 9711 0
49 -1184 9714 0
49 -1185 9720 0
49 -1186 9724 0
49 -1187 9710 0
49 -1188 9712 0
49 -1189 9713 0
49 -1190 9723 0
49 -1191 9725 0
49 -1192 9731 0
49 -1193 9739 0
49 -1194 9727 0
49 -1195 9702 0
49 -1196 9703 0
49 -1197 9704 0
49 -1198 9705 0
49 -1199 9706 0
49 -1200 9707 0
49 -1201 9715 0
49 -1202 9716 0
49 -1203 9717 0
49 -1204 9718 0
49 -1205 9719 0
49 -1206 9720 0
49 -1207 9710 0
49 -1208 9723 0
49 -1209 9712 0
49 -1210 9725 0
49 -1211 9711 0
49 -1212 9714 0
49 -1213 9715 0
49 -1214 9716 0
49 -1215 9717 0
49 -1216 9718 0
49 -1217 9719 0
49 -1218 9701 0
49 -1219 9702 0
49 -1220 9703 0
49 -1221 9704 0
49 -1222 9705 0
49 -1223 9706 0
49 -1224 9724 0
49 -1225 9709 0
49 -1226 9722 0
49 -1227 9712 0
49 -1228 9713 0
49 -1229 9725 0
49 -1230 9731 0
49 -1231 9713 0
49 -1232 9731 0
49 -1233 9705 0
49 -1234 9718 0
49 -1235 9739 0
49 -1236 9741 0
49 -1237 9742 0
49 -1238 9743 0
49 -1239 9744 0
49 -1240 9745 0
49 -1241 9746 0
49 -1242 9727 0
49 -1243 9729 0
49 -1244 9730 0
49 -1245 9732 0
49 -1246 9733 0
49 -1247 9734 0
49 -1248 9735 0
49 -1249 9702 0
49 -1250 9703 0
49 -1251 9704 0
49 -1252 9705 0
49 -1253 9715 0
49 -1254 9716 0
49 -1255 9717 0
49 -1256 9718 0
49 -1257 9708 0
49 -1258 9721 0
49 -1259 9707 0
49 -1260 9720 0
49 -1261 9706 0
49 -1262 9743 0
49 -1263 9744 0
49 -1264 9745 0
49 -1265 9746 0
49 -1266 9747 0
49 -1267 9748 0
49 -1268 9719 0
49 -1269 9732 0
49 -1270 9733 0
49 -1271 9734 0
49 -1272 9735 0
49 -1273 9736 0
49 -1274 9737 0
49 -1275 9740 0
49 -1276 9741 0
49 -1277 9742 0
49 -1278 9743 0
49 -1279 9744 0
49 -1280 9745 0
49 -1281 9746 0
49 -1282 9747 0
49 -1283 9728 0
49 -1284 9729 0
49 -1285 9730 0
49 -1286 9732 0
49 -1287 9733 0
49 -1288 9734 0
49 -1289 9735 0
49 -1290 9736 0
49 -1291 9711 0
49 -1292 9744 0
49 -1293 9745 0
49 -1294 9746 0
49 -1295 9747 0
49 -1296 9748 0
49 -1297 9724 0
49 -1298 9733 0
49 -1299 9734 0
49 -1300 9735 0
49 -1301 9736 0
49 -1302 9737 0
49 -1303 9711 0
49 -1304 9724 0
49 -1305 9740 0
49 -1306 9745 0
49 -1307 9746 0
49 -1308 9747 0
49 -1309 9728 0
49 -1310 9734 0
49 -1311 9735 0
49 -1312 9736 0
49 -1313 9710 0
49 -1314 9723 0
49 -1315 9709 0
49 -1316 9722 0
49 -1317 9709 0
49 -1318 9722 0
49 -1319 9709 0
49 -1320 9722 0
49 -1321 9741 0
49 -1322 9744 0
49 -1323 9745 0
49 -1324 9746 0
49 -1325 9747 0
49 -1326 9748 0
49 -1327 9729 0
49 -1328 9733 0
49 -1329 9734 0
49 -1330 9735 0
49 -1331 9736 0
49 -1332 9737 0
49 -1333 9712 0
49 -1334 9725 0
49 -1335 9711 0
49 -1336 9724 0
49 -1337 9738 0
49 -1338 9726 0
49 -1339 9713 0
49 -1340 9731 0
49 -1341 9741 0
49 -1342 9742 0
49 -1343 9743 0
49 -1344 9744 0
49 -1345 9745 0
49 -1346 9746 0
49 -1347 9747 0
49 -1348 9748 0
49 -1349 9729 0
49 -1350 9730 0
49 -1351 9732 0
49 -1352 9733 0
49 -1353 9734 0
49 -1354 9735 0
49 -1355 9736 0
49 -1356 9737 0
49 -1357 9713 0
49 -1358 9731 0
49 -1359 9713 0
49 -1360 9731 0
49 -1361 9711 0
49 -1362 9724 0
49 -1363 9711 0
49 -1364 9724 0
49 -1365 9710 0
49 -1366 9746 0
49 -1367 9747 0
49 -1368 9723 0
49 -1369 9735 0
49 -1370 9736 0
49 -1371 9711 0
49 -1372 9737 0
49 -1373 9738 0
49 -1374 9739 0
49 -1375 9740 0
49 -1376 9741 0
49 -1377 9742 0
49 -1378 9743 0
49 -1379 9746 0
49 -1380 9747 0
49 -1381 9748 0
49 -1382 9724 0
49 -1383 9726 0
49 -1384 9727 0
49 -1385 9728 0
49 -1386 9729 0
49 -1387 9730 0
49 -1388 9732 0
49 -1389 9735 0
49 -1390 9736 0
49 -1391 9737 0
49 -1392 9748 0
49 -1393 9708 0
49 -1394 9721 0
49 -1395 9705 0
49 -1396 9736 0
49 -1397 9737 0
49 -1398 9738 0
49 -1399 9739 0
49 -1400 9740 0
49 -1401 9741 0
49 -1402 9742 0
49 -1403 9743 0
49 -1404 9744 0
49 -1405 9745 0
49 -1406 9746 0
49 -1407 9747 0
49 -1408 9748 0
49 -1409 9718 0
49 -1410 9726 0
49 -1411 9727 0
49 -1412 9728 0
49 -1413 9729 0
49 -1414 9730 0
49 -1415 9732 0
49 -1416 9733 0
49 -1417 9734 0
49 -1418 9735 0
49 -1419 9736 0
49 -1420 9737 0
49 -1421 9747 0
49 -1422 9748 0
49 -1423 9707 0
49 -1424 9720 0
49 -1425 9710 0
49 -1426 9723 0
49 -1427 9710 0
49 -1428 9723 0
49 -1429 9705 0
49 -1430 9745 0
49 -1431 9746 0
49 -1432 9747 0
49 -1433 9748 0
49 -1434 9718 0
49 -1435 9734 0
49 -1436 9735 0
49 -1437 9736 0
49 -1438 9737 0
49 -1439 9711 0
49 -1440 9724 0
49 -1441 9707 0
49 -1442 9720 0
49 -1443 9741 0
49 -1444 9744 0
49 -1445 9745 0
49 -1446 9746 0
49 -1447 9747 0
49 -1448 9748 0
49 -1449 9729 0
49 -1450 9733 0
49 -1451 9734 0
49 -1452 9735 0
49 -1453 9736 0
49 -1454 9737 0
49 -1455 9704 0
49 -1456 9705 0
49 -1457 9706 0
49 -1458 9707 0
49 -1459 9708 0
49 -1460 9709 0
49 -1461 9710 0
49 -1462 9717 0
49 -1463 9718 0
49 -1464 9719 0
49 -1465 9720 0
49 -1466 9721 0
49 -1467 9722 0
49 -1468 9723 0
49 -1469 9709 0
49 -1470 9722 0
49 -1471 9705 0
49 -1472 9718 0
49 -1473 9741 0
49 -1474 9742 0
49 -1475 9743 0
49 -1476 9744 0
49 -1477 9745 0
49 -1478 9746 0
49 -1479 9747 0
49 -1480 9748 0
49 -1481 9729 0
49 -1482 9730 0
49 -1483 9732 0
49 -1484 9733 0
49 -1485 9734 0
49 -1486 9735 0
49 -1487 9736 0
49 -1488 9737 0
49 -1489 9741 0
49 -1490 9742 0
49 -1491 9743 0
49 -1492 9744 0
49 -1493 9745 0
49 -1494 9746 0
49 -1495 9747 0
49 -1496 9748 0
49 -1497 9729 0
49 -1498 9730 0
49 -1499 9732 0
49 -1500 9733 0
49 -1501 9734 0
49 -1502 9735 0
49 -1503 9736 0
49 -1504 9737 0
49 -1505 9738 0
49 -1506 9726 0
49 -1507 9739 0
49 -1508 9740 0
49 -1509 9741 0
49 -1510 9742 0
49 -1511 9743 0
49 -1512 9744 0
49 -1513 9745 0
49 -1514 9746 0
49 -1515 9747 0
49 -1516 9748 0
49 -1517 9727 0
49 -1518 9728 0
49 -1519 9729 0
49 -1520 9730 0
49 -1521 9732 0
49 -1522 9733 0
49 -1523 9734 0
49 -1524 9735 0
49 -1525 9736 0
49 -1526 9737 0
49 -1527 9702 0
49 -1528 9703 0
49 -1529 9704 0
49 -1530 9705 0
49 -1531 9706 0
49 -1532 9707 0
49 -1533 9723 0
49 -1534 9727 0
49 -1535 9728 0
49 -1536 9729 0
49 -1537 9730 0
49 -1538 9732 0
49 -1539 9733 0
49 -1540 9734 0
49 -1541 9735 0
49 -1542 9736 0
49 -1543 9744 0
49 -1544 9745 0
49 -1545 9746 0
49 -1546 9747 0
49 -1547 9710 0
49 -1548 9715 0
49 -1549 9716 0
49 -1550 9717 0
49 -1551 9718 0
49 -1552 9719 0
49 -1553 9720 0
49 -1554 9733 0
49 -1555 9734 0
49 -1556 9735 0
49 -1557 9736 0
49 -1558 9739 0
49 -1559 9740 0
49 -1560 9741 0
49 -1561 9742 0
49 -1562 9743 0
49 -1563 9744 0
49 -1564 9745 0
49 -1565 9746 0
49 -1566 9747 0
49 -1567 9741 0
49 -1568 9742 0
49 -1569 9743 0
49 -1570 9744 0
49 -1571 9745 0
49 -1572 9746 0
49 -1573 9747 0
49 -1574 9748 0
49 -1575 9729 0
49 -1576 9730 0
49 -1577 9732 0
49 -1578 9733 0
49 -1579 9734 0
49 -1580 9735 0
49 -1581 9736 0
49 -1582 9737 0
49 -1583 9738 0
49 -1584 9739 0
49 -1585 9740 0
49 -1586 9741 0
49 -1587 9742 0
49 -1588 9743 0
49 -1589 9744 0
49 -1590 9745 0
49 -1591 9726 0
49 -1592 9727 0
49 -1593 9728 0
49 -1594 9729 0
49 -1595 9730 0
49 -1596 9732 0
49 -1597 9733 0
49 -1598 9734 0
49 -1599 9708 0
49 -1600 9721 0
49 -1601 9741 0
49 -1602 9744 0
49 -1603 9745 0
49 -1604 9746 0
49 -1605 9747 0
49 -1606 9748 0
49 -1607 9729 0
49 -1608 9733 0
49 -1609 9734 0
49 -1610 9735 0
49 -1611 9736 0
49 -1612 9737 0
49 -1613 9710 0
49 -1614 9723 0
49 -1615 9738 0
49 -1616 9739 0
49 -1617 9740 0
49 -1618 9741 0
49 -1619 9742 0
49 -1620 9743 0
49 -1621 9744 0
49 -1622 9745 0
49 -1623 9726 0
49 -1624 9727 0
49 -1625 9728 0
49 -1626 9729 0
49 -1627 9730 0
49 -1628 9732 0
49 -1629 9733 0
49 -1630 9734 0
49 -1631 9712 0
49 -1632 9725 0
49 -1633 9711 0
49 -1634 9724 0
49 -1635 9739 0
49 -1636 9727 0
49 -1637 9708 0
49 -1638 9721 0
49 -1639 9740 0
49 -1640 9728 0
49 -1641 9701 0
49 -1642 9702 0
49 -1643 9708 0
49 -1644 9738 0
49 -1645 9739 0
49 -1646 9740 0
49 -1647 9714 0
49 -1648 9715 0
49 -1649 9721 0
49 -1650 9726 0
49 -1651 9727 0
49 -1652 9728 0
49 -1653 9707 0
49 -1654 9720 0
49 -1655 9740 0
49 -1656 9741 0
49 -1657 9742 0
49 -1658 9743 0
49 -1659 9744 0
49 -1660 9745 0
49 -1661 9746 0
49 -1662 9747 0
49 -1663 9728 0
49 -1664 9729 0
49 -1665 9730 0
49 -1666 9732 0
49 -1667 9733 0
49 -1668 9734 0
49 -1669 9735 0
49 -1670 9736 0
49 -1671 9706 0
49 -1672 9719 0
49 -1673 9739 0
49 -1674 9746 0
49 -1675 9727 0
49 -1676 9735 0
49 -1677 9741 0
49 -1678 9742 0
49 -1679 9743 0
49 -1680 9744 0
49 -1681 9745 0
49 -1682 9746 0
49 -1683 9747 0
49 -1684 9748 0
49 -1685 9729 0
49 -1686 9730 0
49 -1687 9732 0
49 -1688 9733 0
49 -1689 9734 0
49 -1690 9735 0
49 -1691 9736 0
49 -1692 9737 0
49 -1693 9710 0
49 -1694 9723 0
49 -1695 9708 0
49 -1696 9721 0
49 -1697 9710 0
49 -1698 9747 0
49 -1699 9723 0
49 -1700 9736 0
49 -1701 9740 0
49 -1702 9741 0
49 -1703 9742 0
49 -1704 9743 0
49 -1705 9744 0
49 -1706 9745 0
49 -1707 9746 0
49 -1708 9747 0
49 -1709 9728 0
49 -1710 9729 0
49 -1711 9730 0
49 -1712 9732 0
49 -1713 9733 0
49 -1714 9734 0
49 -1715 9735 0
49 -1716 9736 0
49 -1717 9705 0
49 -1718 9718 0
49 -1719 9707 0
49 -1720 9720 0
49 -1721 9741 0
49 -1722 9729 0
49 -1723 9713 0
49 -1724 9731 0
49 -1725 9713 0
49 -1726 9731 0
49 -1727 9712 0
49 -1728 9725 0
49 -1729 9739 0
49 -1730 9740 0
49 -1731 9741 0
49 -1732 9742 0
49 -1733 9743 0
49 -1734 9744 0
49 -1735 9745 0
49 -1736 9746 0
49 -1737 9727 0
49 -1738 9728 0
49 -1739 9729 0
49 -1740 9730 0
49 -1741 9732 0
49 -1742 9733 0
49 -1743 9734 0
49 -1744 9735 0
49 -1745 9712 0
49 -1746 9725 0
49 -1747 9706 0
49 -1748 9719 0
49 -1749 9739 0
49 -1750 9740 0
49 -1751 9741 0
49 -1752 9742 0
49 -1753 9743 0
49 -1754 9744 0
49 -1755 9745 0
49 -1756 9746 0
49 -1757 9727 0
49 -1758 9728 0
49 -1759 9729 0
49 -1760 9730 0
49 -1761 9732 0
49 -1762 9733 0
49 -1763 9734 0
49 -1764 9735 0
49 -1765 9710 0
49 -1766 9723 0
49 -1767 9710 0
49 -1768 9723 0
49 -1769 9710 0
49 -1770 9712 0
49 -1771 9723 0
49 -1772 9725 0
49 -1773 9713 0
49 -1774 9731 0
49 -1775 9710 0
49 -1776 9723 0
49 -1777 9702 0
49 -1778 9703 0
49 -1779 9707 0
49 -1780 9709 0
49 -1781 9710 0
49 -1782 9715 0
49 -1783 9716 0
49 -1784 9736 0
49 -1785 9739 0
49 -1786 9702 0
49 -1787 9703 0
49 -1788 9715 0
49 -1789 9716 0
49 -1790 9720 0
49 -1791 9722 0
49 -1792 9723 0
49 -1793 9727 0
49 -1794 9747 0
49 -1795 9701 0
49 -1796 9702 0
49 -1797 9703 0
49 -1798 9704 0
49 -1799 9708 0
49 -1800 9714 0
49 -1801 9715 0
49 -1802 9716 0
49 -1803 9717 0
49 -1804 9721 0
49 -1805 9713 0
49 -1806 9723 0
49 -1807 9710 0
49 -1808 9731 0
49 -1809 9709 0
49 -1810 9722 0
49 -1811 9712 0
49 -1812 9725 0
49 -1813 9707 0
49 -1814 9720 0
49 -1815 9713 0
49 -1816 9731 0
49 -1817 9738 0
49 -1818 9739 0
49 -1819 9740 0
49 -1820 9741 0
49 -1821 9742 0
49 -1822 9743 0
49 -1823 9744 0
49 -1824 9745 0
49 -1825 9746 0
49 -1826 9747 0
49 -1827 9748 0
49 -1828 9726 0
49 -1829 9727 0
49 -1830 9728 0
49 -1831 9729 0
49 -1832 9730 0
49 -1833 9732 0
49 -1834 9733 0
49 -1835 9734 0
49 -1836 9735 0
49 -1837 9736 0
49 -1838 9737 0
49 -1839 9740 0
49 -1840 9728 0
49 -1841 9741 0
49 -1842 9729 0
49 -1843 9706 0
49 -1844 9719 0
49 -1845 9706 0
49 -1846 9719 0
49 -1847 9708 0
49 -1848 9721 0
49 -1849 9741 0
49 -1850 9742 0
49 -1851 9743 0
49 -1852 9744 0
49 -1853 9745 0
49 -1854 9746 0
49 -1855 9747 0
49 -1856 9748 0
49 -1857 9729 0
49 -1858 9730 0
49 -1859 9732 0
49 -1860 9733 0
49 -1861 9734 0
49 -1862 9735 0
49 -1863 9736 0
49 -1864 9737 0
49 -1865 9706 0
49 -1866 9719 0
49 -1867 9738 0
49 -1868 9747 0
49 -1869 9748 0
49 -1870 9726 0
49 -1871 9736 0
49 -1872 9737 0
49 -1873 9712 0
49 -1874 9725 0
49 -1875 9705 0
49 -1876 9718 0
49 -1877 9712 0
49 -1878 9725 0
49 -1879 9709 0
49 -1880 9722 0
49 -1881 9739 0
49 -1882 9747 0
49 -1883 9748 0
49 -1884 9727 0
49 -1885 9736 0
49 -1886 9737 0
49 -1887 9740 0
49 -1888 9728 0
49 -1889 9711 0
49 -1890 9724 0
49 -1891 9712 0
49 -1892 9725 0
49 -1893 9741 0
49 -1894 9729 0
49 -1895 9713 0
49 -1896 9731 0
49 -1897 9709 0
49 -1898 9722 0
49 -1899 9712 0
49 -1900 9725 0
49 -1901 9705 0
49 -1902 9718 0
49 -1903 9707 0
49 -1904 9720 0
49 -1905 9713 0
49 -1906 9731 0
49 -1907 9705 0
49 -1908 9718 0
49 -1909 9709 0
49 -1910 9739 0
49 -1911 9740 0
49 -1912 9741 0
49 -1913 9742 0
49 -1914 9743 0
49 -1915 9744 0
49 -1916 9745 0
49 -1917 9746 0
49 -1918 9747 0
49 -1919 9748 0
49 -1920 9722 0
49 -1921 9727 0
49 -1922 9728 0
49 -1923 9729 0
49 -1924 9730 0
49 -1925 9732 0
49 -1926 9733 0
49 -1927 9734 0
49 -1928 9735 0
49 -1929 9736 0
49 -1930 9737 0
49 -1931 9738 0
49 -1932 9726 0
49 -1933 9706 0
49 -1934 9719 0
49 -1935 9711 0
49 -1936 9724 0
49 -1937 9712 0
49 -1938 9725 0
49 -1939 9705 0
49 -1940 9718 0
49 -1941 9706 0
49 -1942 9719 0
49 -1943 9741 0
49 -1944 9745 0
49 -1945 9746 0
49 -1946 9747 0
49 -1947 9748 0
49 -1948 9729 0
49 -1949 9734 0
49 -1950 9735 0
49 -1951 9736 0
49 -1952 9737 0
49 -1953 9740 0
49 -1954 9741 0
49 -1955 9742 0
49 -1956 9743 0
49 -1957 9744 0
49 -1958 9745 0
49 -1959 9746 0
49 -1960 9747 0
49 -1961 9728 0
49 -1962 9729 0
49 -1963 9730 0
49 -1964 9732 0
49 -1965 9733 0
49 -1966 9734 0
49 -1967 9735 0
49 -1968 9736 0
49 -1969 9740 0
49 -1970 9745 0
49 -1971 9746 0
49 -1972 9728 0
49 -1973 9734 0
49 -1974 9735 0
49 -1975 9705 0
49 -1976 9718 0
49 -1977 9708 0
49 -1978 9721 0
49 -1979 9741 0
49 -1980 9742 0
49 -1981 9743 0
49 -1982 9744 0
49 -1983 9745 0
49 -1984 9746 0
49 -1985 9747 0
49 -1986 9748 0
49 -1987 9729 0
49 -1988 9730 0
49 -1989 9732 0
49 -1990 9733 0
49 -1991 9734 0
49 -1992 9735 0
49 -1993 9736 0
49 -1994 9737 0
49 -1995 9713 0
49 -1996 9731 0
49 -1997 9701 0
49 -1998 9702 0
49 -1999 9703 0
49 -2000 9738 0
49 -2001 9739 0
49 -2002 9740 0
49 -2003 9741 0
49 -2004 9742 0
49 -2005 9743 0
49 -2006 9744 0
49 -2007 9745 0
49 -2008 9746 0
49 -2009 9747 0
49 -2010 9748 0
49 -2011 9714 0
49 -2012 9715 0
49 -2013 9716 0
49 -2014 9726 0
49 -2015 9727 0
49 -2016 9728 0
49 -2017 9729 0
49 -2018 9730 0
49 -2019 9732 0
49 -2020 9733 0
49 -2021 9734 0
49 -2022 9735 0
49 -2023 9736 0
49 -2024 9737 0
49 -2025 9712 0
49 -2026 9725 0
49 -2027 9738 0
49 -2028 9739 0
49 -2029 9740 0
49 -2030 9741 0
49 -2031 9742 0
49 -2032 9743 0
49 -2033 9744 0
49 -2034 9745 0
49 -2035 9726 0
49 -2036 9727 0
49 -2037 9728 0
49 -2038 9729 0
49 -2039 9730 0
49 -2040 9732 0
49 -2041 9733 0
49 -2042 9734 0
49 -2043 9706 0
49 -2044 9719 0
49 -2045 9702 0
49 -2046 9703 0
49 -2047 9704 0
49 -2048 9705 0
49 -2049 9715 0
49 -2050 9716 0
49 -2051 9717 0
49 -2052 9718 0
49 -2053 9713 0
49 -2054 9731 0
49 -2055 9711 0
49 -2056 9724 0
49 -2057 9710 0
49 -2058 9723 0
49 -2059 9710 0
49 -2060 9723 0
49 -2061 9705 0
49 -2062 9718 0
49 -2063 9706 0
49 -2064 9719 0
49 -2065 9710 0
49 -2066 9740 0
49 -2067 9741 0
49 -2068 9742 0
49 -2069 9743 0
49 -2070 9744 0
49 -2071 9745 0
49 -2072 9746 0
49 -2073 9747 0
49 -2074 9723 0
49 -2075 9728 0
49 -2076 9729 0
49 -2077 9730 0
49 -2078 9732 0
49 -2079 9733 0
49 -2080 9734 0
49 -2081 9735 0
49 -2082 9736 0
49 -2083 9710 0
49 -2084 9723 0
49 -2085 9709 0
49 -2086 9722 0
49 -2087 9738 0
49 -2088 9739 0
49 -2089 9740 0
49 -2090 9741 0
49 -2091 9742 0
49 -2092 9743 0
49 -2093 9744 0
49 -2094 9745 0
49 -2095 9726 0
49 -2096 9727 0
49 -2097 9728 0
49 -2098 9729 0
49 -2099 9730 0
49 -2100 9732 0
49 -2101 9733 0
49 -2102 9734 0
49 -2103 9705 0
49 -2104 9718 0
49 -2105 9705 0
49 -2106 9718 0
49 -2107 9712 0
49 -2108 9725 0
49 -2109 9705 0
49 -2110 9718 0
49 -2111 9706 0
49 -2112 9740 0
49 -2113 9741 0
49 -2114 9745 0
49 -2115 9746 0
49 -2116 9747 0
49 -2117 9748 0
49 -2118 9719 0
49 -2119 9728 0
49 -2120 9729 0
49 -2121 9734 0
49 -2122 9735 0
49 -2123 9736 0
49 -2124 9737 0
49 -2125 9740 0
49 -2126 9745 0
49 -2127 9746 0
49 -2128 9747 0
49 -2129 9728 0
49 -2130 9734 0
49 -2131 9735 0
49 -2132 9736 0
49 -2133 9741 0
49 -2134 9742 0
49 -2135 9743 0
49 -2136 9744 0
49 -2137 9745 0
49 -2138 9746 0
49 -2139 9747 0
49 -2140 9748 0
49 -2141 9729 0
49 -2142 9730 0
49 -2143 9732 0
49 -2144 9733 0
49 -2145 9734 0
49 -2146 9735 0
49 -2147 9736 0
49 -2148 9737 0
49 -2149 9705 0
49 -2150 9718 0
49 -2151 9738 0
49 -2152 9726 0
49 -2153 9709 0
49 -2154 9722 0
49 -2155 9708 0
49 -2156 9721 0
49 -2157 9710 0
49 -2158 9723 0
49 -2159 9706 0
49 -2160 9719 0
49 -2161 9708 0
49 -2162 9721 0
49 -2163 9739 0
49 -2164 9740 0
49 -2165 9741 0
49 -2166 9742 0
49 -2167 9743 0
49 -2168 9744 0
49 -2169 9745 0
49 -2170 9746 0
49 -2171 9727 0
49 -2172 9728 0
49 -2173 9729 0
49 -2174 9730 0
49 -2175 9732 0
49 -2176 9733 0
49 -2177 9734 0
49 -2178 9735 0
49 -2179 9712 0
49 -2180 9725 0
49 -2181 9741 0
49 -2182 9729 0
49 -2183 9740 0
49 -2184 9746 0
49 -2185 9747 0
49 -2186 9728 0
49 -2187 9735 0
49 -2188 9736 0
49 -2189 9711 0
49 -2190 9724 0
49 -2191 9705 0
49 -2192 9718 0
49 -2193 9712 0
49 -2194 9725 0
49 -2195 9711 0
49 -2196 9724 0
49 -2197 9701 0
49 -2198 9702 0
49 -2199 9703 0
49 -2200 9704 0
49 -2201 9705 0
49 -2202 9711 0
49 -2203 9714 0
49 -2204 9715 0
49 -2205 9716 0
49 -2206 9717 0
49 -2207 9718 0
49 -2208 9724 0
49 -2209 9706 0
49 -2210 9719 0
49 -2211 9709 0
49 -2212 9722 0
49 -2213 9713 0
49 -2214 9731 0
49 -2215 9740 0
49 -2216 9741 0
49 -2217 9742 0
49 -2218 9743 0
49 -2219 9744 0
49 -2220 9745 0
49 -2221 9746 0
49 -2222 9747 0
49 -2223 9728 0
49 -2224 9729 0
49 -2225 9730 0
49 -2226 9732 0
49 -2227 9733 0
49 -2228 9734 0
49 -2229 9735 0
49 -2230 9736 0
49 -2231 9709 0
49 -2232 9722 0
49 -2233 9713 0
49 -2234 9731 0
49 -2235 9711 0
49 -2236 9724 0
49 -2237 9738 0
49 -2238 9739 0
49 -2239 9740 0
49 -2240 9741 0
49 -2241 9742 0
49 -2242 9743 0
49 -2243 9744 0
49 -2244 9745 0
49 -2245 9726 0
49 -2246 9727 0
49 -2247 9728 0
49 -2248 9729 0
49 -2249 9730 0
49 -2250 9732 0
49 -2251 9733 0
49 -2252 9734 0
49 -2253 9710 0
49 -2254 9723 0
49 -2255 9710 0
49 -2256 9723 0
49 -2257 9710 0
49 -2258 9723 0
49 -2259 9709 0
49 -2260 9722 0
49 -2261 9709 0
49 -2262 9722 0
49 -2263 9739 0
49 -2264 9740 0
49 -2265 9741 0
49 -2266 9742 0
49 -2267 9743 0
49 -2268 9744 0
49 -2269 9745 0
49 -2270 9746 0
49 -2271 9727 0
49 -2272 9728 0
49 -2273 9729 0
49 -2274 9730 0
49 -2275 9732 0
49 -2276 9733 0
49 -2277 9734 0
49 -2278 9735 0
49 -2279 9738 0
49 -2280 9748 0
49 -2281 9726 0
49 -2282 9737 0
49 -2283 9708 0
49 -2284 9721 0
49 -2285 9741 0
49 -2286 9729 0
49 -2287 9707 0
49 -2288 9720 0
49 -2289 9709 0
49 -2290 9722 0
49 -2291 9713 0
49 -2292 9731 0
49 -2293 9738 0
49 -2294 9726 0
49 -2295 9702 0
49 -2296 9703 0
49 -2297 9704 0
49 -2298 9705 0
49 -2299 9706 0
49 -2300 9707 0
49 -2301 9708 0
49 -2302 9709 0
49 -2303 9748 0
49 -2304 9715 0
49 -2305 9716 0
49 -2306 9717 0
49 -2307 9718 0
49 -2308 9719 0
49 -2309 9720 0
49 -2310 9721 0
49 -2311 9722 0
49 -2312 9737 0
49 -2313 9705 0
49 -2314 9718 0
49 -2315 9707 0
49 -2316 9720 0
49 -2317 9741 0
49 -2318 9742 0
49 -2319 9743 0
49 -2320 9744 0
49 -2321 9745 0
49 -2322 9746 0
49 -2323 9747 0
49 -2324 9748 0
49 -2325 9729 0
49 -2326 9730 0
49 -2327 9732 0
49 -2328 9733 0
49 -2329 9734 0
49 -2330 9735 0
49 -2331 9736 0
49 -2332 9737 0
49 -2333 9712 0
49 -2334 9725 0
49 -2335 9741 0
49 -2336 9742 0
49 -2337 9743 0
49 -2338 9744 0
49 -2339 9745 0
49 -2340 9746 0
49 -2341 9747 0
49 -2342 9748 0
49 -2343 9729 0
49 -2344 9730 0
49 -2345 9732 0
49 -2346 9733 0
49 -2347 9734 0
49 -2348 9735 0
49 -2349 9736 0
49 -2350 9737 0
49 -2351 9705 0
49 -2352 9718 0
49 -2353 9710 0
49 -2354 9723 0
49 -2355 9705 0
49 -2356 9718 0
49 -2357 9741 0
49 -2358 9742 0
49 -2359 9743 0
49 -2360 9744 0
49 -2361 9745 0
49 -2362 9746 0
49 -2363 9747 0
49 -2364 9748 0
49 -2365 9729 0
49 -2366 9730 0
49 -2367 9732 0
49 -2368 9733 0
49 -2369 9734 0
49 -2370 9735 0
49 -2371 9736 0
49 -2372 9737 0
49 -2373 9738 0
49 -2374 9726 0
49 -2375 9711 0
49 -2376 9724 0
49 -2377 9740 0
49 -2378 9741 0
49 -2379 9742 0
49 -2380 9743 0
49 -2381 9744 0
49 -2382 9745 0
49 -2383 9746 0
49 -2384 9747 0
49 -2385 9728 0
49 -2386 9729 0
49 -2387 9730 0
49 -2388 9732 0
49 -2389 9733 0
49 -2390 9734 0
49 -2391 9735 0
49 -2392 9736 0
49 -2393 9706 0
49 -2394 9719 0
49 -2395 9713 0
49 -2396 9731 0
49 -2397 9741 0
49 -2398 9744 0
49 -2399 9745 0
49 -2400 9746 0
49 -2401 9747 0
49 -2402 9748 0
49 -2403 9729 0
49 -2404 9733 0
49 -2405 9734 0
49 -2406 9735 0
49 -2407 9736 0
49 -2408 9737 0
49 -2409 9705 0
49 -2410 9718 0
49 -2411 9739 0
49 -2412 9727 0
49 -2413 9712 0
49 -2414 9725 0
49 -2415 9741 0
49 -2416 9742 0
49 -2417 9743 0
49 -2418 9744 0
49 -2419 9745 0
49 -2420 9746 0
49 -2421 9747 0
49 -2422 9748 0
49 -2423 9729 0
49 -2424 9730 0
49 -2425 9732 0
49 -2426 9733 0
49 -2427 9734 0
49 -2428 9735 0
49 -2429 9736 0
49 -2430 9737 0
49 -2431 9738 0
49 -2432 9726 0
49 -2433 9702 0
49 -2434 9703 0
49 -2435 9704 0
49 -2436 9705 0
49 -2437 9715 0
49 -2438 9716 0
49 -2439 9717 0
49 -2440 9718 0
49 -2441 9711 0
49 -2442 9724 0
49 -2443 9708 0
49 -2444 9721 0
49 -2445 9706 0
49 -2446 9719 0
49 -2447 9713 0
49 -2448 9731 0
49 -2449 9740 0
49 -2450 9741 0
49 -2451 9742 0
49 -2452 9743 0
49 -2453 9744 0
49 -2454 9745 0
49 -2455 9746 0
49 -2456 9747 0
49 -2457 9728 0
49 -2458 9729 0
49 -2459 9730 0
49 -2460 9732 0
49 -2461 9733 0
49 -2462 9734 0
49 -2463 9735 0
49 -2464 9736 0
49 -2465 9706 0
49 -2466 9719 0
49 -2467 9708 0
49 -2468 9721 0
49 -2469 9702 0
49 -2470 9710 0
49 -2471 9715 0
49 -2472 9723 0
49 -2473 9741 0
49 -2474 9742 0
49 -2475 9743 0
49 -2476 9744 0
49 -2477 9745 0
49 -2478 9746 0
49 -2479 9747 0
49 -2480 9748 0
49 -2481 9729 0
49 -2482 9730 0
49 -2483 9732 0
49 -2484 9733 0
49 -2485 9734 0
49 -2486 9735 0
49 -2487 9736 0
49 -2488 9737 0
49 -2489 9738 0
49 -2490 9739 0
49 -2491 9740 0
49 -2492 9741 0
49 -2493 9742 0
49 -2494 9743 0
49 -2495 9744 0
49 -2496 9745 0
49 -2497 9746 0
49 -2498 9747 0
49 -2499 9748 0
49 -2500 9726 0
49 -2501 9727 0
49 -2502 9728 0
49 -2503 9729 0
49 -2504 9730 0
49 -2505 9732 0
49 -2506 9733 0
49 -2507 9734 0
49 -2508 9735 0
49 -2509 9736 0
49 -2510 9737 0
49 -2511 9711 0
49 -2512 9724 0
49 -2513 9706 0
49 -2514 9719 0
49 -2515 9740 0
49 -2516 9728 0
49 -2517 9739 0
49 -2518 9740 0
49 -2519 9741 0
49 -2520 9742 0
49 -2521 9743 0
49 -2522 9744 0
49 -2523 9745 0
49 -2524 9746 0
49 -2525 9727 0
49 -2526 9728 0
49 -2527 9729 0
49 -2528 9730 0
49 -2529 9732 0
49 -2530 9733 0
49 -2531 9734 0
49 -2532 9735 0
49 -2533 9713 0
49 -2534 9731 0
49 -2535 9709 0
49 -2536 9722 0
49 -2537 9702 0
49 -2538 9703 0
49 -2539 9704 0
49 -2540 9705 0
49 -2541 9715 0
49 -2542 9716 0
49 -2543 9717 0
49 -2544 9718 0
49 -2545 9741 0
49 -2546 9729 0
49 -2547 9701 0
49 -2548 9702 0
49 -2549 9708 0
49 -2550 9714 0
49 -2551 9715 0
49 -2552 9721 0
49 -2553 9705 0
49 -2554 9718 0
49 -2555 9708 0
49 -2556 9721 0
49 -2557 9708 0
49 -2558 9721 0
49 -2559 9739 0
49 -2560 9740 0
49 -2561 9741 0
49 -2562 9742 0
49 -2563 9743 0
49 -2564 9744 0
49 -2565 9745 0
49 -2566 9746 0
49 -2567 9727 0
49 -2568 9728 0
49 -2569 9729 0
49 -2570 9730 0
49 -2571 9732 0
49 -2572 9733 0
49 -2573 9734 0
49 -2574 9735 0
49 -2575 9706 0
49 -2576 9719 0
49 -2577 9710 0
49 -2578 9723 0
49 -2579 9707 0
49 -2580 9720 0
49 -2581 9712 0
49 -2582 9725 0
49 -2583 9706 0
49 -2584 9719 0
49 -2585 9711 0
49 -2586 9724 0
49 -2587 9738 0
49 -2588 9739 0
49 -2589 9740 0
49 -2590 9741 0
49 -2591 9742 0
49 -2592 9743 0
49 -2593 9744 0
49 -2594 9745 0
49 -2595 9726 0
49 -2596 9727 0
49 -2597 9728 0
49 -2598 9729 0
49 -2599 9730 0
49 -2600 9732 0
49 -2601 9733 0
49 -2602 9734 0
49 -2603 9709 0
49 -2604 9722 0
49 -2605 9705 0
49 -2606 9718 0
49 -2607 9739 0
49 -2608 9740 0
49 -2609 9741 0
49 -2610 9742 0
49 -2611 9743 0
49 -2612 9744 0
49 -2613 9745 0
49 -2614 9746 0
49 -2615 9747 0
49 -2616 9748 0
49 -2617 9727 0
49 -2618 9728 0
49 -2619 9729 0
49 -2620 9730 0
49 -2621 9732 0
49 -2622 9733 0
49 -2623 9734 0
49 -2624 9735 0
49 -2625 9736 0
49 -2626 9737 0
49 -2627 9740 0
49 -2628 9741 0
49 -2629 9742 0
49 -2630 9743 0
49 -2631 9744 0
49 -2632 9745 0
49 -2633 9746 0
49 -2634 9747 0
49 -2635 9728 0
49 -2636 9729 0
49 -2637 9730 0
49 -2638 9732 0
49 -2639 9733 0
49 -2640 9734 0
49 -2641 9735 0
49 -2642 9736 0
49 -2643 9739 0
49 -2644 9740 0
49 -2645 9741 0
49 -2646 9742 0
49 -2647 9743 0
49 -2648 9744 0
49 -2649 9745 0
49 -2650 9746 0
49 -2651 9727 0
49 -2652 9728 0
49 -2653 9729 0
49 -2654 9730 0
49 -2655 9732 0
49 -2656 9733 0
49 -2657 9734 0
49 -2658 9735 0
49 -2659 9705 0
49 -2660 9718 0
49 -2661 9705 0
49 -2662 9718 0
49 -2663 9708 0
49 -2664 9721 0
49 -2665 9711 0
49 -2666 9714 0
49 -2667 9715 0
49 -2668 9716 0
49 -2669 9717 0
49 -2670 9718 0
49 -2671 9719 0
49 -2672 9720 0
49 -2673 9721 0
49 -2674 9722 0
49 -2675 9723 0
49 -2676 9724 0
49 -2677 9701 0
49 -2678 9702 0
49 -2679 9703 0
49 -2680 9704 0
49 -2681 9705 0
49 -2682 9706 0
49 -2683 9707 0
49 -2684 9708 0
49 -2685 9709 0
49 -2686 9710 0
49 -2687 9711 0
49 -2688 9724 0
49 -2689 9738 0
49 -2690 9739 0
49 -2691 9740 0
49 -2692 9741 0
49 -2693 9742 0
49 -2694 9743 0
49 -2695 9744 0
49 -2696 9745 0
49 -2697 9726 0
49 -2698 9727 0
49 -2699 9728 0
49 -2700 9729 0
49 -2701 9730 0
49 -2702 9732 0
49 -2703 9733 0
49 -2704 9734 0
49 -2705 9740 0
49 -2706 9728 0
49 -2707 9709 0
49 -2708 9710 0
49 -2709 9711 0
49 -2710 9738 0
49 -2711 9739 0
49 -2712 9740 0
49 -2713 9741 0
49 -2714 9722 0
49 -2715 9723 0
49 -2716 9724 0
49 -2717 9726 0
49 -2718 9727 0
49 -2719 9728 0
49 -2720 9729 0
49 -2721 9705 0
49 -2722 9718 0
49 -2723 9709 0
49 -2724 9722 0
49 -2725 9712 0
49 -2726 9725 0
49 -2727 9741 0
49 -2728 9742 0
49 -2729 9743 0
49 -2730 9744 0
49 -2731 9745 0
49 -2732 9746 0
49 -2733 9747 0
49 -2734 9748 0
49 -2735 9729 0
49 -2736 9730 0
49 -2737 9732 0
49 -2738 9733 0
49 -2739 9734 0
49 -2740 9735 0
49 -2741 9736 0
49 -2742 9737 0
49 -2743 9740 0
49 -2744 9741 0
49 -2745 9742 0
49 -2746 9743 0
49 -2747 9744 0
49 -2748 9745 0
49 -2749 9746 0
49 -2750 9747 0
49 -2751 9728 0
49 -2752 9729 0
49 -2753 9730 0
49 -2754 9732 0
49 -2755 9733 0
49 -2756 9734 0
49 -2757 9735 0
49 -2758 9736 0
49 -2759 9741 0
49 -2760 9745 0
49 -2761 9746 0
49 -2762 9747 0
49 -2763 9748 0
49 -2764 9729 0
49 -2765 9734 0
49 -2766 9735 0
49 -2767 9736 0
49 -2768 9737 0
49 -2769 9741 0
49 -2770 9729 0
49 -2771 9738 0
49 -2772 9726 0
49 -2773 9712 0
49 -2774 9725 0
49 -2775 9713 0
49 -2776 9731 0
49 -2777 9706 0
49 -2778 9719 0
49 -2779 9707 0
49 -2780 9720 0
49 -2781 9702 0
49 -2782 9703 0
49 -2783 9709 0
49 -2784 9715 0
49 -2785 9716 0
49 -2786 9722 0
49 -2787 9741 0
49 -2788 9729 0
49 -2789 9711 0
49 -2790 9724 0
49 -2791 9705 0
49 -2792 9718 0
49 -2793 9741 0
49 -2794 9742 0
49 -2795 9743 0
49 -2796 9744 0
49 -2797 9745 0
49 -2798 9746 0
49 -2799 9747 0
49 -2800 9748 0
49 -2801 9729 0
49 -2802 9730 0
49 -2803 9732 0
49 -2804 9733 0
49 -2805 9734 0
49 -2806 9735 0
49 -2807 9736 0
49 -2808 9737 0
49 -2809 9711 0
49 -2810 9724 0
49 -2811 9741 0
49 -2812 9742 0
49 -2813 9743 0
49 -2814 9744 0
49 -2815 9745 0
49 -2816 9746 0
49 -2817 9747 0
49 -2818 9748 0
49 -2819 9729 0
49 -2820 9730 0
49 -2821 9732 0
49 -2822 9733 0
49 -2823 9734 0
49 -2824 9735 0
49 -2825 9736 0
49 -2826 9737 0
49 -2827 9740 0
49 -2828 9741 0
49 -2829 9742 0
49 -2830 9743 0
49 -2831 9744 0
49 -2832 9745 0
49 -2833 9746 0
49 -2834 9747 0
49 -2835 9728 0
49 -2836 9729 0
49 -2837 9730 0
49 -2838 9732 0
49 -2839 9733 0
49 -2840 9734 0
49 -2841 9735 0
49 -2842 9736 0
49 -2843 9709 0
49 -2844 9722 0
49 -2845 9741 0
49 -2846 9744 0
49 -2847 9745 0
49 -2848 9746 0
49 -2849 9747 0
49 -2850 9748 0
49 -2851 9729 0
49 -2852 9733 0
49 -2853 9734 0
49 -2854 9735 0
49 -2855 9736 0
49 -2856 9737 0
49 -2857 9705 0
49 -2858 9718 0
49 -2859 9739 0
49 -2860 9740 0
49 -2861 9741 0
49 -2862 9742 0
49 -2863 9743 0
49 -2864 9744 0
49 -2865 9745 0
49 -2866 9746 0
49 -2867 9727 0
49 -2868 9728 0
49 -2869 9729 0
49 -2870 9730 0
49 -2871 9732 0
49 -2872 9733 0
49 -2873 9734 0
49 -2874 9735 0
49 -2875 9741 0
49 -2876 9744 0
49 -2877 9745 0
49 -2878 9746 0
49 -2879 9747 0
49 -2880 9748 0
49 -2881 9729 0
49 -2882 9733 0
49 -2883 9734 0
49 -2884 9735 0
49 -2885 9736 0
49 -2886 9737 0
